

units metal
atom_style molecular
boundary s s s    #non-periodic

# System definition
read_restart Energy_min_hydrocarbon_bearing.init.restart

# set groups
group free type 1 2
group anchor type  3 4
group roty type   5 6

# Pair Coefficients
pair_style	airebo 3.0 1 0
pair_coeff * * CH.airebo C H C H C H

#freeze the anchor 
fix anchorfix anchor setforce 0.0 0.0 0.0 #first is ID = user-assigned name for the fix,  ID of the group of atoms
velocity anchor set 0.0 0.0 0.0

#add the MD part to come to temp
fix nve all nve
timestep 0.00025 #picoseconds/step = 1E-12 seconds

# bring the temp of all the free 90K slowly
fix thermo_free free temp/berendsen 0. 90. 0.25

#output
thermo 10
run 1000 
write_restart hydrocarbon_bearing_at_temp.init.restart


