
units metal
atom_style molecular
boundary s s s    #non-periodic

# System definition
read_data 3DOF_take_2.data

# set groups
group free type 1 2
group leg1 type  3 4
group leg2 type   5 6
group leg3 type  7 8
group thermo type 9 10


# Pair Coefficients
pair_style	airebo 3.0 1 0
pair_coeff * * CH.airebo C H C H C H C H C H  

#freeze the motor atoms 
fix leg1fix leg1 setforce 0.0 0.0 0.0 #first is ID = user-assigned name for the fix,  ID of the group of atoms
velocity leg1 set 0.0 0.0 0.0

fix leg2fix leg2 setforce 0.0 0.0 0.0 #first is ID = user-assigned name for the fix,  ID of the group of atoms
velocity leg2 set 0.0 0.0 0.0

fix leg3fix leg3 setforce 0.0 0.0 0.0 #first is ID = user-assigned name for the fix,  ID of the group of atoms
velocity leg3 set 0.0 0.0 0.0

#Minimize before bringing to temperature and running motors

minimize 1.0e-4 1.0e-6 1000 10000
write_restart Energy_min_3DOFT2.init.restart
