

units metal
atom_style molecular
boundary s s s    #non-periodic

# System definition
read_data plate_bearing.data

# set groups
group free type 1 2
group anchor type  3 4
group rotz type   5 6

# Pair Coefficients
pair_style	airebo 3.0 1 0
pair_coeff * * CH.airebo C H C H C H

#freeze the ananchor setforce 0.0 0.0 0.0 #first is ID = user-assigned name for the fix,  ID of the group of atoms
velocity anchor set 0.0 0.0 0.0

fix rotor1fix rotz setforce 0.0 0.0 0.0 #first is ID = user-assigned name for the fix,  ID of the group of atoms
velocity rotz set 0.0 0.0 0.0

#add the MD part to come to temp
fix nve all nve
timestep 0.00025 #picoseconds/step = 1E-12 seconds

# bring the temp of all the free 90K slowly
fix thermo_free free temp/berendsen 0. 90. 0.25

#output
#dump 3DOF_temp_dump all custom 100 3DOF_temp.lammpstrj id type x y z vx vy vz
thermo 100
run 10000 
write_restart plate_bearing_at_temp.init.restart


