1500
GENERATED BY SAMSON 2025 R1
C 14.6585 0.71 9.0594
C 14.6585 -0.71 9.0594
C 13.6812 1.42 9.806
C 13.6812 -1.42 9.806
C 12.704 0.71 10.5525
C 12.704 -0.71 10.5525
C 11.7268 1.42 11.299
C 11.7268 -1.42 11.299
C 10.7495 0.71 12.0456
C 10.7495 -0.71 12.0456
C 9.7723 1.42 12.7921
C 9.7723 -1.42 12.7921
C 8.7951 0.71 13.5387
C 8.7951 -0.71 13.5387
C 7.8178 1.42 14.2852
C 7.8178 -1.42 14.2852
C 6.8406 0.71 15.0317
C 6.8406 -0.71 15.0317
C 5.8634 1.42 15.7783
C 5.8634 -1.42 15.7783
C 4.8862 0.71 16.5248
C 4.8862 -0.71 16.5248
C 3.9089 1.42 17.2714
C 3.9089 -1.42 17.2714
C 2.9317 0.71 18.0179
C 2.9317 -0.71 18.0179
C 1.9545 1.42 18.7644
C 1.9545 -1.42 18.7644
C 0.9772 0.71 19.511
C 0.9772 -0.71 19.511
C 14.6585 3.55 9.0594
C 14.6585 -3.55 9.0594
C 13.6812 2.84 9.806
C 13.6812 -2.84 9.806
C 12.704 3.55 10.5525
C 12.704 -3.55 10.5525
C 11.7268 2.84 11.299
C 11.7268 -2.84 11.299
C 10.7495 3.55 12.0456
C 10.7495 -3.55 12.0456
C 9.7723 2.84 12.7921
C 9.7723 -2.84 12.7921
C 8.7951 3.55 13.5387
C 8.7951 -3.55 13.5387
C 7.8178 2.84 14.2852
C 7.8178 -2.84 14.2852
C 6.8406 3.55 15.0317
C 6.8406 -3.55 15.0317
C 5.8634 2.84 15.7783
C 5.8634 -2.84 15.7783
C 4.8862 3.55 16.5248
C 4.8862 -3.55 16.5248
C 3.9089 2.84 17.2714
C 3.9089 -2.84 17.2714
C 14.6585 4.97 9.0594
C 14.6585 -4.97 9.0594
C 13.6812 5.68 9.806
C 13.6812 -5.68 9.806
C 12.704 4.97 10.5525
C 12.704 -4.97 10.5525
C 11.7268 5.68 11.299
C 11.7268 -5.68 11.299
C 10.7495 4.97 12.0456
C 10.7495 -4.97 12.0456
C 9.7723 5.68 12.7921
C 9.7723 -5.68 12.7921
C 8.7951 4.97 13.5387
C 8.7951 -4.97 13.5387
C 7.8178 5.68 14.2852
C 7.8178 -5.68 14.2852
C 6.8406 4.97 15.0317
C 6.8406 -4.97 15.0317
C 14.6585 7.81 9.0594
C 14.6585 -7.81 9.0594
C 13.6812 7.1 9.806
C 13.6812 -7.1 9.806
C 12.704 7.81 10.5525
C 12.704 -7.81 10.5525
C 11.7268 7.1 11.299
C 11.7268 -7.1 11.299
C 10.7495 7.81 12.0456
C 10.7495 -7.81 12.0456
C 9.7723 7.1 12.7921
C 9.7723 -7.1 12.7921
C 14.6585 9.23 9.0594
C 14.6585 -9.23 9.0594
C 13.6812 9.94 9.806
C 13.6812 -9.94 9.806
C 12.704 9.23 10.5525
C 12.704 -9.23 10.5525
C 3.8545 14.1604 9.0594
C 5.205 13.7216 9.0594
C 2.8772 13.4504 9.806
C 5.5782 12.5728 9.806
C 3.2505 12.3016 10.5525
C 4.601 11.8628 10.5525
C 2.2733 11.5916 11.299
C 4.9743 10.714 11.299
C 2.6465 10.4428 12.0456
C 3.997 10.004 12.0456
C 1.6693 9.7328 12.7921
C 4.3703 8.8552 12.7921
C 2.0426 8.584 13.5387
C 3.3931 8.1452 13.5387
C 1.0653 7.874 14.2852
C 3.7663 6.9964 14.2852
C 1.4386 6.7252 15.0317
C 2.7891 6.2864 15.0317
C 0.4614 6.0152 15.7783
C 3.1624 5.1376 15.7783
C 0.8347 4.8664 16.5248
C 2.1852 4.4276 16.5248
C -0.1426 4.1564 17.2714
C 2.5584 3.2788 17.2714
C 0.2307 3.0076 18.0179
C 1.5812 2.5688 18.0179
C -0.7465 2.2976 18.7644
C -0.3733 1.1488 19.511
C 1.1535 15.038 9.0594
C 7.906 12.844 9.0594
C 1.5267 13.8892 9.806
C 6.9287 12.134 9.806
C 0.5495 13.1792 10.5525
C 7.302 10.9852 10.5525
C 0.9228 12.0304 11.299
C 6.3248 10.2752 11.299
C -0.0545 11.3204 12.0456
C 6.698 9.1264 12.0456
C 0.3188 10.1716 12.7921
C 5.7208 8.4164 12.7921
C -0.6584 9.4616 13.5387
C 6.0941 7.2676 13.5387
C -0.2852 8.3128 14.2852
C 5.1168 6.5576 14.2852
C -1.2624 7.6028 15.0317
C 5.4901 5.4088 15.0317
C -0.8891 6.454 15.7783
C 4.5129 4.6988 15.7783
C -1.8663 5.744 16.5248
C -1.4931 4.5952 17.2714
C -0.197 15.4768 9.0594
C 9.2565 12.4052 9.0594
C -1.1743 14.7668 9.806
C 9.6297 11.2564 9.806
C -0.801 13.618 10.5525
C 8.6525 10.5464 10.5525
C -1.7782 12.908 11.299
C 9.0258 9.3976 11.299
C -1.405 11.7592 12.0456
C 8.0485 8.6876 12.0456
C -2.3822 11.0492 12.7921
C 8.4218 7.5388 12.7921
C -2.0089 9.9004 13.5387
C 7.4446 6.8288 13.5387
C -2.9862 9.1904 14.2852
C -2.6129 8.0416 15.0317
C -2.898 16.3545 9.0594
C 11.9575 11.5276 9.0594
C -2.5248 15.2056 9.806
C 10.9802 10.8176 9.806
C -3.502 14.4956 10.5525
C 11.3535 9.6688 10.5525
C -3.1287 13.3468 11.299
C 10.3763 8.9588 11.299
C -4.106 12.6368 12.0456
C -3.7327 11.488 12.7921
C -4.2485 16.7933 9.0594
C 13.308 11.0888 9.0594
C -5.2258 16.0833 9.806
C -4.8525 14.9345 10.5525
C -12.2763 8.0416 9.0594
C -11.4416 9.1904 9.0594
C -11.903 6.8928 9.806
C -10.2337 9.1904 9.806
C -10.6951 6.8928 10.5525
C -9.8604 8.0416 10.5525
C -10.3218 5.744 11.299
C -8.6525 8.0416 11.299
C -9.1139 5.744 12.0456
C -8.2792 6.8928 12.0456
C -8.7406 4.5952 12.7921
C -7.0713 6.8928 12.7921
C -7.5327 4.5952 13.5387
C -6.698 5.744 13.5387
C -7.1594 3.4464 14.2852
C -5.4901 5.744 14.2852
C -5.9515 3.4464 15.0317
C -5.1168 4.5952 15.0317
C -5.5782 2.2976 15.7783
C -3.9089 4.5952 15.7783
C -4.3703 2.2976 16.5248
C -3.5357 3.4464 16.5248
C -3.997 1.1488 17.2714
C -2.3277 3.4464 17.2714
C -2.7891 1.1488 18.0179
C -1.9545 2.2976 18.0179
C -2.4158 0 18.7644
C -1.2079 0 19.511
C -13.9456 5.744 9.0594
C -9.7723 11.488 9.0594
C -12.7377 5.744 9.806
C -9.399 10.3392 9.806
C -12.3644 4.5952 10.5525
C -8.1911 10.3392 10.5525
C -11.1565 4.5952 11.299
C -7.8178 9.1904 11.299
C -10.7832 3.4464 12.0456
C -6.6099 9.1904 12.0456
C -9.5753 3.4464 12.7921
C -6.2367 8.0416 12.7921
C -9.202 2.2976 13.5387
C -5.0287 8.0416 13.5387
C -7.9941 2.2976 14.2852
C -4.6555 6.8928 14.2852
C -7.6208 1.1488 15.0317
C -3.4475 6.8928 15.0317
C -6.4129 1.1488 15.7783
C -3.0743 5.744 15.7783
C -6.0396 0 16.5248
C -4.8317 0 17.2714
C -14.7802 4.5952 9.0594
C -8.9377 12.6368 9.0594
C -14.407 3.4464 9.806
C -7.7297 12.6368 9.806
C -13.199 3.4464 10.5525
C -7.3565 11.488 10.5525
C -12.8258 2.2976 11.299
C -6.1485 11.488 11.299
C -11.6179 2.2976 12.0456
C -5.7753 10.3392 12.0456
C -11.2446 1.1488 12.7921
C -4.5673 10.3392 12.7921
C -10.0367 1.1488 13.5387
C -4.1941 9.1904 13.5387
C -9.6634 0 14.2852
C -8.4555 0 15.0317
C -16.4496 2.2976 9.0594
C -7.2683 14.9345 9.0594
C -15.2416 2.2976 9.806
C -6.8951 13.7856 9.806
C -14.8684 1.1488 10.5525
C -5.6872 13.7856 10.5525
C -13.6604 1.1488 11.299
C -5.3139 12.6368 11.299
C -13.2872 0 12.0456
C -12.0792 0 12.7921
C -17.2842 1.1488 9.0594
C -6.4337 16.0833 9.0594
C -16.9109 0 9.806
C -15.703 0 10.5525
C -11.4416 -9.1904 9.0594
C -12.2763 -8.0416 9.0594
C -10.2337 -9.1904 9.806
C -11.903 -6.8928 9.806
C -9.8604 -8.0416 10.5525
C -10.6951 -6.8928 10.5525
C -8.6525 -8.0416 11.299
C -10.3218 -5.744 11.299
C -8.2792 -6.8928 12.0456
C -9.1139 -5.744 12.0456
C -7.0713 -6.8928 12.7921
C -8.7406 -4.5952 12.7921
C -6.698 -5.744 13.5387
C -7.5327 -4.5952 13.5387
C -5.4901 -5.744 14.2852
C -7.1594 -3.4464 14.2852
C -5.1168 -4.5952 15.0317
C -5.9515 -3.4464 15.0317
C -3.9089 -4.5952 15.7783
C -5.5782 -2.2976 15.7783
C -3.5357 -3.4464 16.5248
C -4.3703 -2.2976 16.5248
C -2.3277 -3.4464 17.2714
C -3.997 -1.1488 17.2714
C -1.9545 -2.2976 18.0179
C -2.7891 -1.1488 18.0179
C -0.7465 -2.2976 18.7644
C -0.3733 -1.1488 19.511
C -9.7723 -11.488 9.0594
C -13.9456 -5.744 9.0594
C -9.399 -10.3392 9.806
C -12.7377 -5.744 9.806
C -8.1911 -10.3392 10.5525
C -12.3644 -4.5952 10.5525
C -7.8178 -9.1904 11.299
C -11.1565 -4.5952 11.299
C -6.6099 -9.1904 12.0456
C -10.7832 -3.4464 12.0456
C -6.2367 -8.0416 12.7921
C -9.5753 -3.4464 12.7921
C -5.0287 -8.0416 13.5387
C -9.202 -2.2976 13.5387
C -4.6555 -6.8928 14.2852
C -7.9941 -2.2976 14.2852
C -3.4475 -6.8928 15.0317
C -7.6208 -1.1488 15.0317
C -3.0743 -5.744 15.7783
C -6.4129 -1.1488 15.7783
C -1.8663 -5.744 16.5248
C -1.4931 -4.5952 17.2714
C -8.9377 -12.6368 9.0594
C -14.7802 -4.5952 9.0594
C -7.7297 -12.6368 9.806
C -14.407 -3.4464 9.806
C -7.3565 -11.488 10.5525
C -13.199 -3.4464 10.5525
C -6.1485 -11.488 11.299
C -12.8258 -2.2976 11.299
C -5.7753 -10.3392 12.0456
C -11.6179 -2.2976 12.0456
C -4.5673 -10.3392 12.7921
C -11.2446 -1.1488 12.7921
C -4.1941 -9.1904 13.5387
C -10.0367 -1.1488 13.5387
C -2.9862 -9.1904 14.2852
C -2.6129 -8.0416 15.0317
C -7.2683 -14.9345 9.0594
C -16.4496 -2.2976 9.0594
C -6.8951 -13.7856 9.806
C -15.2416 -2.2976 9.806
C -5.6872 -13.7856 10.5525
C -14.8684 -1.1488 10.5525
C -5.3139 -12.6368 11.299
C -13.6604 -1.1488 11.299
C -4.106 -12.6368 12.0456
C -3.7327 -11.488 12.7921
C -6.4337 -16.0833 9.0594
C -17.2842 -1.1488 9.0594
C -5.2258 -16.0833 9.806
C -4.8525 -14.9345 10.5525
C 5.205 -13.7216 9.0594
C 3.8545 -14.1604 9.0594
C 5.5782 -12.5728 9.806
C 2.8772 -13.4504 9.806
C 4.601 -11.8628 10.5525
C 3.2505 -12.3016 10.5525
C 4.9743 -10.714 11.299
C 2.2733 -11.5916 11.299
C 3.997 -10.004 12.0456
C 2.6465 -10.4428 12.0456
C 4.3703 -8.8552 12.7921
C 1.6693 -9.7328 12.7921
C 3.3931 -8.1452 13.5387
C 2.0426 -8.584 13.5387
C 3.7663 -6.9964 14.2852
C 1.0653 -7.874 14.2852
C 2.7891 -6.2864 15.0317
C 1.4386 -6.7252 15.0317
C 3.1624 -5.1376 15.7783
C 0.4614 -6.0152 15.7783
C 2.1852 -4.4276 16.5248
C 0.8347 -4.8664 16.5248
C 2.5584 -3.2788 17.2714
C -0.1426 -4.1564 17.2714
C 1.5812 -2.5688 18.0179
C 0.2307 -3.0076 18.0179
C 7.906 -12.844 9.0594
C 1.1535 -15.038 9.0594
C 6.9287 -12.134 9.806
C 1.5267 -13.8892 9.806
C 7.302 -10.9852 10.5525
C 0.5495 -13.1792 10.5525
C 6.3248 -10.2752 11.299
C 0.9228 -12.0304 11.299
C 6.698 -9.1264 12.0456
C -0.0545 -11.3204 12.0456
C 5.7208 -8.4164 12.7921
C 0.3188 -10.1716 12.7921
C 6.0941 -7.2676 13.5387
C -0.6584 -9.4616 13.5387
C 5.1168 -6.5576 14.2852
C -0.2852 -8.3128 14.2852
C 5.4901 -5.4088 15.0317
C -1.2624 -7.6028 15.0317
C 4.5129 -4.6988 15.7783
C -0.8891 -6.454 15.7783
C 9.2565 -12.4052 9.0594
C -0.197 -15.4768 9.0594
C 9.6297 -11.2564 9.806
C -1.1743 -14.7668 9.806
C 8.6525 -10.5464 10.5525
C -0.801 -13.618 10.5525
C 9.0258 -9.3976 11.299
C -1.7782 -12.908 11.299
C 8.0485 -8.6876 12.0456
C -1.405 -11.7592 12.0456
C 8.4218 -7.5388 12.7921
C -2.3822 -11.0492 12.7921
C 7.4446 -6.8288 13.5387
C -2.0089 -9.9004 13.5387
C 11.9575 -11.5276 9.0594
C -2.898 -16.3545 9.0594
C 10.9802 -10.8176 9.806
C -2.5248 -15.2056 9.806
C 11.3535 -9.6688 10.5525
C -3.502 -14.4956 10.5525
C 10.3763 -8.9588 11.299
C -3.1287 -13.3468 11.299
C 13.308 -11.0888 9.0594
C -4.2485 -16.7933 9.0594
C 14.8892 1.42 7.8515
C 14.8892 -1.42 7.8515
C 15.1199 0.71 6.6436
C 15.1199 -0.71 6.6436
C 15.3505 1.42 5.4357
C 15.3505 -1.42 5.4357
C 15.5812 0.71 4.2277
C 15.5812 -0.71 4.2277
C 15.8119 1.42 3.0198
C 15.8119 -1.42 3.0198
C 16.0426 0.71 1.8119
C 16.0426 -0.71 1.8119
C 16.2733 1.42 0.604
C 16.2733 -1.42 0.604
C 16.504 0.71 -0.604
C 16.504 -0.71 -0.604
C 16.7347 1.42 -1.8119
C 16.7347 -1.42 -1.8119
C 16.9654 0.71 -3.0198
C 16.9654 -0.71 -3.0198
C 17.1961 1.42 -4.2277
C 17.1961 -1.42 -4.2277
C 17.4268 0.71 -5.4357
C 17.4268 -0.71 -5.4357
C 17.6575 1.42 -6.6436
C 17.6575 -1.42 -6.6436
C 17.8882 0.71 -7.8515
C 17.8882 -0.71 -7.8515
C 14.8892 2.84 7.8515
C 14.8892 -2.84 7.8515
C 15.1199 3.55 6.6436
C 15.1199 -3.55 6.6436
C 15.3505 2.84 5.4357
C 15.3505 -2.84 5.4357
C 15.5812 3.55 4.2277
C 15.5812 -3.55 4.2277
C 15.8119 2.84 3.0198
C 15.8119 -2.84 3.0198
C 16.0426 3.55 1.8119
C 16.0426 -3.55 1.8119
C 16.2733 2.84 0.604
C 16.2733 -2.84 0.604
C 16.504 3.55 -0.604
C 16.504 -3.55 -0.604
C 16.7347 2.84 -1.8119
C 16.7347 -2.84 -1.8119
C 16.9654 3.55 -3.0198
C 16.9654 -3.55 -3.0198
C 17.1961 2.84 -4.2277
C 17.1961 -2.84 -4.2277
C 14.8892 5.68 7.8515
C 14.8892 -5.68 7.8515
C 15.1199 4.97 6.6436
C 15.1199 -4.97 6.6436
C 15.3505 5.68 5.4357
C 15.3505 -5.68 5.4357
C 15.5812 4.97 4.2277
C 15.5812 -4.97 4.2277
C 15.8119 5.68 3.0198
C 15.8119 -5.68 3.0198
C 16.0426 4.97 1.8119
C 16.0426 -4.97 1.8119
C 16.2733 5.68 0.604
C 16.2733 -5.68 0.604
C 16.504 4.97 -0.604
C 16.504 -4.97 -0.604
C 14.8892 7.1 7.8515
C 14.8892 -7.1 7.8515
C 15.1199 7.81 6.6436
C 15.1199 -7.81 6.6436
C 15.3505 7.1 5.4357
C 15.3505 -7.1 5.4357
C 15.5812 7.81 4.2277
C 15.5812 -7.81 4.2277
C 15.8119 7.1 3.0198
C 15.8119 -7.1 3.0198
C 14.8892 9.94 7.8515
C 14.8892 -9.94 7.8515
C 15.1199 9.23 6.6436
C 15.1199 -9.23 6.6436
C 3.2505 14.5992 7.8515
C 5.9515 13.7216 7.8515
C 3.997 14.5992 6.6436
C 5.3475 14.1604 6.6436
C 3.3931 15.038 5.4357
C 6.0941 14.1604 5.4357
C 4.1396 15.038 4.2277
C 5.4901 14.5992 4.2277
C 3.5357 15.4768 3.0198
C 6.2367 14.5992 3.0198
C 4.2822 15.4768 1.8119
C 5.6327 15.038 1.8119
C 3.6782 15.9156 0.604
C 6.3792 15.038 0.604
C 4.4248 15.9156 -0.604
C 5.7753 15.4768 -0.604
C 3.8208 16.3545 -1.8119
C 6.5218 15.4768 -1.8119
C 4.5673 16.3545 -3.0198
C 5.9178 15.9156 -3.0198
C 3.9634 16.7933 -4.2277
C 6.6644 15.9156 -4.2277
C 4.7099 16.7933 -5.4357
C 6.0604 16.3545 -5.4357
C 4.106 17.2321 -6.6436
C 6.807 16.3545 -6.6436
C 4.8525 17.2321 -7.8515
C 6.203 16.7933 -7.8515
C 1.9 15.038 7.8515
C 7.302 13.2828 7.8515
C 1.296 15.4768 6.6436
C 8.0485 13.2828 6.6436
C 2.0426 15.4768 5.4357
C 7.4446 13.7216 5.4357
C 1.4386 15.9156 4.2277
C 8.1911 13.7216 4.2277
C 2.1852 15.9156 3.0198
C 7.5872 14.1604 3.0198
C 1.5812 16.3545 1.8119
C 8.3337 14.1604 1.8119
C 2.3277 16.3545 0.604
C 7.7297 14.5992 0.604
C 1.7238 16.7933 -0.604
C 8.4763 14.5992 -0.604
C 2.4703 16.7933 -1.8119
C 7.8723 15.038 -1.8119
C 1.8663 17.2321 -3.0198
C 8.6188 15.038 -3.0198
C 2.6129 17.2321 -4.2277
C 8.0149 15.4768 -4.2277
C -0.801 15.9156 7.8515
C 10.003 12.4052 7.8515
C -0.0545 15.9156 6.6436
C 9.399 12.844 6.6436
C -0.6584 16.3545 5.4357
C 10.1456 12.844 5.4357
C 0.0881 16.3545 4.2277
C 9.5416 13.2828 4.2277
C -0.5158 16.7933 3.0198
C 10.2882 13.2828 3.0198
C 0.2307 16.7933 1.8119
C 9.6842 13.7216 1.8119
C -0.3733 17.2321 0.604
C 10.4307 13.7216 0.604
C 0.3733 17.2321 -0.604
C 9.8268 14.1604 -0.604
C -2.1515 16.3545 7.8515
C 11.3535 11.9664 7.8515
C -2.7555 16.7933 6.6436
C 12.1 11.9664 6.6436
C -2.0089 16.7933 5.4357
C 11.4961 12.4052 5.4357
C -2.6129 17.2321 4.2277
C 12.2426 12.4052 4.2277
C -1.8663 17.2321 3.0198
C 11.6387 12.844 3.0198
C -4.8525 17.2321 7.8515
C 14.0545 11.0888 7.8515
C -4.106 17.2321 6.6436
C 13.4505 11.5276 6.6436
C -12.8802 7.6028 7.8515
C -11.2109 9.9004 7.8515
C -12.6495 8.3128 6.6436
C -11.8149 9.4616 6.6436
C -13.2535 7.874 5.4357
C -11.5842 10.1716 5.4357
C -13.0228 8.584 4.2277
C -12.1882 9.7328 4.2277
C -13.6268 8.1452 3.0198
C -11.9575 10.4428 3.0198
C -13.3961 8.8552 1.8119
C -12.5614 10.004 1.8119
C -14 8.4164 0.604
C -12.3307 10.714 0.604
C -13.7694 9.1264 -0.604
C -12.9347 10.2752 -0.604
C -14.3733 8.6876 -1.8119
C -12.704 10.9852 -1.8119
C -14.1426 9.3976 -3.0198
C -13.308 10.5464 -3.0198
C -14.7466 8.9588 -4.2277
C -13.0773 11.2564 -4.2277
C -14.5159 9.6688 -5.4357
C -13.6812 10.8176 -5.4357
C -15.1199 9.23 -6.6436
C -13.4505 11.5276 -6.6436
C -14.8892 9.94 -7.8515
C -14.0545 11.0888 -7.8515
C -13.7149 6.454 7.8515
C -10.3763 11.0492 7.8515
C -14.3189 6.0152 6.6436
C -10.1456 11.7592 6.6436
C -14.0882 6.7252 5.4357
C -10.7495 11.3204 5.4357
C -14.6921 6.2864 4.2277
C -10.5188 12.0304 4.2277
C -14.4614 6.9964 3.0198
C -11.1228 11.5916 3.0198
C -15.0654 6.5576 1.8119
C -10.8921 12.3016 1.8119
C -14.8347 7.2676 0.604
C -11.4961 11.8628 0.604
C -15.4387 6.8288 -0.604
C -11.2654 12.5728 -0.604
C -15.208 7.5388 -1.8119
C -11.8693 12.134 -1.8119
C -15.8119 7.1 -3.0198
C -11.6387 12.844 -3.0198
C -15.5812 7.81 -4.2277
C -12.2426 12.4052 -4.2277
C -15.3842 4.1564 7.8515
C -8.707 13.3468 7.8515
C -15.1535 4.8664 6.6436
C -9.3109 12.908 6.6436
C -15.7575 4.4276 5.4357
C -9.0802 13.618 5.4357
C -15.5268 5.1376 4.2277
C -9.6842 13.1792 4.2277
C -16.1307 4.6988 3.0198
C -9.4535 13.8892 3.0198
C -15.9 5.4088 1.8119
C -10.0575 13.4504 1.8119
C -16.504 4.97 0.604
C -9.8268 14.1604 0.604
C -16.2733 5.68 -0.604
C -10.4307 13.7216 -0.604
C -16.2189 3.0076 7.8515
C -7.8723 14.4956 7.8515
C -16.8228 2.5688 6.6436
C -7.6416 15.2056 6.6436
C -16.5921 3.2788 5.4357
C -8.2456 14.7668 5.4357
C -17.1961 2.84 4.2277
C -8.0149 15.4768 4.2277
C -16.9654 3.55 3.0198
C -8.6188 15.038 3.0198
C -17.8882 0.71 7.8515
C -6.203 16.7933 7.8515
C -17.6575 1.42 6.6436
C -6.807 16.3545 6.6436
C -11.2109 -9.9004 7.8515
C -12.8802 -7.6028 7.8515
C -11.8149 -9.4616 6.6436
C -12.6495 -8.3128 6.6436
C -11.5842 -10.1716 5.4357
C -13.2535 -7.874 5.4357
C -12.1882 -9.7328 4.2277
C -13.0228 -8.584 4.2277
C -11.9575 -10.4428 3.0198
C -13.6268 -8.1452 3.0198
C -12.5614 -10.004 1.8119
C -13.3961 -8.8552 1.8119
C -12.3307 -10.714 0.604
C -14 -8.4164 0.604
C -12.9347 -10.2752 -0.604
C -13.7694 -9.1264 -0.604
C -12.704 -10.9852 -1.8119
C -14.3733 -8.6876 -1.8119
C -13.308 -10.5464 -3.0198
C -14.1426 -9.3976 -3.0198
C -13.0773 -11.2564 -4.2277
C -14.7466 -8.9588 -4.2277
C -13.6812 -10.8176 -5.4357
C -14.5159 -9.6688 -5.4357
C -13.4505 -11.5276 -6.6436
C -15.1199 -9.23 -6.6436
C -14.0545 -11.0888 -7.8515
C -14.8892 -9.94 -7.8515
C -10.3763 -11.0492 7.8515
C -13.7149 -6.454 7.8515
C -10.1456 -11.7592 6.6436
C -14.3189 -6.0152 6.6436
C -10.7495 -11.3204 5.4357
C -14.0882 -6.7252 5.4357
C -10.5188 -12.0304 4.2277
C -14.6921 -6.2864 4.2277
C -11.1228 -11.5916 3.0198
C -14.4614 -6.9964 3.0198
C -10.8921 -12.3016 1.8119
C -15.0654 -6.5576 1.8119
C -11.4961 -11.8628 0.604
C -14.8347 -7.2676 0.604
C -11.2654 -12.5728 -0.604
C -15.4387 -6.8288 -0.604
C -11.8693 -12.134 -1.8119
C -15.208 -7.5388 -1.8119
C -11.6387 -12.844 -3.0198
C -15.8119 -7.1 -3.0198
C -12.2426 -12.4052 -4.2277
C -15.5812 -7.81 -4.2277
C -8.707 -13.3468 7.8515
C -15.3842 -4.1564 7.8515
C -9.3109 -12.908 6.6436
C -15.1535 -4.8664 6.6436
C -9.0802 -13.618 5.4357
C -15.7575 -4.4276 5.4357
C -9.6842 -13.1792 4.2277
C -15.5268 -5.1376 4.2277
C -9.4535 -13.8892 3.0198
C -16.1307 -4.6988 3.0198
C -10.0575 -13.4504 1.8119
C -15.9 -5.4088 1.8119
C -9.8268 -14.1604 0.604
C -16.504 -4.97 0.604
C -10.4307 -13.7216 -0.604
C -16.2733 -5.68 -0.604
C -7.8723 -14.4956 7.8515
C -16.2189 -3.0076 7.8515
C -7.6416 -15.2056 6.6436
C -16.8228 -2.5688 6.6436
C -8.2456 -14.7668 5.4357
C -16.5921 -3.2788 5.4357
C -8.0149 -15.4768 4.2277
C -17.1961 -2.84 4.2277
C -8.6188 -15.038 3.0198
C -16.9654 -3.55 3.0198
C -6.203 -16.7933 7.8515
C -17.8882 -0.71 7.8515
C -6.807 -16.3545 6.6436
C -17.6575 -1.42 6.6436
C 5.9515 -13.7216 7.8515
C 3.2505 -14.5992 7.8515
C 5.3475 -14.1604 6.6436
C 3.997 -14.5992 6.6436
C 6.0941 -14.1604 5.4357
C 3.3931 -15.038 5.4357
C 5.4901 -14.5992 4.2277
C 4.1396 -15.038 4.2277
C 6.2367 -14.5992 3.0198
C 3.5357 -15.4768 3.0198
C 5.6327 -15.038 1.8119
C 4.2822 -15.4768 1.8119
C 6.3792 -15.038 0.604
C 3.6782 -15.9156 0.604
C 5.7753 -15.4768 -0.604
C 4.4248 -15.9156 -0.604
C 6.5218 -15.4768 -1.8119
C 3.8208 -16.3545 -1.8119
C 5.9178 -15.9156 -3.0198
C 4.5673 -16.3545 -3.0198
C 6.6644 -15.9156 -4.2277
C 3.9634 -16.7933 -4.2277
C 6.0604 -16.3545 -5.4357
C 4.7099 -16.7933 -5.4357
C 6.807 -16.3545 -6.6436
C 4.106 -17.2321 -6.6436
C 6.203 -16.7933 -7.8515
C 4.8525 -17.2321 -7.8515
C 7.302 -13.2828 7.8515
C 1.9 -15.038 7.8515
C 8.0485 -13.2828 6.6436
C 1.296 -15.4768 6.6436
C 7.4446 -13.7216 5.4357
C 2.0426 -15.4768 5.4357
C 8.1911 -13.7216 4.2277
C 1.4386 -15.9156 4.2277
C 7.5872 -14.1604 3.0198
C 2.1852 -15.9156 3.0198
C 8.3337 -14.1604 1.8119
C 1.5812 -16.3545 1.8119
C 7.7297 -14.5992 0.604
C 2.3277 -16.3545 0.604
C 8.4763 -14.5992 -0.604
C 1.7238 -16.7933 -0.604
C 7.8723 -15.038 -1.8119
C 2.4703 -16.7933 -1.8119
C 8.6188 -15.038 -3.0198
C 1.8663 -17.2321 -3.0198
C 8.0149 -15.4768 -4.2277
C 2.6129 -17.2321 -4.2277
C 10.003 -12.4052 7.8515
C -0.801 -15.9156 7.8515
C 9.399 -12.844 6.6436
C -0.0545 -15.9156 6.6436
C 10.1456 -12.844 5.4357
C -0.6584 -16.3545 5.4357
C 9.5416 -13.2828 4.2277
C 0.0881 -16.3545 4.2277
C 10.2882 -13.2828 3.0198
C -0.5158 -16.7933 3.0198
C 9.6842 -13.7216 1.8119
C 0.2307 -16.7933 1.8119
C 10.4307 -13.7216 0.604
C -0.3733 -17.2321 0.604
C 9.8268 -14.1604 -0.604
C 0.3733 -17.2321 -0.604
C 11.3535 -11.9664 7.8515
C -2.1515 -16.3545 7.8515
C 12.1 -11.9664 6.6436
C -2.7555 -16.7933 6.6436
C 11.4961 -12.4052 5.4357
C -2.0089 -16.7933 5.4357
C 12.2426 -12.4052 4.2277
C -2.6129 -17.2321 4.2277
C 11.6387 -12.844 3.0198
C -1.8663 -17.2321 3.0198
C 14.0545 -11.0888 7.8515
C -4.8525 -17.2321 7.8515
C 13.4505 -11.5276 6.6436
C -4.106 -17.2321 6.6436
C 11.4416 9.1904 -9.0594
C 12.2763 8.0416 -9.0594
C 11.2109 9.9004 -7.8515
C 12.8802 7.6028 -7.8515
C 11.8149 9.4616 -6.6436
C 12.6495 8.3128 -6.6436
C 11.5842 10.1716 -5.4357
C 13.2535 7.874 -5.4357
C 12.1882 9.7328 -4.2277
C 13.0228 8.584 -4.2277
C 11.9575 10.4428 -3.0198
C 13.6268 8.1452 -3.0198
C 12.5614 10.004 -1.8119
C 13.3961 8.8552 -1.8119
C 12.3307 10.714 -0.604
C 14 8.4164 -0.604
C 12.9347 10.2752 0.604
C 13.7694 9.1264 0.604
C 12.704 10.9852 1.8119
C 14.3733 8.6876 1.8119
C 13.308 10.5464 3.0198
C 14.1426 9.3976 3.0198
C 13.0773 11.2564 4.2277
C 14.7466 8.9588 4.2277
C 13.6812 10.8176 5.4357
C 14.5159 9.6688 5.4357
C 9.7723 11.488 -9.0594
C 13.9456 5.744 -9.0594
C 10.3763 11.0492 -7.8515
C 13.7149 6.454 -7.8515
C 10.1456 11.7592 -6.6436
C 14.3189 6.0152 -6.6436
C 10.7495 11.3204 -5.4357
C 14.0882 6.7252 -5.4357
C 10.5188 12.0304 -4.2277
C 14.6921 6.2864 -4.2277
C 11.1228 11.5916 -3.0198
C 14.4614 6.9964 -3.0198
C 10.8921 12.3016 -1.8119
C 15.0654 6.5576 -1.8119
C 11.4961 11.8628 -0.604
C 14.8347 7.2676 -0.604
C 11.2654 12.5728 0.604
C 15.4387 6.8288 0.604
C 11.8693 12.134 1.8119
C 15.208 7.5388 1.8119
C 8.9377 12.6368 -9.0594
C 14.7802 4.5952 -9.0594
C 8.707 13.3468 -7.8515
C 15.3842 4.1564 -7.8515
C 9.3109 12.908 -6.6436
C 15.1535 4.8664 -6.6436
C 9.0802 13.618 -5.4357
C 15.7575 4.4276 -5.4357
C 9.6842 13.1792 -4.2277
C 15.5268 5.1376 -4.2277
C 9.4535 13.8892 -3.0198
C 16.1307 4.6988 -3.0198
C 10.0575 13.4504 -1.8119
C 15.9 5.4088 -1.8119
C 7.2683 14.9345 -9.0594
C 16.4496 2.2976 -9.0594
C 7.8723 14.4956 -7.8515
C 16.2189 3.0076 -7.8515
C 7.6416 15.2056 -6.6436
C 16.8228 2.5688 -6.6436
C 8.2456 14.7668 -5.4357
C 16.5921 3.2788 -5.4357
C 6.4337 16.0833 -9.0594
C 17.2842 1.1488 -9.0594
C -5.205 13.7216 -9.0594
C -3.8545 14.1604 -9.0594
C -5.9515 13.7216 -7.8515
C -3.2505 14.5992 -7.8515
C -5.3475 14.1604 -6.6436
C -3.997 14.5992 -6.6436
C -6.0941 14.1604 -5.4357
C -3.3931 15.038 -5.4357
C -5.4901 14.5992 -4.2277
C -4.1396 15.038 -4.2277
C -6.2367 14.5992 -3.0198
C -3.5357 15.4768 -3.0198
C -5.6327 15.038 -1.8119
C -4.2822 15.4768 -1.8119
C -6.3792 15.038 -0.604
C -3.6782 15.9156 -0.604
C -5.7753 15.4768 0.604
C -4.4248 15.9156 0.604
C -6.5218 15.4768 1.8119
C -3.8208 16.3545 1.8119
C -5.9178 15.9156 3.0198
C -4.5673 16.3545 3.0198
C -6.6644 15.9156 4.2277
C -3.9634 16.7933 4.2277
C -6.0604 16.3545 5.4357
C -4.7099 16.7933 5.4357
C -7.906 12.844 -9.0594
C -1.1535 15.038 -9.0594
C -7.302 13.2828 -7.8515
C -1.9 15.038 -7.8515
C -8.0485 13.2828 -6.6436
C -1.296 15.4768 -6.6436
C -7.4446 13.7216 -5.4357
C -2.0426 15.4768 -5.4357
C -8.1911 13.7216 -4.2277
C -1.4386 15.9156 -4.2277
C -7.5872 14.1604 -3.0198
C -2.1852 15.9156 -3.0198
C -8.3337 14.1604 -1.8119
C -1.5812 16.3545 -1.8119
C -7.7297 14.5992 -0.604
C -2.3277 16.3545 -0.604
C -8.4763 14.5992 0.604
C -1.7238 16.7933 0.604
C -7.8723 15.038 1.8119
C -2.4703 16.7933 1.8119
C -9.2565 12.4052 -9.0594
C 0.197 15.4768 -9.0594
C -10.003 12.4052 -7.8515
C 0.801 15.9156 -7.8515
C -9.399 12.844 -6.6436
C 0.0545 15.9156 -6.6436
C -10.1456 12.844 -5.4357
C 0.6584 16.3545 -5.4357
C -9.5416 13.2828 -4.2277
C -0.0881 16.3545 -4.2277
C -10.2882 13.2828 -3.0198
C 0.5158 16.7933 -3.0198
C -9.6842 13.7216 -1.8119
C -0.2307 16.7933 -1.8119
C -11.9575 11.5276 -9.0594
C 2.898 16.3545 -9.0594
C -11.3535 11.9664 -7.8515
C 2.1515 16.3545 -7.8515
C -12.1 11.9664 -6.6436
C 2.7555 16.7933 -6.6436
C -11.4961 12.4052 -5.4357
C 2.0089 16.7933 -5.4357
C -13.308 11.0888 -9.0594
C 4.2485 16.7933 -9.0594
C -14.6585 -0.71 -9.0594
C -14.6585 0.71 -9.0594
C -14.8892 -1.42 -7.8515
C -14.8892 1.42 -7.8515
C -15.1199 -0.71 -6.6436
C -15.1199 0.71 -6.6436
C -15.3505 -1.42 -5.4357
C -15.3505 1.42 -5.4357
C -15.5812 -0.71 -4.2277
C -15.5812 0.71 -4.2277
C -15.8119 -1.42 -3.0198
C -15.8119 1.42 -3.0198
C -16.0426 -0.71 -1.8119
C -16.0426 0.71 -1.8119
C -16.2733 -1.42 -0.604
C -16.2733 1.42 -0.604
C -16.504 -0.71 0.604
C -16.504 0.71 0.604
C -16.7347 -1.42 1.8119
C -16.7347 1.42 1.8119
C -16.9654 -0.71 3.0198
C -16.9654 0.71 3.0198
C -17.1961 -1.42 4.2277
C -17.1961 1.42 4.2277
C -17.4268 -0.71 5.4357
C -17.4268 0.71 5.4357
C -14.6585 -3.55 -9.0594
C -14.6585 3.55 -9.0594
C -14.8892 -2.84 -7.8515
C -14.8892 2.84 -7.8515
C -15.1199 -3.55 -6.6436
C -15.1199 3.55 -6.6436
C -15.3505 -2.84 -5.4357
C -15.3505 2.84 -5.4357
C -15.5812 -3.55 -4.2277
C -15.5812 3.55 -4.2277
C -15.8119 -2.84 -3.0198
C -15.8119 2.84 -3.0198
C -16.0426 -3.55 -1.8119
C -16.0426 3.55 -1.8119
C -16.2733 -2.84 -0.604
C -16.2733 2.84 -0.604
C -16.504 -3.55 0.604
C -16.504 3.55 0.604
C -16.7347 -2.84 1.8119
C -16.7347 2.84 1.8119
C -14.6585 -4.97 -9.0594
C -14.6585 4.97 -9.0594
C -14.8892 -5.68 -7.8515
C -14.8892 5.68 -7.8515
C -15.1199 -4.97 -6.6436
C -15.1199 4.97 -6.6436
C -15.3505 -5.68 -5.4357
C -15.3505 5.68 -5.4357
C -15.5812 -4.97 -4.2277
C -15.5812 4.97 -4.2277
C -15.8119 -5.68 -3.0198
C -15.8119 5.68 -3.0198
C -16.0426 -4.97 -1.8119
C -16.0426 4.97 -1.8119
C -14.6585 -7.81 -9.0594
C -14.6585 7.81 -9.0594
C -14.8892 -7.1 -7.8515
C -14.8892 7.1 -7.8515
C -15.1199 -7.81 -6.6436
C -15.1199 7.81 -6.6436
C -15.3505 -7.1 -5.4357
C -15.3505 7.1 -5.4357
C -14.6585 -9.23 -9.0594
C -14.6585 9.23 -9.0594
C -3.8545 -14.1604 -9.0594
C -5.205 -13.7216 -9.0594
C -3.2505 -14.5992 -7.8515
C -5.9515 -13.7216 -7.8515
C -3.997 -14.5992 -6.6436
C -5.3475 -14.1604 -6.6436
C -3.3931 -15.038 -5.4357
C -6.0941 -14.1604 -5.4357
C -4.1396 -15.038 -4.2277
C -5.4901 -14.5992 -4.2277
C -3.5357 -15.4768 -3.0198
C -6.2367 -14.5992 -3.0198
C -4.2822 -15.4768 -1.8119
C -5.6327 -15.038 -1.8119
C -3.6782 -15.9156 -0.604
C -6.3792 -15.038 -0.604
C -4.4248 -15.9156 0.604
C -5.7753 -15.4768 0.604
C -3.8208 -16.3545 1.8119
C -6.5218 -15.4768 1.8119
C -4.5673 -16.3545 3.0198
C -5.9178 -15.9156 3.0198
C -3.9634 -16.7933 4.2277
C -6.6644 -15.9156 4.2277
C -4.7099 -16.7933 5.4357
C -6.0604 -16.3545 5.4357
C -1.1535 -15.038 -9.0594
C -7.906 -12.844 -9.0594
C -1.9 -15.038 -7.8515
C -7.302 -13.2828 -7.8515
C -1.296 -15.4768 -6.6436
C -8.0485 -13.2828 -6.6436
C -2.0426 -15.4768 -5.4357
C -7.4446 -13.7216 -5.4357
C -1.4386 -15.9156 -4.2277
C -8.1911 -13.7216 -4.2277
C -2.1852 -15.9156 -3.0198
C -7.5872 -14.1604 -3.0198
C -1.5812 -16.3545 -1.8119
C -8.3337 -14.1604 -1.8119
C -2.3277 -16.3545 -0.604
C -7.7297 -14.5992 -0.604
C -1.7238 -16.7933 0.604
C -8.4763 -14.5992 0.604
C -2.4703 -16.7933 1.8119
C -7.8723 -15.038 1.8119
C 0.197 -15.4768 -9.0594
C -9.2565 -12.4052 -9.0594
C 0.801 -15.9156 -7.8515
C -10.003 -12.4052 -7.8515
C 0.0545 -15.9156 -6.6436
C -9.399 -12.844 -6.6436
C 0.6584 -16.3545 -5.4357
C -10.1456 -12.844 -5.4357
C -0.0881 -16.3545 -4.2277
C -9.5416 -13.2828 -4.2277
C 0.5158 -16.7933 -3.0198
C -10.2882 -13.2828 -3.0198
C -0.2307 -16.7933 -1.8119
C -9.6842 -13.7216 -1.8119
C 2.898 -16.3545 -9.0594
C -11.9575 -11.5276 -9.0594
C 2.1515 -16.3545 -7.8515
C -11.3535 -11.9664 -7.8515
C 2.7555 -16.7933 -6.6436
C -12.1 -11.9664 -6.6436
C 2.0089 -16.7933 -5.4357
C -11.4961 -12.4052 -5.4357
C 4.2485 -16.7933 -9.0594
C -13.308 -11.0888 -9.0594
C 12.2763 -8.0416 -9.0594
C 11.4416 -9.1904 -9.0594
C 12.8802 -7.6028 -7.8515
C 11.2109 -9.9004 -7.8515
C 12.6495 -8.3128 -6.6436
C 11.8149 -9.4616 -6.6436
C 13.2535 -7.874 -5.4357
C 11.5842 -10.1716 -5.4357
C 13.0228 -8.584 -4.2277
C 12.1882 -9.7328 -4.2277
C 13.6268 -8.1452 -3.0198
C 11.9575 -10.4428 -3.0198
C 13.3961 -8.8552 -1.8119
C 12.5614 -10.004 -1.8119
C 14 -8.4164 -0.604
C 12.3307 -10.714 -0.604
C 13.7694 -9.1264 0.604
C 12.9347 -10.2752 0.604
C 14.3733 -8.6876 1.8119
C 12.704 -10.9852 1.8119
C 14.1426 -9.3976 3.0198
C 13.308 -10.5464 3.0198
C 14.7466 -8.9588 4.2277
C 13.0773 -11.2564 4.2277
C 14.5159 -9.6688 5.4357
C 13.6812 -10.8176 5.4357
C 13.9456 -5.744 -9.0594
C 9.7723 -11.488 -9.0594
C 13.7149 -6.454 -7.8515
C 10.3763 -11.0492 -7.8515
C 14.3189 -6.0152 -6.6436
C 10.1456 -11.7592 -6.6436
C 14.0882 -6.7252 -5.4357
C 10.7495 -11.3204 -5.4357
C 14.6921 -6.2864 -4.2277
C 10.5188 -12.0304 -4.2277
C 14.4614 -6.9964 -3.0198
C 11.1228 -11.5916 -3.0198
C 15.0654 -6.5576 -1.8119
C 10.8921 -12.3016 -1.8119
C 14.8347 -7.2676 -0.604
C 11.4961 -11.8628 -0.604
C 15.4387 -6.8288 0.604
C 11.2654 -12.5728 0.604
C 15.208 -7.5388 1.8119
C 11.8693 -12.134 1.8119
C 14.7802 -4.5952 -9.0594
C 8.9377 -12.6368 -9.0594
C 15.3842 -4.1564 -7.8515
C 8.707 -13.3468 -7.8515
C 15.1535 -4.8664 -6.6436
C 9.3109 -12.908 -6.6436
C 15.7575 -4.4276 -5.4357
C 9.0802 -13.618 -5.4357
C 15.5268 -5.1376 -4.2277
C 9.6842 -13.1792 -4.2277
C 16.1307 -4.6988 -3.0198
C 9.4535 -13.8892 -3.0198
C 15.9 -5.4088 -1.8119
C 10.0575 -13.4504 -1.8119
C 16.4496 -2.2976 -9.0594
C 7.2683 -14.9345 -9.0594
C 16.2189 -3.0076 -7.8515
C 7.8723 -14.4956 -7.8515
C 16.8228 -2.5688 -6.6436
C 7.6416 -15.2056 -6.6436
C 16.5921 -3.2788 -5.4357
C 8.2456 -14.7668 -5.4357
C 17.2842 -1.1488 -9.0594
C 6.4337 -16.0833 -9.0594
C 10.2337 9.1904 -9.806
C 11.903 6.8928 -9.806
C 9.8604 8.0416 -10.5525
C 10.6951 6.8928 -10.5525
C 8.6525 8.0416 -11.299
C 10.3218 5.744 -11.299
C 8.2792 6.8928 -12.0456
C 9.1139 5.744 -12.0456
C 7.0713 6.8928 -12.7921
C 8.7406 4.5952 -12.7921
C 6.698 5.744 -13.5387
C 7.5327 4.5952 -13.5387
C 5.4901 5.744 -14.2852
C 7.1594 3.4464 -14.2852
C 5.1168 4.5952 -15.0317
C 5.9515 3.4464 -15.0317
C 3.9089 4.5952 -15.7783
C 5.5782 2.2976 -15.7783
C 3.5357 3.4464 -16.5248
C 4.3703 2.2976 -16.5248
C 2.3277 3.4464 -17.2714
C 3.997 1.1488 -17.2714
C 1.9545 2.2976 -18.0179
C 2.7891 1.1488 -18.0179
C 0.7465 2.2976 -18.7644
C 2.4158 0 -18.7644
C 0.3733 1.1488 -19.511
C 1.2079 0 -19.511
C 9.399 10.3392 -9.806
C 12.7377 5.744 -9.806
C 8.1911 10.3392 -10.5525
C 12.3644 4.5952 -10.5525
C 7.8178 9.1904 -11.299
C 11.1565 4.5952 -11.299
C 6.6099 9.1904 -12.0456
C 10.7832 3.4464 -12.0456
C 6.2367 8.0416 -12.7921
C 9.5753 3.4464 -12.7921
C 5.0287 8.0416 -13.5387
C 9.202 2.2976 -13.5387
C 4.6555 6.8928 -14.2852
C 7.9941 2.2976 -14.2852
C 3.4475 6.8928 -15.0317
C 7.6208 1.1488 -15.0317
C 3.0743 5.744 -15.7783
C 6.4129 1.1488 -15.7783
C 1.8663 5.744 -16.5248
C 6.0396 0 -16.5248
C 1.4931 4.5952 -17.2714
C 4.8317 0 -17.2714
C 7.7297 12.6368 -9.806
C 14.407 3.4464 -9.806
C 7.3565 11.488 -10.5525
C 13.199 3.4464 -10.5525
C 6.1485 11.488 -11.299
C 12.8258 2.2976 -11.299
C 5.7753 10.3392 -12.0456
C 11.6179 2.2976 -12.0456
C 4.5673 10.3392 -12.7921
C 11.2446 1.1488 -12.7921
C 4.1941 9.1904 -13.5387
C 10.0367 1.1488 -13.5387
C 2.9862 9.1904 -14.2852
C 9.6634 0 -14.2852
C 2.6129 8.0416 -15.0317
C 8.4555 0 -15.0317
C 6.8951 13.7856 -9.806
C 15.2416 2.2976 -9.806
C 5.6872 13.7856 -10.5525
C 14.8684 1.1488 -10.5525
C 5.3139 12.6368 -11.299
C 13.6604 1.1488 -11.299
C 4.106 12.6368 -12.0456
C 13.2872 0 -12.0456
C 3.7327 11.488 -12.7921
C 12.0792 0 -12.7921
C 5.2258 16.0833 -9.806
C 16.9109 0 -9.806
C 4.8525 14.9345 -10.5525
C 15.703 0 -10.5525
C -5.5782 12.5728 -9.806
C -2.8772 13.4504 -9.806
C -4.601 11.8628 -10.5525
C -3.2505 12.3016 -10.5525
C -4.9743 10.714 -11.299
C -2.2733 11.5916 -11.299
C -3.997 10.004 -12.0456
C -2.6465 10.4428 -12.0456
C -4.3703 8.8552 -12.7921
C -1.6693 9.7328 -12.7921
C -3.3931 8.1452 -13.5387
C -2.0426 8.584 -13.5387
C -3.7663 6.9964 -14.2852
C -1.0653 7.874 -14.2852
C -2.7891 6.2864 -15.0317
C -1.4386 6.7252 -15.0317
C -3.1624 5.1376 -15.7783
C -0.4614 6.0152 -15.7783
C -2.1852 4.4276 -16.5248
C -0.8347 4.8664 -16.5248
C -2.5584 3.2788 -17.2714
C 0.1426 4.1564 -17.2714
C -1.5812 2.5688 -18.0179
C -0.2307 3.0076 -18.0179
C -1.9545 1.42 -18.7644
C -0.9772 0.71 -19.511
C -6.9287 12.134 -9.806
C -1.5267 13.8892 -9.806
C -7.302 10.9852 -10.5525
C -0.5495 13.1792 -10.5525
C -6.3248 10.2752 -11.299
C -0.9228 12.0304 -11.299
C -6.698 9.1264 -12.0456
C 0.0545 11.3204 -12.0456
C -5.7208 8.4164 -12.7921
C -0.3188 10.1716 -12.7921
C -6.0941 7.2676 -13.5387
C 0.6584 9.4616 -13.5387
C -5.1168 6.5576 -14.2852
C 0.2852 8.3128 -14.2852
C -5.4901 5.4088 -15.0317
C 1.2624 7.6028 -15.0317
C -4.5129 4.6988 -15.7783
C 0.8891 6.454 -15.7783
C -4.8862 3.55 -16.5248
C -3.9089 2.84 -17.2714
C -9.6297 11.2564 -9.806
C 1.1743 14.7668 -9.806
C -8.6525 10.5464 -10.5525
C 0.801 13.618 -10.5525
C -9.0258 9.3976 -11.299
C 1.7782 12.908 -11.299
C -8.0485 8.6876 -12.0456
C 1.405 11.7592 -12.0456
C -8.4218 7.5388 -12.7921
C 2.3822 11.0492 -12.7921
C -7.4446 6.8288 -13.5387
C 2.0089 9.9004 -13.5387
C -7.8178 5.68 -14.2852
C -6.8406 4.97 -15.0317
C -10.9802 10.8176 -9.806
C 2.5248 15.2056 -9.806
C -11.3535 9.6688 -10.5525
C 3.502 14.4956 -10.5525
C -10.3763 8.9588 -11.299
C 3.1287 13.3468 -11.299
C -10.7495 7.81 -12.0456
C -9.7723 7.1 -12.7921
C -13.6812 9.94 -9.806
C -12.704 9.23 -10.5525
C -13.6812 -1.42 -9.806
C -13.6812 1.42 -9.806
C -12.704 -0.71 -10.5525
C -12.704 0.71 -10.5525
C -11.7268 -1.42 -11.299
C -11.7268 1.42 -11.299
C -10.7495 -0.71 -12.0456
C -10.7495 0.71 -12.0456
C -9.7723 -1.42 -12.7921
C -9.7723 1.42 -12.7921
C -8.7951 -0.71 -13.5387
C -8.7951 0.71 -13.5387
C -7.8178 -1.42 -14.2852
C -7.8178 1.42 -14.2852
C -6.8406 -0.71 -15.0317
C -6.8406 0.71 -15.0317
C -5.8634 -1.42 -15.7783
C -5.8634 1.42 -15.7783
C -4.8862 -0.71 -16.5248
C -4.8862 0.71 -16.5248
C -3.9089 -1.42 -17.2714
C -3.9089 1.42 -17.2714
C -2.9317 -0.71 -18.0179
C -2.9317 0.71 -18.0179
C -1.9545 -1.42 -18.7644
C -0.9772 -0.71 -19.511
C -13.6812 -2.84 -9.806
C -13.6812 2.84 -9.806
C -12.704 -3.55 -10.5525
C -12.704 3.55 -10.5525
C -11.7268 -2.84 -11.299
C -11.7268 2.84 -11.299
C -10.7495 -3.55 -12.0456
C -10.7495 3.55 -12.0456
C -9.7723 -2.84 -12.7921
C -9.7723 2.84 -12.7921
C -8.7951 -3.55 -13.5387
C -8.7951 3.55 -13.5387
C -7.8178 -2.84 -14.2852
C -7.8178 2.84 -14.2852
C -6.8406 -3.55 -15.0317
C -6.8406 3.55 -15.0317
C -5.8634 -2.84 -15.7783
C -5.8634 2.84 -15.7783
C -4.8862 -3.55 -16.5248
C -3.9089 -2.84 -17.2714
C -13.6812 -5.68 -9.806
C -13.6812 5.68 -9.806
C -12.704 -4.97 -10.5525
C -12.704 4.97 -10.5525
C -11.7268 -5.68 -11.299
C -11.7268 5.68 -11.299
C -10.7495 -4.97 -12.0456
C -10.7495 4.97 -12.0456
C -9.7723 -5.68 -12.7921
C -9.7723 5.68 -12.7921
C -8.7951 -4.97 -13.5387
C -8.7951 4.97 -13.5387
C -7.8178 -5.68 -14.2852
C -6.8406 -4.97 -15.0317
C -13.6812 -7.1 -9.806
C -13.6812 7.1 -9.806
C -12.704 -7.81 -10.5525
C -12.704 7.81 -10.5525
C -11.7268 -7.1 -11.299
C -11.7268 7.1 -11.299
C -10.7495 -7.81 -12.0456
C -9.7723 -7.1 -12.7921
C -13.6812 -9.94 -9.806
C -12.704 -9.23 -10.5525
C -2.8772 -13.4504 -9.806
C -5.5782 -12.5728 -9.806
C -3.2505 -12.3016 -10.5525
C -4.601 -11.8628 -10.5525
C -2.2733 -11.5916 -11.299
C -4.9743 -10.714 -11.299
C -2.6465 -10.4428 -12.0456
C -3.997 -10.004 -12.0456
C -1.6693 -9.7328 -12.7921
C -4.3703 -8.8552 -12.7921
C -2.0426 -8.584 -13.5387
C -3.3931 -8.1452 -13.5387
C -1.0653 -7.874 -14.2852
C -3.7663 -6.9964 -14.2852
C -1.4386 -6.7252 -15.0317
C -2.7891 -6.2864 -15.0317
C -0.4614 -6.0152 -15.7783
C -3.1624 -5.1376 -15.7783
C -0.8347 -4.8664 -16.5248
C -2.1852 -4.4276 -16.5248
C 0.1426 -4.1564 -17.2714
C -2.5584 -3.2788 -17.2714
C -0.2307 -3.0076 -18.0179
C -1.5812 -2.5688 -18.0179
C 0.7465 -2.2976 -18.7644
C 0.3733 -1.1488 -19.511
C -1.5267 -13.8892 -9.806
C -6.9287 -12.134 -9.806
C -0.5495 -13.1792 -10.5525
C -7.302 -10.9852 -10.5525
C -0.9228 -12.0304 -11.299
C -6.3248 -10.2752 -11.299
C 0.0545 -11.3204 -12.0456
C -6.698 -9.1264 -12.0456
C -0.3188 -10.1716 -12.7921
C -5.7208 -8.4164 -12.7921
C 0.6584 -9.4616 -13.5387
C -6.0941 -7.2676 -13.5387
C 0.2852 -8.3128 -14.2852
C -5.1168 -6.5576 -14.2852
C 1.2624 -7.6028 -15.0317
C -5.4901 -5.4088 -15.0317
C 0.8891 -6.454 -15.7783
C -4.5129 -4.6988 -15.7783
C 1.8663 -5.744 -16.5248
C 1.4931 -4.5952 -17.2714
C 1.1743 -14.7668 -9.806
C -9.6297 -11.2564 -9.806
C 0.801 -13.618 -10.5525
C -8.6525 -10.5464 -10.5525
C 1.7782 -12.908 -11.299
C -9.0258 -9.3976 -11.299
C 1.405 -11.7592 -12.0456
C -8.0485 -8.6876 -12.0456
C 2.3822 -11.0492 -12.7921
C -8.4218 -7.5388 -12.7921
C 2.0089 -9.9004 -13.5387
C -7.4446 -6.8288 -13.5387
C 2.9862 -9.1904 -14.2852
C 2.6129 -8.0416 -15.0317
C 2.5248 -15.2056 -9.806
C -10.9802 -10.8176 -9.806
C 3.502 -14.4956 -10.5525
C -11.3535 -9.6688 -10.5525
C 3.1287 -13.3468 -11.299
C -10.3763 -8.9588 -11.299
C 4.106 -12.6368 -12.0456
C 3.7327 -11.488 -12.7921
C 5.2258 -16.0833 -9.806
C 4.8525 -14.9345 -10.5525
C 11.903 -6.8928 -9.806
C 10.2337 -9.1904 -9.806
C 10.6951 -6.8928 -10.5525
C 9.8604 -8.0416 -10.5525
C 10.3218 -5.744 -11.299
C 8.6525 -8.0416 -11.299
C 9.1139 -5.744 -12.0456
C 8.2792 -6.8928 -12.0456
C 8.7406 -4.5952 -12.7921
C 7.0713 -6.8928 -12.7921
C 7.5327 -4.5952 -13.5387
C 6.698 -5.744 -13.5387
C 7.1594 -3.4464 -14.2852
C 5.4901 -5.744 -14.2852
C 5.9515 -3.4464 -15.0317
C 5.1168 -4.5952 -15.0317
C 5.5782 -2.2976 -15.7783
C 3.9089 -4.5952 -15.7783
C 4.3703 -2.2976 -16.5248
C 3.5357 -3.4464 -16.5248
C 3.997 -1.1488 -17.2714
C 2.3277 -3.4464 -17.2714
C 2.7891 -1.1488 -18.0179
C 1.9545 -2.2976 -18.0179
C 12.7377 -5.744 -9.806
C 9.399 -10.3392 -9.806
C 12.3644 -4.5952 -10.5525
C 8.1911 -10.3392 -10.5525
C 11.1565 -4.5952 -11.299
C 7.8178 -9.1904 -11.299
C 10.7832 -3.4464 -12.0456
C 6.6099 -9.1904 -12.0456
C 9.5753 -3.4464 -12.7921
C 6.2367 -8.0416 -12.7921
C 9.202 -2.2976 -13.5387
C 5.0287 -8.0416 -13.5387
C 7.9941 -2.2976 -14.2852
C 4.6555 -6.8928 -14.2852
C 7.6208 -1.1488 -15.0317
C 3.4475 -6.8928 -15.0317
C 6.4129 -1.1488 -15.7783
C 3.0743 -5.744 -15.7783
C 14.407 -3.4464 -9.806
C 7.7297 -12.6368 -9.806
C 13.199 -3.4464 -10.5525
C 7.3565 -11.488 -10.5525
C 12.8258 -2.2976 -11.299
C 6.1485 -11.488 -11.299
C 11.6179 -2.2976 -12.0456
C 5.7753 -10.3392 -12.0456
C 11.2446 -1.1488 -12.7921
C 4.5673 -10.3392 -12.7921
C 10.0367 -1.1488 -13.5387
C 4.1941 -9.1904 -13.5387
C 15.2416 -2.2976 -9.806
C 6.8951 -13.7856 -9.806
C 14.8684 -1.1488 -10.5525
C 5.6872 -13.7856 -10.5525
C 13.6604 -1.1488 -11.299
C 5.3139 -12.6368 -11.299
