960
GENERATED BY SAMSON 2025 R1
C 17.2312 1.28239 7.2475
C 17.2312 -1.55761 7.2475
C 16.2539 0.57239 7.9941
C 16.2539 -0.84761 7.9941
C 15.2767 1.28239 8.7406
C 15.2767 -1.55761 8.7406
C 14.2995 0.57239 9.4872
C 14.2995 -0.84761 9.4872
C 13.3222 1.28239 10.2337
C 13.3222 -1.55761 10.2337
C 12.345 0.57239 10.9802
C 12.345 -0.84761 10.9802
C 11.3678 1.28239 11.7268
C 11.3678 -1.55761 11.7268
C 10.3906 0.57239 12.4733
C 10.3906 -0.84761 12.4733
C 9.41329 1.28239 13.2199
C 9.41329 -1.55761 13.2199
C 8.43609 0.57239 13.9664
C 8.43609 -0.84761 13.9664
C 7.45889 1.28239 14.7129
C 7.45889 -1.55761 14.7129
C 6.48159 0.57239 15.4595
C 6.48159 -0.84761 15.4595
C 17.2312 2.70239 7.2475
C 17.2312 -2.97761 7.2475
C 16.2539 3.41239 7.9941
C 16.2539 -3.68761 7.9941
C 15.2767 2.70239 8.7406
C 15.2767 -2.97761 8.7406
C 14.2995 3.41239 9.4872
C 14.2995 -3.68761 9.4872
C 13.3222 2.70239 10.2337
C 13.3222 -2.97761 10.2337
C 12.345 3.41239 10.9802
C 12.345 -3.68761 10.9802
C 11.3678 2.70239 11.7268
C 11.3678 -2.97761 11.7268
C 10.3906 3.41239 12.4733
C 10.3906 -3.68761 12.4733
C 9.41329 2.70239 13.2199
C 9.41329 -2.97761 13.2199
C 17.2312 5.54239 7.2475
C 17.2312 -5.81761 7.2475
C 16.2539 4.83239 7.9941
C 16.2539 -5.10761 7.9941
C 15.2767 5.54239 8.7406
C 15.2767 -5.81761 8.7406
C 14.2995 4.83239 9.4872
C 14.2995 -5.10761 9.4872
C 13.3222 5.54239 10.2337
C 13.3222 -5.81761 10.2337
C 12.345 4.83239 10.9802
C 12.345 -5.10761 10.9802
C 17.2312 6.96239 7.2475
C 17.2312 -7.23761 7.2475
C 16.2539 7.67239 7.9941
C 16.2539 -7.94761 7.9941
C 15.2767 6.96239 8.7406
C 15.2767 -7.23761 8.7406
C 7.77769 11.454 7.2475
C 10.4787 10.5764 7.2475
C 8.15089 10.3052 7.9941
C 9.50139 9.86639 7.9941
C 7.17369 9.59519 8.7406
C 9.87469 8.71759 8.7406
C 7.54699 8.44639 9.4872
C 8.89749 8.00759 9.4872
C 6.56969 7.73639 10.2337
C 9.27069 6.85879 10.2337
C 6.94299 6.58759 10.9802
C 8.29349 6.14879 10.9802
C 5.96579 5.87759 11.7268
C 8.66679 4.99999 11.7268
C 6.33909 4.72879 12.4733
C 7.68959 4.28999 12.4733
C 5.36179 4.01879 13.2199
C 8.06279 3.14119 13.2199
C 5.73509 2.86999 13.9664
C 7.08559 2.43119 13.9664
C 4.75789 2.15999 14.7129
C 5.13109 1.01119 15.4595
C 6.42719 11.8928 7.2475
C 11.8292 10.1376 7.2475
C 5.44989 11.1828 7.9941
C 12.2024 8.98879 7.9941
C 5.82319 10.034 8.7406
C 11.2252 8.27879 8.7406
C 4.84599 9.32399 9.4872
C 11.5985 7.12999 9.4872
C 5.21919 8.17519 10.2337
C 10.6212 6.41999 10.2337
C 4.24199 7.46519 10.9802
C 10.9945 5.27119 10.9802
C 4.61529 6.31639 11.7268
C 10.0173 4.56119 11.7268
C 3.63809 5.60639 12.4733
C 4.01129 4.45759 13.2199
C 3.72619 12.7704 7.2475
C 14.5302 9.25999 7.2475
C 4.09939 11.6216 7.9941
C 13.5529 8.54999 7.9941
C 3.12219 10.9116 8.7406
C 13.9262 7.40119 8.7406
C 3.49549 9.76279 9.4872
C 12.949 6.69119 9.4872
C 2.51819 9.05279 10.2337
C 2.89149 7.90399 10.9802
C 2.37569 13.2092 7.2475
C 15.8807 8.82119 7.2475
C 1.39839 12.4992 7.9941
C 1.77169 11.3504 8.7406
C -4.81741 5.60639 7.2475
C -3.14811 7.90399 7.2475
C -3.60951 5.60639 7.9941
C -2.77481 6.75519 7.9941
C -3.23621 4.45759 8.7406
C -1.56691 6.75519 8.7406
C -2.02831 4.45759 9.4872
C -1.19361 5.60639 9.4872
C -1.65501 3.30879 10.2337
C 0.0142855 5.60639 10.2337
C -0.447115 3.30879 10.9802
C 0.387585 4.45759 10.9802
C -0.0738145 2.15999 11.7268
C 1.59549 4.45759 11.7268
C 1.13409 2.15999 12.4733
C 1.96869 3.30879 12.4733
C 1.50739 1.01119 13.2199
C 3.17669 3.30879 13.2199
C 2.71529 1.01119 13.9664
C 3.54989 2.15999 13.9664
C 3.08859 -0.13761 14.7129
C 4.29649 -0.13761 15.4595
C -5.65211 4.45759 7.2475
C -2.31341 9.05279 7.2475
C -5.27881 3.30879 7.9941
C -1.10551 9.05279 7.9941
C -4.07091 3.30879 8.7406
C -0.732315 7.90399 8.7406
C -3.69761 2.15999 9.4872
C 0.475685 7.90399 9.4872
C -2.48971 2.15999 10.2337
C 0.848885 6.75519 10.2337
C -2.11641 1.01119 10.9802
C 2.05689 6.75519 10.9802
C -0.908515 1.01119 11.7268
C 2.43009 5.60639 11.7268
C -0.535215 -0.13761 12.4733
C 0.672685 -0.13761 13.2199
C -7.32141 2.15999 7.2475
C -0.644115 11.3504 7.2475
C -6.11351 2.15999 7.9941
C -0.270915 10.2016 7.9941
C -5.74021 1.01119 8.7406
C 0.937085 10.2016 8.7406
C -4.53231 1.01119 9.4872
C 1.31029 9.05279 9.4872
C -4.15901 -0.13761 10.2337
C -2.95111 -0.13761 10.9802
C -8.15601 1.01119 7.2475
C 0.190485 12.4992 7.2475
C -7.78281 -0.13761 7.9941
C -6.57481 -0.13761 8.7406
C -3.14811 -8.17921 7.2475
C -4.81741 -5.88161 7.2475
C -2.77481 -7.03041 7.9941
C -3.60951 -5.88161 7.9941
C -1.56691 -7.03041 8.7406
C -3.23621 -4.73281 8.7406
C -1.19361 -5.88161 9.4872
C -2.02831 -4.73281 9.4872
C 0.0142855 -5.88161 10.2337
C -1.65501 -3.58401 10.2337
C 0.387585 -4.73281 10.9802
C -0.447115 -3.58401 10.9802
C 1.59549 -4.73281 11.7268
C -0.0738145 -2.43521 11.7268
C 1.96869 -3.58401 12.4733
C 1.13409 -2.43521 12.4733
C 3.17669 -3.58401 13.2199
C 1.50739 -1.28641 13.2199
C 3.54989 -2.43521 13.9664
C 2.71529 -1.28641 13.9664
C 4.75789 -2.43521 14.7129
C 5.13109 -1.28641 15.4595
C -2.31341 -9.32801 7.2475
C -5.65211 -4.73281 7.2475
C -1.10551 -9.32801 7.9941
C -5.27881 -3.58401 7.9941
C -0.732315 -8.17921 8.7406
C -4.07091 -3.58401 8.7406
C 0.475685 -8.17921 9.4872
C -3.69761 -2.43521 9.4872
C 0.848885 -7.03041 10.2337
C -2.48971 -2.43521 10.2337
C 2.05689 -7.03041 10.9802
C -2.11641 -1.28641 10.9802
C 2.43009 -5.88161 11.7268
C -0.908515 -1.28641 11.7268
C 3.63809 -5.88161 12.4733
C 4.01129 -4.73281 13.2199
C -0.644115 -11.6256 7.2475
C -7.32141 -2.43521 7.2475
C -0.270915 -10.4768 7.9941
C -6.11351 -2.43521 7.9941
C 0.937085 -10.4768 8.7406
C -5.74021 -1.28641 8.7406
C 1.31029 -9.32801 9.4872
C -4.53231 -1.28641 9.4872
C 2.51819 -9.32801 10.2337
C 2.89149 -8.17921 10.9802
C 0.190485 -12.7744 7.2475
C -8.15601 -1.28641 7.2475
C 1.39839 -12.7744 7.9941
C 1.77169 -11.6256 8.7406
C 10.4787 -10.8516 7.2475
C 7.77769 -11.7292 7.2475
C 9.50139 -10.1416 7.9941
C 8.15089 -10.5804 7.9941
C 9.87469 -8.99281 8.7406
C 7.17369 -9.87041 8.7406
C 8.89749 -8.28281 9.4872
C 7.54699 -8.72161 9.4872
C 9.27069 -7.13401 10.2337
C 6.56969 -8.01161 10.2337
C 8.29349 -6.42401 10.9802
C 6.94299 -6.86281 10.9802
C 8.66679 -5.27521 11.7268
C 5.96579 -6.15281 11.7268
C 7.68959 -4.56521 12.4733
C 6.33909 -5.00401 12.4733
C 8.06279 -3.41641 13.2199
C 5.36179 -4.29401 13.2199
C 7.08559 -2.70641 13.9664
C 5.73509 -3.14521 13.9664
C 11.8292 -10.4128 7.2475
C 6.42719 -12.168 7.2475
C 12.2024 -9.26401 7.9941
C 5.44989 -11.458 7.9941
C 11.2252 -8.55401 8.7406
C 5.82319 -10.3092 8.7406
C 11.5985 -7.40521 9.4872
C 4.84599 -9.59921 9.4872
C 10.6212 -6.69521 10.2337
C 5.21919 -8.45041 10.2337
C 10.9945 -5.54641 10.9802
C 4.24199 -7.74041 10.9802
C 10.0173 -4.83641 11.7268
C 4.61529 -6.59161 11.7268
C 14.5302 -9.53521 7.2475
C 3.72619 -13.0456 7.2475
C 13.5529 -8.82521 7.9941
C 4.09939 -11.8968 7.9941
C 13.9262 -7.67641 8.7406
C 3.12219 -11.1868 8.7406
C 12.949 -6.96641 9.4872
C 3.49549 -10.038 9.4872
C 15.8807 -9.09641 7.2475
C 2.37569 -13.4844 7.2475
C 17.4619 0.57239 6.0396
C 17.4619 -0.84761 6.0396
C 17.6926 1.28239 4.8317
C 17.6926 -1.55761 4.8317
C 17.9233 0.57239 3.6238
C 17.9233 -0.84761 3.6238
C 18.1539 1.28239 2.4158
C 18.1539 -1.55761 2.4158
C 18.3846 0.57239 1.2079
C 18.3846 -0.84761 1.2079
C 18.6153 1.28239 0
C 18.6153 -1.55761 0
C 18.846 0.57239 -1.2079
C 18.846 -0.84761 -1.2079
C 19.0767 1.28239 -2.4158
C 19.0767 -1.55761 -2.4158
C 19.3074 0.57239 -3.6238
C 19.3074 -0.84761 -3.6238
C 19.5381 1.28239 -4.8317
C 19.5381 -1.55761 -4.8317
C 19.7688 0.57239 -6.0396
C 19.7688 -0.84761 -6.0396
C 17.4619 3.41239 6.0396
C 17.4619 -3.68761 6.0396
C 17.6926 2.70239 4.8317
C 17.6926 -2.97761 4.8317
C 17.9233 3.41239 3.6238
C 17.9233 -3.68761 3.6238
C 18.1539 2.70239 2.4158
C 18.1539 -2.97761 2.4158
C 18.3846 3.41239 1.2079
C 18.3846 -3.68761 1.2079
C 18.6153 2.70239 0
C 18.6153 -2.97761 0
C 18.846 3.41239 -1.2079
C 18.846 -3.68761 -1.2079
C 19.0767 2.70239 -2.4158
C 19.0767 -2.97761 -2.4158
C 17.4619 4.83239 6.0396
C 17.4619 -5.10761 6.0396
C 17.6926 5.54239 4.8317
C 17.6926 -5.81761 4.8317
C 17.9233 4.83239 3.6238
C 17.9233 -5.10761 3.6238
C 18.1539 5.54239 2.4158
C 18.1539 -5.81761 2.4158
C 18.3846 4.83239 1.2079
C 18.3846 -5.10761 1.2079
C 17.4619 7.67239 6.0396
C 17.4619 -7.94761 6.0396
C 17.6926 6.96239 4.8317
C 17.6926 -7.23761 4.8317
C 8.52419 11.454 6.0396
C 9.87469 11.0152 6.0396
C 7.92019 11.8928 4.8317
C 10.6212 11.0152 4.8317
C 8.66679 11.8928 3.6238
C 10.0173 11.454 3.6238
C 8.06279 12.3316 2.4158
C 10.7638 11.454 2.4158
C 8.80939 12.3316 1.2079
C 10.1599 11.8928 1.2079
C 8.20539 12.7704 0
C 10.9064 11.8928 0
C 8.95189 12.7704 -1.2079
C 10.3024 12.3316 -1.2079
C 8.34799 13.2092 -2.4158
C 11.049 12.3316 -2.4158
C 9.09449 13.2092 -3.6238
C 10.445 12.7704 -3.6238
C 8.49059 13.648 -4.8317
C 11.1916 12.7704 -4.8317
C 9.23709 13.648 -6.0396
C 10.5876 13.2092 -6.0396
C 5.82319 12.3316 6.0396
C 12.5757 10.1376 6.0396
C 6.56969 12.3316 4.8317
C 11.9717 10.5764 4.8317
C 5.96579 12.7704 3.6238
C 12.7183 10.5764 3.6238
C 6.71229 12.7704 2.4158
C 12.1143 11.0152 2.4158
C 6.10839 13.2092 1.2079
C 12.8609 11.0152 1.2079
C 6.85489 13.2092 0
C 12.2569 11.454 0
C 6.25089 13.648 -1.2079
C 13.0034 11.454 -1.2079
C 6.99749 13.648 -2.4158
C 12.3995 11.8928 -2.4158
C 4.47269 12.7704 6.0396
C 13.9262 9.69879 6.0396
C 3.86869 13.2092 4.8317
C 14.6727 9.69879 4.8317
C 4.61529 13.2092 3.6238
C 14.0688 10.1376 3.6238
C 4.01129 13.648 2.4158
C 14.8153 10.1376 2.4158
C 4.75789 13.648 1.2079
C 14.2114 10.5764 1.2079
C 1.77169 13.648 6.0396
C 16.6272 8.82119 6.0396
C 2.51819 13.648 4.8317
C 16.0232 9.25999 4.8317
C -4.58671 6.31639 6.0396
C -3.75211 7.46519 6.0396
C -5.19071 5.87759 4.8317
C -3.52141 8.17519 4.8317
C -4.96001 6.58759 3.6238
C -4.12531 7.73639 3.6238
C -5.56401 6.14879 2.4158
C -3.89461 8.44639 2.4158
C -5.33331 6.85879 1.2079
C -4.49861 8.00759 1.2079
C -5.93721 6.41999 0
C -4.26791 8.71759 0
C -5.70651 7.12999 -1.2079
C -4.87191 8.27879 -1.2079
C -6.31051 6.69119 -2.4158
C -4.64121 8.98879 -2.4158
C -6.07981 7.40119 -3.6238
C -5.24511 8.54999 -3.6238
C -6.68381 6.96239 -4.8317
C -5.01441 9.25999 -4.8317
C -6.45311 7.67239 -6.0396
C -5.61841 8.82119 -6.0396
C -6.25601 4.01879 6.0396
C -2.08281 9.76279 6.0396
C -6.02531 4.72879 4.8317
C -2.68671 9.32399 4.8317
C -6.62931 4.28999 3.6238
C -2.45601 10.034 3.6238
C -6.39861 4.99999 2.4158
C -3.06001 9.59519 2.4158
C -7.00261 4.56119 1.2079
C -2.82931 10.3052 1.2079
C -6.77191 5.27119 0
C -3.43331 9.86639 0
C -7.37581 4.83239 -1.2079
C -3.20261 10.5764 -1.2079
C -7.14511 5.54239 -2.4158
C -3.80651 10.1376 -2.4158
C -7.09071 2.86999 6.0396
C -1.24811 10.9116 6.0396
C -7.69461 2.43119 4.8317
C -1.01741 11.6216 4.8317
C -7.46401 3.14119 3.6238
C -1.62141 11.1828 3.6238
C -8.06791 2.70239 2.4158
C -1.39071 11.8928 2.4158
C -7.83721 3.41239 1.2079
C -1.99461 11.454 1.2079
C -8.76001 0.57239 6.0396
C 0.421185 13.2092 6.0396
C -8.52931 1.28239 4.8317
C -0.182815 12.7704 4.8317
C -3.75211 -7.74041 6.0396
C -4.58671 -6.59161 6.0396
C -3.52141 -8.45041 4.8317
C -5.19071 -6.15281 4.8317
C -4.12531 -8.01161 3.6238
C -4.96001 -6.86281 3.6238
C -3.89461 -8.72161 2.4158
C -5.56401 -6.42401 2.4158
C -4.49861 -8.28281 1.2079
C -5.33331 -7.13401 1.2079
C -4.26791 -8.99281 0
C -5.93721 -6.69521 0
C -4.87191 -8.55401 -1.2079
C -5.70651 -7.40521 -1.2079
C -4.64121 -9.26401 -2.4158
C -6.31051 -6.96641 -2.4158
C -5.24511 -8.82521 -3.6238
C -6.07981 -7.67641 -3.6238
C -5.01441 -9.53521 -4.8317
C -6.68381 -7.23761 -4.8317
C -5.61841 -9.09641 -6.0396
C -6.45311 -7.94761 -6.0396
C -2.08281 -10.038 6.0396
C -6.25601 -4.29401 6.0396
C -2.68671 -9.59921 4.8317
C -6.02531 -5.00401 4.8317
C -2.45601 -10.3092 3.6238
C -6.62931 -4.56521 3.6238
C -3.06001 -9.87041 2.4158
C -6.39861 -5.27521 2.4158
C -2.82931 -10.5804 1.2079
C -7.00261 -4.83641 1.2079
C -3.43331 -10.1416 0
C -6.77191 -5.54641 0
C -3.20261 -10.8516 -1.2079
C -7.37581 -5.10761 -1.2079
C -3.80651 -10.4128 -2.4158
C -7.14511 -5.81761 -2.4158
C -1.24811 -11.1868 6.0396
C -7.09071 -3.14521 6.0396
C -1.01741 -11.8968 4.8317
C -7.69461 -2.70641 4.8317
C -1.62141 -11.458 3.6238
C -7.46401 -3.41641 3.6238
C -1.39071 -12.168 2.4158
C -8.06791 -2.97761 2.4158
C -1.99461 -11.7292 1.2079
C -7.83721 -3.68761 1.2079
C 0.421185 -13.4844 6.0396
C -8.76001 -0.84761 6.0396
C -0.182815 -13.0456 4.8317
C -8.52931 -1.55761 4.8317
C 9.87469 -11.2904 6.0396
C 8.52419 -11.7292 6.0396
C 10.6212 -11.2904 4.8317
C 7.92019 -12.168 4.8317
C 10.0173 -11.7292 3.6238
C 8.66679 -12.168 3.6238
C 10.7638 -11.7292 2.4158
C 8.06279 -12.6068 2.4158
C 10.1599 -12.168 1.2079
C 8.80939 -12.6068 1.2079
C 10.9064 -12.168 0
C 8.20539 -13.0456 0
C 10.3024 -12.6068 -1.2079
C 8.95189 -13.0456 -1.2079
C 11.049 -12.6068 -2.4158
C 8.34799 -13.4844 -2.4158
C 10.445 -13.0456 -3.6238
C 9.09449 -13.4844 -3.6238
C 11.1916 -13.0456 -4.8317
C 8.49059 -13.9232 -4.8317
C 10.5876 -13.4844 -6.0396
C 9.23709 -13.9232 -6.0396
C 12.5757 -10.4128 6.0396
C 5.82319 -12.6068 6.0396
C 11.9717 -10.8516 4.8317
C 6.56969 -12.6068 4.8317
C 12.7183 -10.8516 3.6238
C 5.96579 -13.0456 3.6238
C 12.1143 -11.2904 2.4158
C 6.71229 -13.0456 2.4158
C 12.8609 -11.2904 1.2079
C 6.10839 -13.4844 1.2079
C 12.2569 -11.7292 0
C 6.85489 -13.4844 0
C 13.0034 -11.7292 -1.2079
C 6.25089 -13.9232 -1.2079
C 12.3995 -12.168 -2.4158
C 6.99749 -13.9232 -2.4158
C 13.9262 -9.97401 6.0396
C 4.47269 -13.0456 6.0396
C 14.6727 -9.97401 4.8317
C 3.86869 -13.4844 4.8317
C 14.0688 -10.4128 3.6238
C 4.61529 -13.4844 3.6238
C 14.8153 -10.4128 2.4158
C 4.01129 -13.9232 2.4158
C 14.2114 -10.8516 1.2079
C 4.75789 -13.9232 1.2079
C 16.6272 -9.09641 6.0396
C 1.77169 -13.9232 6.0396
C 16.0232 -9.53521 4.8317
C 2.51819 -13.9232 4.8317
C 14.1569 7.90399 -7.2475
C 15.8262 5.60639 -7.2475
C 14.7609 7.46519 -6.0396
C 15.5955 6.31639 -6.0396
C 14.5302 8.17519 -4.8317
C 16.1995 5.87759 -4.8317
C 15.1341 7.73639 -3.6238
C 15.9688 6.58759 -3.6238
C 14.9034 8.44639 -2.4158
C 16.5728 6.14879 -2.4158
C 15.5074 8.00759 -1.2079
C 16.3421 6.85879 -1.2079
C 15.2767 8.71759 0
C 16.946 6.41999 0
C 15.8807 8.27879 1.2079
C 16.7153 7.12999 1.2079
C 15.65 8.98879 2.4158
C 17.3193 6.69119 2.4158
C 16.2539 8.54999 3.6238
C 17.0886 7.40119 3.6238
C 13.3222 9.05279 -7.2475
C 16.6609 4.45759 -7.2475
C 13.0916 9.76279 -6.0396
C 17.2648 4.01879 -6.0396
C 13.6955 9.32399 -4.8317
C 17.0341 4.72879 -4.8317
C 13.4648 10.034 -3.6238
C 17.6381 4.28999 -3.6238
C 14.0688 9.59519 -2.4158
C 17.4074 4.99999 -2.4158
C 13.8381 10.3052 -1.2079
C 18.0114 4.56119 -1.2079
C 14.4421 9.86639 0
C 17.7807 5.27119 0
C 11.6529 11.3504 -7.2475
C 18.3302 2.15999 -7.2475
C 12.2569 10.9116 -6.0396
C 18.0995 2.86999 -6.0396
C 12.0262 11.6216 -4.8317
C 18.7034 2.43119 -4.8317
C 12.6302 11.1828 -3.6238
C 18.4728 3.14119 -3.6238
C 10.8183 12.4992 -7.2475
C 19.1648 1.01119 -7.2475
C 0.530085 10.5764 -7.2475
C 3.23109 11.454 -7.2475
C 1.13409 11.0152 -6.0396
C 2.48459 11.454 -6.0396
C 0.387585 11.0152 -4.8317
C 3.08859 11.8928 -4.8317
C 0.991485 11.454 -3.6238
C 2.34199 11.8928 -3.6238
C 0.244985 11.454 -2.4158
C 2.94599 12.3316 -2.4158
C 0.848885 11.8928 -1.2079
C 2.19939 12.3316 -1.2079
C 0.102385 11.8928 0
C 2.80339 12.7704 0
C 0.706385 12.3316 1.2079
C 2.05689 12.7704 1.2079
C -0.0402145 12.3316 2.4158
C 2.66079 13.2092 2.4158
C 0.563785 12.7704 3.6238
C 1.91429 13.2092 3.6238
C -0.820415 10.1376 -7.2475
C 4.58159 11.8928 -7.2475
C -1.56691 10.1376 -6.0396
C 5.18559 12.3316 -6.0396
C -0.962915 10.5764 -4.8317
C 4.43909 12.3316 -4.8317
C -1.70951 10.5764 -3.6238
C 5.04299 12.7704 -3.6238
C -1.10551 11.0152 -2.4158
C 4.29649 12.7704 -2.4158
C -1.85211 11.0152 -1.2079
C 4.90039 13.2092 -1.2079
C -1.24811 11.454 0
C 4.15389 13.2092 0
C -3.52141 9.25999 -7.2475
C 7.28259 12.7704 -7.2475
C -2.91741 9.69879 -6.0396
C 6.53609 12.7704 -6.0396
C -3.66391 9.69879 -4.8317
C 7.14009 13.2092 -4.8317
C -3.06001 10.1376 -3.6238
C 6.39349 13.2092 -3.6238
C -4.87191 8.82119 -7.2475
C 8.63309 13.2092 -7.2475
C -6.22241 -1.55761 -7.2475
C -6.22241 1.28239 -7.2475
C -6.45311 -0.84761 -6.0396
C -6.45311 0.57239 -6.0396
C -6.68381 -1.55761 -4.8317
C -6.68381 1.28239 -4.8317
C -6.91451 -0.84761 -3.6238
C -6.91451 0.57239 -3.6238
C -7.14511 -1.55761 -2.4158
C -7.14511 1.28239 -2.4158
C -7.37581 -0.84761 -1.2079
C -7.37581 0.57239 -1.2079
C -7.60651 -1.55761 0
C -7.60651 1.28239 0
C -7.83721 -0.84761 1.2079
C -7.83721 0.57239 1.2079
C -8.06791 -1.55761 2.4158
C -8.06791 1.28239 2.4158
C -8.29861 -0.84761 3.6238
C -8.29861 0.57239 3.6238
C -6.22241 -2.97761 -7.2475
C -6.22241 2.70239 -7.2475
C -6.45311 -3.68761 -6.0396
C -6.45311 3.41239 -6.0396
C -6.68381 -2.97761 -4.8317
C -6.68381 2.70239 -4.8317
C -6.91451 -3.68761 -3.6238
C -6.91451 3.41239 -3.6238
C -7.14511 -2.97761 -2.4158
C -7.14511 2.70239 -2.4158
C -7.37581 -3.68761 -1.2079
C -7.37581 3.41239 -1.2079
C -7.60651 -2.97761 0
C -7.60651 2.70239 0
C -6.22241 -5.81761 -7.2475
C -6.22241 5.54239 -7.2475
C -6.45311 -5.10761 -6.0396
C -6.45311 4.83239 -6.0396
C -6.68381 -5.81761 -4.8317
C -6.68381 5.54239 -4.8317
C -6.91451 -5.10761 -3.6238
C -6.91451 4.83239 -3.6238
C -6.22241 -7.23761 -7.2475
C -6.22241 6.96239 -7.2475
C 3.23109 -11.7292 -7.2475
C 0.530085 -10.8516 -7.2475
C 2.48459 -11.7292 -6.0396
C 1.13409 -11.2904 -6.0396
C 3.08859 -12.168 -4.8317
C 0.387585 -11.2904 -4.8317
C 2.34199 -12.168 -3.6238
C 0.991485 -11.7292 -3.6238
C 2.94599 -12.6068 -2.4158
C 0.244985 -11.7292 -2.4158
C 2.19939 -12.6068 -1.2079
C 0.848885 -12.168 -1.2079
C 2.80339 -13.0456 0
C 0.102385 -12.168 0
C 2.05689 -13.0456 1.2079
C 0.706385 -12.6068 1.2079
C 2.66079 -13.4844 2.4158
C -0.0402145 -12.6068 2.4158
C 1.91429 -13.4844 3.6238
C 0.563785 -13.0456 3.6238
C 4.58159 -12.168 -7.2475
C -0.820415 -10.4128 -7.2475
C 5.18559 -12.6068 -6.0396
C -1.56691 -10.4128 -6.0396
C 4.43909 -12.6068 -4.8317
C -0.962915 -10.8516 -4.8317
C 5.04299 -13.0456 -3.6238
C -1.70951 -10.8516 -3.6238
C 4.29649 -13.0456 -2.4158
C -1.10551 -11.2904 -2.4158
C 4.90039 -13.4844 -1.2079
C -1.85211 -11.2904 -1.2079
C 4.15389 -13.4844 0
C -1.24811 -11.7292 0
C 7.28259 -13.0456 -7.2475
C -3.52141 -9.53521 -7.2475
C 6.53609 -13.0456 -6.0396
C -2.91741 -9.97401 -6.0396
C 7.14009 -13.4844 -4.8317
C -3.66391 -9.97401 -4.8317
C 6.39349 -13.4844 -3.6238
C -3.06001 -10.4128 -3.6238
C 8.63309 -13.4844 -7.2475
C -4.87191 -9.09641 -7.2475
C 15.8262 -5.88161 -7.2475
C 14.1569 -8.17921 -7.2475
C 15.5955 -6.59161 -6.0396
C 14.7609 -7.74041 -6.0396
C 16.1995 -6.15281 -4.8317
C 14.5302 -8.45041 -4.8317
C 15.9688 -6.86281 -3.6238
C 15.1341 -8.01161 -3.6238
C 16.5728 -6.42401 -2.4158
C 14.9034 -8.72161 -2.4158
C 16.3421 -7.13401 -1.2079
C 15.5074 -8.28281 -1.2079
C 16.946 -6.69521 0
C 15.2767 -8.99281 0
C 16.7153 -7.40521 1.2079
C 15.8807 -8.55401 1.2079
C 17.3193 -6.96641 2.4158
C 15.65 -9.26401 2.4158
C 17.0886 -7.67641 3.6238
C 16.2539 -8.82521 3.6238
C 16.6609 -4.73281 -7.2475
C 13.3222 -9.32801 -7.2475
C 17.2648 -4.29401 -6.0396
C 13.0916 -10.038 -6.0396
C 17.0341 -5.00401 -4.8317
C 13.6955 -9.59921 -4.8317
C 17.6381 -4.56521 -3.6238
C 13.4648 -10.3092 -3.6238
C 17.4074 -5.27521 -2.4158
C 14.0688 -9.87041 -2.4158
C 18.0114 -4.83641 -1.2079
C 13.8381 -10.5804 -1.2079
C 17.7807 -5.54641 0
C 14.4421 -10.1416 0
C 18.3302 -2.43521 -7.2475
C 11.6529 -11.6256 -7.2475
C 18.0995 -3.14521 -6.0396
C 12.2569 -11.1868 -6.0396
C 18.7034 -2.70641 -4.8317
C 12.0262 -11.8968 -4.8317
C 18.4728 -3.41641 -3.6238
C 12.6302 -11.458 -3.6238
C 19.1648 -1.28641 -7.2475
C 10.8183 -12.7744 -7.2475
C 13.7836 6.75519 -7.9941
C 14.6183 5.60639 -7.9941
C 12.5757 6.75519 -8.7406
C 14.245 4.45759 -8.7406
C 12.2024 5.60639 -9.4872
C 13.0371 4.45759 -9.4872
C 10.9945 5.60639 -10.2337
C 12.6638 3.30879 -10.2337
C 10.6212 4.45759 -10.9802
C 11.4559 3.30879 -10.9802
C 9.41329 4.45759 -11.7268
C 11.0826 2.15999 -11.7268
C 9.04009 3.30879 -12.4733
C 9.87469 2.15999 -12.4733
C 7.83209 3.30879 -13.2199
C 9.50139 1.01119 -13.2199
C 7.45889 2.15999 -13.9664
C 8.29349 1.01119 -13.9664
C 6.25089 2.15999 -14.7129
C 7.92019 -0.13761 -14.7129
C 5.87769 1.01119 -15.4595
C 6.71229 -0.13761 -15.4595
C 12.1143 9.05279 -7.9941
C 16.2876 3.30879 -7.9941
C 11.7411 7.90399 -8.7406
C 15.0797 3.30879 -8.7406
C 10.5331 7.90399 -9.4872
C 14.7064 2.15999 -9.4872
C 10.1599 6.75519 -10.2337
C 13.4985 2.15999 -10.2337
C 8.95189 6.75519 -10.9802
C 13.1252 1.01119 -10.9802
C 8.57869 5.60639 -11.7268
C 11.9173 1.01119 -11.7268
C 7.37069 5.60639 -12.4733
C 11.544 -0.13761 -12.4733
C 6.99749 4.45759 -13.2199
C 10.3361 -0.13761 -13.2199
C 11.2797 10.2016 -7.9941
C 17.1223 2.15999 -7.9941
C 10.0717 10.2016 -8.7406
C 16.749 1.01119 -8.7406
C 9.69849 9.05279 -9.4872
C 15.5411 1.01119 -9.4872
C 8.49059 9.05279 -10.2337
C 15.1678 -0.13761 -10.2337
C 8.11729 7.90399 -10.9802
C 13.9599 -0.13761 -10.9802
C 9.61039 12.4992 -7.9941
C 18.7916 -0.13761 -7.9941
C 9.23709 11.3504 -8.7406
C 17.5836 -0.13761 -8.7406
C 1.50739 9.86639 -7.9941
C 2.85789 10.3052 -7.9941
C 1.13409 8.71759 -8.7406
C 3.83509 9.59519 -8.7406
C 2.11129 8.00759 -9.4872
C 3.46179 8.44639 -9.4872
C 1.73809 6.85879 -10.2337
C 4.43909 7.73639 -10.2337
C 2.71529 6.14879 -10.9802
C 4.06579 6.58759 -10.9802
C 2.34199 4.99999 -11.7268
C 5.04299 5.87759 -11.7268
C 3.31919 4.28999 -12.4733
C 4.66969 4.72879 -12.4733
C 2.94599 3.14119 -13.2199
C 5.64699 4.01879 -13.2199
C 3.92319 2.43119 -13.9664
C 5.27369 2.86999 -13.9664
C 3.54989 1.28239 -14.7129
C 4.52719 0.57239 -15.4595
C -1.19361 8.98879 -7.9941
C 5.55889 11.1828 -7.9941
C -0.216415 8.27879 -8.7406
C 5.18559 10.034 -8.7406
C -0.589715 7.12999 -9.4872
C 6.16279 9.32399 -9.4872
C 0.387585 6.41999 -10.2337
C 5.78959 8.17519 -10.2337
C 0.0142855 5.27119 -10.9802
C 6.76679 7.46519 -10.9802
C 0.991485 4.56119 -11.7268
C 6.39349 6.31639 -11.7268
C 0.618185 3.41239 -12.4733
C 1.59549 2.70239 -13.2199
C -2.54411 8.54999 -7.9941
C 6.90939 11.6216 -7.9941
C -2.91741 7.40119 -8.7406
C 7.88659 10.9116 -8.7406
C -1.94021 6.69119 -9.4872
C 7.51329 9.76279 -9.4872
C -2.31341 5.54239 -10.2337
C -1.33621 4.83239 -10.9802
C -5.24511 7.67239 -7.9941
C -4.26791 6.96239 -8.7406
C -5.24511 -0.84761 -7.9941
C -5.24511 0.57239 -7.9941
C -4.26791 -1.55761 -8.7406
C -4.26791 1.28239 -8.7406
C -3.29071 -0.84761 -9.4872
C -3.29071 0.57239 -9.4872
C -2.31341 -1.55761 -10.2337
C -2.31341 1.28239 -10.2337
C -1.33621 -0.84761 -10.9802
C -1.33621 0.57239 -10.9802
C -0.359015 -1.55761 -11.7268
C -0.359015 1.28239 -11.7268
C 0.618185 -0.84761 -12.4733
C 0.618185 0.57239 -12.4733
C 1.59549 -1.55761 -13.2199
C 1.59549 1.28239 -13.2199
C 2.57269 -0.84761 -13.9664
C 2.57269 0.57239 -13.9664
C 3.54989 -1.55761 -14.7129
C 4.52719 -0.84761 -15.4595
C -5.24511 -3.68761 -7.9941
C -5.24511 3.41239 -7.9941
C -4.26791 -2.97761 -8.7406
C -4.26791 2.70239 -8.7406
C -3.29071 -3.68761 -9.4872
C -3.29071 3.41239 -9.4872
C -2.31341 -2.97761 -10.2337
C -2.31341 2.70239 -10.2337
C -1.33621 -3.68761 -10.9802
C -1.33621 3.41239 -10.9802
C -0.359015 -2.97761 -11.7268
C -0.359015 2.70239 -11.7268
C 0.618185 -3.68761 -12.4733
C 1.59549 -2.97761 -13.2199
C -5.24511 -5.10761 -7.9941
C -5.24511 4.83239 -7.9941
C -4.26791 -5.81761 -8.7406
C -4.26791 5.54239 -8.7406
C -3.29071 -5.10761 -9.4872
C -3.29071 4.83239 -9.4872
C -2.31341 -5.81761 -10.2337
C -1.33621 -5.10761 -10.9802
C -5.24511 -7.94761 -7.9941
C -4.26791 -7.23761 -8.7406
C 2.85789 -10.5804 -7.9941
C 1.50739 -10.1416 -7.9941
C 3.83509 -9.87041 -8.7406
C 1.13409 -8.99281 -8.7406
C 3.46179 -8.72161 -9.4872
C 2.11129 -8.28281 -9.4872
C 4.43909 -8.01161 -10.2337
C 1.73809 -7.13401 -10.2337
C 4.06579 -6.86281 -10.9802
C 2.71529 -6.42401 -10.9802
C 5.04299 -6.15281 -11.7268
C 2.34199 -5.27521 -11.7268
C 4.66969 -5.00401 -12.4733
C 3.31919 -4.56521 -12.4733
C 5.64699 -4.29401 -13.2199
C 2.94599 -3.41641 -13.2199
C 5.27369 -3.14521 -13.9664
C 3.92319 -2.70641 -13.9664
C 6.25089 -2.43521 -14.7129
C 5.87769 -1.28641 -15.4595
C 5.55889 -11.458 -7.9941
C -1.19361 -9.26401 -7.9941
C 5.18559 -10.3092 -8.7406
C -0.216415 -8.55401 -8.7406
C 6.16279 -9.59921 -9.4872
C -0.589715 -7.40521 -9.4872
C 5.78959 -8.45041 -10.2337
C 0.387585 -6.69521 -10.2337
C 6.76679 -7.74041 -10.9802
C 0.0142855 -5.54641 -10.9802
C 6.39349 -6.59161 -11.7268
C 0.991485 -4.83641 -11.7268
C 7.37069 -5.88161 -12.4733
C 6.99749 -4.73281 -13.2199
C 6.90939 -11.8968 -7.9941
C -2.54411 -8.82521 -7.9941
C 7.88659 -11.1868 -8.7406
C -2.91741 -7.67641 -8.7406
C 7.51329 -10.038 -9.4872
C -1.94021 -6.96641 -9.4872
C 8.49059 -9.32801 -10.2337
C 8.11729 -8.17921 -10.9802
C 9.61039 -12.7744 -7.9941
C 9.23709 -11.6256 -8.7406
C 14.6183 -5.88161 -7.9941
C 13.7836 -7.03041 -7.9941
C 14.245 -4.73281 -8.7406
C 12.5757 -7.03041 -8.7406
C 13.0371 -4.73281 -9.4872
C 12.2024 -5.88161 -9.4872
C 12.6638 -3.58401 -10.2337
C 10.9945 -5.88161 -10.2337
C 11.4559 -3.58401 -10.9802
C 10.6212 -4.73281 -10.9802
C 11.0826 -2.43521 -11.7268
C 9.41329 -4.73281 -11.7268
C 9.87469 -2.43521 -12.4733
C 9.04009 -3.58401 -12.4733
C 9.50139 -1.28641 -13.2199
C 7.83209 -3.58401 -13.2199
C 8.29349 -1.28641 -13.9664
C 7.45889 -2.43521 -13.9664
C 16.2876 -3.58401 -7.9941
C 12.1143 -9.32801 -7.9941
C 15.0797 -3.58401 -8.7406
C 11.7411 -8.17921 -8.7406
C 14.7064 -2.43521 -9.4872
C 10.5331 -8.17921 -9.4872
C 13.4985 -2.43521 -10.2337
C 10.1599 -7.03041 -10.2337
C 13.1252 -1.28641 -10.9802
C 8.95189 -7.03041 -10.9802
C 11.9173 -1.28641 -11.7268
C 8.57869 -5.88161 -11.7268
C 17.1223 -2.43521 -7.9941
C 11.2797 -10.4768 -7.9941
C 16.749 -1.28641 -8.7406
C 10.0717 -10.4768 -8.7406
C 15.5411 -1.28641 -9.4872
C 9.69849 -9.32801 -9.4872
