D:/LAMMPS projects/bi switch\switch5.data

 7969 atoms

 6 atom types

   -78          78      xlo xhi
   -78          78      ylo yhi
   -78          78     zlo zhi

 Masses

 5 12.0109997
 6 1.00796998
 3 12.0109997
 4 1.00796998
 1 12.0109997
 2 1.00796998

 Atoms #molecular

1   1   3   -33.392000   -4.162000  21.978000
2   1   1   -33.373000   -2.704000  21.439000
3   1   3   -33.433000   -4.173000  30.584000
4   1   1   -33.384000   -2.73000  30.007000
5   1   3   -33.39000   -4.183000  26.291000
6   1   1   -33.357000   -2.734000  25.713000
7   1   3   -33.383000   -4.175000  23.551000
8   1   1   -33.355000   -2.728000  24.146000
9   1   3   -33.394000   -4.186000  27.861000
10   1   1   -33.362000   -2.735000  28.438000
11   1   3   -35.936000   -4.135000  22.008000
12   1   1   -35.912000   -2.646000  21.538000
13   1   3   -34.671000   -4.855000  21.428000
14   1   1   -34.605000   -1.933000  22.018000
15   1   3   -35.966000   -4.139000  30.48000
16   1   1   -35.929000   -2.669000  29.956000
17   1   3   -34.686000   -4.886000  29.999000
18   1   1   -34.644000   -1.954000  30.488000
19   1   3   -35.929000   -4.155000  26.261000
20   1   1   -35.897000   -2.672000  25.733000
21   1   3   -35.929000   -4.145000  23.595000
22   1   1   -35.897000   -2.666000  24.142000
23   1   3   -34.656000   -4.884000  25.704000
24   1   3   -34.654000   -4.879000  24.136000
25   1   1   -34.6000   -1.956000  26.27000
26   1   1   -34.599000   -1.944000  23.604000
27   1   3   -35.935000   -4.161000  27.852000
28   1   1   -35.909000   -2.675000  28.374000
29   1   3   -34.666000   -4.896000  28.43000
30   1   1   -34.602000   -1.957000  27.86000
31   1   3   -38.502000   -4.074000  22.016000
32   1   1   -38.472000   -2.587000  21.551000
33   1   3   -37.236000   -4.795000  21.446000
34   1   1   -37.174000   -1.889000  22.063000
35   1   3   -38.522000   -4.077000  30.458000
36   1   1   -38.489000   -2.611000  29.93000
37   1   3   -37.255000   -4.83000  29.958000
38   1   1   -37.199000   -1.905000  30.444000
39   1   3   -38.501000   -4.097000  26.254000
40   1   1   -38.468000   -2.617000  25.728000
41   1   3   -38.499000   -4.086000  23.6000
42   1   1   -38.467000   -2.612000  24.151000
43   1   3   -37.229000   -4.829000  25.701000
44   1   3   -37.228000   -4.824000  24.144000
45   1   1   -37.168000   -1.908000  26.26000
46   1   1   -37.169000   -1.898000  23.629000
47   1   3   -38.507000   -4.103000  27.836000
48   1   1   -38.477000   -2.62000  28.355000
49   1   3   -37.24000   -4.842000  28.4000
50   1   1   -37.174000   -1.911000  27.833000
51   1   3   -41.07000   -4.011000  22.014000
52   1   1   -41.036000   -2.524000  21.55000
53   1   3   -39.802000   -4.731000  21.446000
54   1   1   -39.738000   -1.83000  22.067000
55   1   3   -41.085000   -4.013000  30.452000
56   1   1   -41.051000   -2.548000  29.922000
57   1   3   -39.819000   -4.766000  29.949000
58   1   1   -39.756000   -1.844000  30.426000
59   1   3   -41.073000   -4.037000  26.249000
60   1   1   -41.039000   -2.557000  25.724000
61   1   3   -41.07000   -4.025000  23.597000
62   1   1   -41.037000   -2.551000  24.148000
63   1   3   -39.802000   -4.771000  25.697000
64   1   3   -39.801000   -4.765000  24.142000
65   1   1   -39.738000   -1.852000  26.254000
66   1   1   -39.736000   -1.841000  23.633000
67   1   3   -41.078000   -4.042000  27.83000
68   1   1   -41.045000   -2.56000  28.348000
69   1   3   -39.811000   -4.783000  28.391000
70   1   1   -39.742000   -1.854000  27.823000
71   1   3   -43.639000   -3.943000  22.01000
72   1   1   -43.603000   -2.455000  21.546000
73   1   3   -42.371000   -4.666000  21.442000
74   1   1   -42.303000   -1.765000  22.064000
75   1   3   -43.651000   -3.942000  30.449000
76   1   1   -43.615000   -2.477000  29.919000
77   1   3   -42.386000   -4.699000  29.946000
78   1   1   -42.316000   -1.777000  30.421000
79   1   3   -43.644000   -3.969000  26.246000
80   1   1   -43.608000   -2.49000  25.721000
81   1   3   -43.641000   -3.957000  23.593000
82   1   1   -43.606000   -2.483000  24.145000
83   1   3   -42.376000   -4.708000  25.693000
84   1   3   -42.374000   -4.701000  24.138000
85   1   1   -42.306000   -1.788000  26.25000
86   1   1   -42.304000   -1.776000  23.63000
87   1   3   -43.648000   -3.974000  27.828000
88   1   1   -43.612000   -2.491000  28.345000
89   1   3   -42.382000   -4.718000  28.388000
90   1   1   -42.31000   -1.79000  27.818000
91   1   3   -46.208000   -3.867000  22.007000
92   1   1   -46.17000   -2.38000  21.543000
93   1   3   -44.942000   -4.594000  21.439000
94   1   1   -44.869000   -1.693000  22.06000
95   1   3   -46.216000   -3.864000  30.449000
96   1   1   -46.179000   -2.399000  29.918000
97   1   3   -44.954000   -4.625000  29.945000
98   1   1   -44.879000   -1.702000  30.418000
99   1   3   -46.213000   -3.893000  26.245000
100   1   1   -46.175000   -2.414000  25.718000
101   1   3   -46.21000   -3.881000  23.59000
102   1   1   -46.174000   -2.407000  24.142000
103   1   3   -44.948000   -4.636000  25.69000
104   1   3   -44.946000   -4.63000  24.135000
105   1   1   -44.874000   -1.716000  26.247000
106   1   1   -44.871000   -1.704000  23.627000
107   1   3   -46.215000   -3.897000  27.826000
108   1   1   -46.178000   -2.414000  28.344000
109   1   3   -44.952000   -4.646000  28.386000
110   1   1   -44.876000   -1.717000  27.815000
111   1   3   -48.772000   -3.786000  22.006000
112   1   1   -48.735000   -2.298000  21.541000
113   1   3   -47.51000   -4.516000  21.437000
114   1   1   -47.435000   -1.613000  22.058000
115   1   3   -48.777000   -3.779000  30.449000
116   1   1   -48.741000   -2.314000  29.917000
117   1   3   -47.518000   -4.544000  29.945000
118   1   1   -47.441000   -1.619000  30.417000
119   1   3   -48.776000   -3.81000  26.244000
120   1   1   -48.739000   -2.331000  25.717000
121   1   3   -48.774000   -3.799000  23.589000
122   1   1   -48.738000   -2.325000  24.141000
123   1   3   -47.515000   -4.557000  25.689000
124   1   3   -47.514000   -4.551000  24.134000
125   1   1   -47.439000   -1.635000  26.245000
126   1   1   -47.436000   -1.624000  23.624000
127   1   3   -48.777000   -3.814000  27.826000
128   1   1   -48.741000   -2.33000  28.343000
129   1   3   -47.518000   -4.566000  28.386000
130   1   1   -47.44000   -1.636000  27.814000
131   1   3   -51.331000   -3.703000  22.006000
132   1   1   -51.295000   -2.214000  21.54000
133   1   3   -50.072000   -4.435000  21.436000
134   1   1   -49.997000   -1.528000  22.056000
135   1   3   -51.332000   -3.693000  30.45000
136   1   1   -51.297000   -2.227000  29.917000
137   1   3   -50.077000   -4.46000  29.945000
138   1   1   -50.0000   -1.531000  30.416000
139   1   3   -51.333000   -3.726000  26.245000
140   1   1   -51.298000   -2.246000  25.717000
141   1   3   -51.332000   -3.716000  23.589000
142   1   1   -51.297000   -2.241000  24.14000
143   1   3   -50.076000   -4.475000  25.689000
144   1   3   -50.075000   -4.469000  24.133000
145   1   1   -50.0000   -1.549000  26.244000
146   1   1   -49.998000   -1.539000  23.623000
147   1   3   -51.333000   -3.729000  27.826000
148   1   1   -51.298000   -2.244000  28.343000
149   1   3   -50.078000   -4.482000  28.387000
150   1   1   -50.0000   -1.549000  27.813000
151   1   3   -53.882000   -3.624000  22.008000
152   1   1   -53.85000   -2.135000  21.541000
153   1   3   -52.627000   -4.355000  21.437000
154   1   1   -52.555000   -1.444000  22.056000
155   1   3   -53.879000   -3.611000  30.452000
156   1   1   -53.848000   -2.145000  29.918000
157   1   3   -52.627000   -4.377000  29.947000
158   1   1   -52.554000   -1.443000  30.417000
159   1   3   -53.883000   -3.645000  26.246000
160   1   1   -53.851000   -2.166000  25.718000
161   1   3   -53.883000   -3.636000  23.59000
162   1   1   -53.851000   -2.161000  24.141000
163   1   3   -52.629000   -4.393000  25.69000
164   1   3   -52.628000   -4.388000  24.135000
165   1   1   -52.556000   -1.464000  26.244000
166   1   1   -52.556000   -1.454000  23.623000
167   1   3   -53.883000   -3.648000  27.828000
168   1   1   -53.849000   -2.162000  28.344000
169   1   3   -52.629000   -4.399000  28.388000
170   1   1   -52.556000   -1.463000  27.813000
171   1   3   -56.428000   -3.556000  22.011000
172   1   1   -56.4000   -2.066000  21.544000
173   1   3   -55.173000   -4.282000  21.44000
174   1   1   -55.109000   -1.367000  22.058000
175   1   3   -56.42000   -3.541000  30.455000
176   1   1   -56.393000   -2.075000  29.92000
177   1   3   -55.169000   -4.302000  29.949000
178   1   1   -55.104000   -1.365000  30.418000
179   1   3   -56.428000   -3.576000  26.249000
180   1   1   -56.401000   -2.096000  25.72000
181   1   3   -56.429000   -3.568000  23.594000
182   1   1   -56.4000   -2.092000  24.144000
183   1   3   -55.174000   -4.319000  25.692000
184   1   3   -55.174000   -4.315000  24.137000
185   1   1   -55.109000   -1.387000  26.246000
186   1   1   -55.109000   -1.378000  23.624000
187   1   3   -56.426000   -3.578000  27.83000
188   1   1   -56.397000   -2.092000  28.346000
189   1   3   -55.172000   -4.324000  28.39000
190   1   1   -55.107000   -1.385000  27.814000
191   1   3   -58.968000   -3.503000  22.016000
192   1   1   -58.946000   -2.014000  21.548000
193   1   3   -57.712000   -4.222000  21.444000
194   1   1   -57.659000   -1.305000  22.062000
195   1   3   -58.955000   -3.488000  30.458000
196   1   1   -58.936000   -2.021000  29.923000
197   1   3   -57.704000   -4.24000  29.951000
198   1   1   -57.65000   -1.301000  30.42000
199   1   3   -58.972000   -3.522000  26.253000
200   1   1   -58.951000   -2.042000  25.724000
201   1   3   -58.972000   -3.515000  23.598000
202   1   1   -58.95000   -2.038000  24.148000
203   1   3   -57.715000   -4.258000  25.696000
204   1   3   -57.715000   -4.254000  24.141000
205   1   1   -57.661000   -1.324000  26.248000
206   1   1   -57.661000   -1.316000  23.628000
207   1   3   -58.968000   -3.524000  27.833000
208   1   1   -58.944000   -2.038000  28.349000
209   1   3   -57.71000   -4.263000  28.393000
210   1   1   -57.658000   -1.322000  27.816000
211   1   3   -61.506000   -3.471000  22.017000
212   1   1   -61.489000   -1.984000  21.546000
213   1   3   -60.244000   -4.181000  21.449000
214   1   1   -60.209000   -1.262000  22.065000
215   1   3   -61.485000   -3.455000  30.471000
216   1   1   -61.478000   -1.991000  29.931000
217   1   3   -60.233000   -4.198000  29.957000
218   1   1   -60.195000   -1.258000  30.424000
219   1   3   -61.519000   -3.489000  26.259000
220   1   1   -61.506000   -2.011000  25.728000
221   1   3   -61.516000   -3.482000  23.599000
222   1   1   -61.504000   -2.008000  24.15000
223   1   3   -60.255000   -4.213000  25.701000
224   1   3   -60.254000   -4.21000  24.146000
225   1   1   -60.217000   -1.281000  26.252000
226   1   1   -60.216000   -1.273000  23.631000
227   1   3   -61.513000   -3.491000  27.842000
228   1   1   -61.495000   -2.007000  28.358000
229   1   3   -60.245000   -4.218000  28.398000
230   1   1   -60.212000   -1.278000  27.821000
231   1   3   -64.065000   -3.487000  21.976000
232   1   1   -64.038000   -1.987000  21.511000
233   1   3   -62.769000   -4.166000  21.441000
234   1   1   -62.762000   -1.248000  22.052000
235   1   3   -64.024000   -3.472000  30.52000
236   1   1   -64.036000   -1.996000  29.978000
237   1   3   -62.757000   -4.181000  29.981000
238   1   1   -62.739000   -1.244000  30.442000
239   1   3   -64.086000   -3.51000  26.27000
240   1   1   -64.074000   -2.019000  25.728000
241   1   3   -64.081000   -3.503000  23.574000
242   1   1   -64.075000   -2.015000  24.134000
243   1   3   -62.796000   -4.194000  25.706000
244   1   3   -62.794000   -4.191000  24.14000
245   1   1   -62.781000   -1.267000  26.257000
246   1   1   -62.778000   -1.26000  23.625000
247   1   3   -64.081000   -3.509000  27.871000
248   1   1   -64.06000   -2.011000  28.392000
249   1   3   -62.783000   -4.199000  28.416000
250   1   1   -62.774000   -1.264000  27.838000
251   1   3   -65.27000   -4.256000  21.3000
252   1   3   -65.285000   -1.211000  22.005000
253   1   3   -65.259000   -4.288000  30.053000
254   1   3   -65.247000   -1.21000  30.564000
255   1   3   -65.304000   -4.314000  25.682000
256   1   3   -65.303000   -4.306000  24.136000
257   1   3   -65.3000   -1.228000  26.289000
258   1   3   -65.304000   -1.222000  23.568000
259   1   3   -65.302000   -4.304000  28.5000
260   1   3   -65.294000   -1.224000  27.85000
261   1   1   -35.851000   0.298000  22.033000
262   1   1   -35.863000   1.751000  21.469000
263   1   1   -34.622000   -0.476000  21.463000
264   1   1   -35.884000   0.272000  30.475000
265   1   1   -35.867000   1.738000  29.972000
266   1   1   -34.628000   -0.493000  29.974000
267   1   1   -35.844000   0.284000  26.27000
268   1   1   -35.842000   1.748000  25.72000
269   1   1   -35.844000   0.293000  23.615000
270   1   1   -35.842000   1.753000  24.165000
271   1   1   -34.603000   -0.492000  25.717000
272   1   1   -34.602000   -0.485000  24.161000
273   1   1   -35.846000   0.284000  27.852000
274   1   1   -35.843000   1.747000  28.414000
275   1   1   -34.605000   -0.491000  28.416000
276   1   1   -38.414000   0.346000  22.074000
277   1   1   -38.391000   1.817000  21.563000
278   1   1   -37.154000   -0.416000  21.558000
279   1   1   -37.089000   2.531000  22.036000
280   1   1   -38.435000   0.327000  30.434000
281   1   1   -38.402000   1.801000  29.937000
282   1   1   -37.167000   -0.434000  29.938000
283   1   1   -37.119000   2.503000  30.476000
284   1   1   -38.407000   0.337000  26.261000
285   1   1   -38.375000   1.817000  25.739000
286   1   1   -38.408000   0.343000  23.64000
287   1   1   -38.375000   1.82000  24.163000
288   1   1   -37.138000   -0.428000  25.736000
289   1   1   -37.138000   -0.422000  24.159000
290   1   1   -37.08000   2.527000  26.272000
291   1   1   -37.081000   2.531000  23.618000
292   1   1   -38.412000   0.334000  27.83000
293   1   1   -38.384000   1.81000  28.363000
294   1   1   -37.148000   -0.432000  28.363000
295   1   1   -37.081000   2.525000  27.853000
296   1   1   -40.973000   0.407000  22.078000
297   1   1   -40.944000   1.879000  21.574000
298   1   1   -39.71000   -0.356000  21.569000
299   1   1   -39.649000   2.583000  22.077000
300   1   1   -40.989000   0.391000  30.418000
301   1   1   -40.957000   1.863000  29.916000
302   1   1   -39.724000   -0.375000  29.916000
303   1   1   -39.668000   2.562000  30.436000
304   1   1   -40.972000   0.396000  26.256000
305   1   1   -40.938000   1.875000  25.736000
306   1   1   -40.972000   0.403000  23.644000
307   1   1   -40.939000   1.878000  24.171000
308   1   1   -39.705000   -0.372000  25.733000
309   1   1   -39.705000   -0.367000  24.166000
310   1   1   -39.64000   2.582000  26.264000
311   1   1   -39.643000   2.585000  23.644000
312   1   1   -40.976000   0.393000  27.821000
313   1   1   -40.946000   1.868000  28.349000
314   1   1   -39.713000   -0.376000  28.348000
315   1   1   -39.645000   2.578000  27.832000
316   1   1   -43.536000   0.475000  22.075000
317   1   1   -43.504000   1.947000  21.573000
318   1   1   -42.271000   -0.29000  21.568000
319   1   1   -42.206000   2.645000  22.081000
320   1   1   -43.548000   0.461000  30.413000
321   1   1   -43.516000   1.932000  29.909000
322   1   1   -42.284000   -0.309000  29.909000
323   1   1   -42.22000   2.628000  30.42000
324   1   1   -43.539000   0.462000  26.252000
325   1   1   -43.505000   1.941000  25.733000
326   1   1   -43.536000   0.47000  23.641000
327   1   1   -43.504000   1.944000  24.169000
328   1   1   -42.272000   -0.309000  25.729000
329   1   1   -42.272000   -0.303000  24.164000
330   1   1   -42.204000   2.643000  26.259000
331   1   1   -42.204000   2.646000  23.647000
332   1   1   -43.542000   0.46000  27.817000
333   1   1   -43.51000   1.935000  28.343000
334   1   1   -42.278000   -0.312000  28.342000
335   1   1   -42.208000   2.638000  27.824000
336   1   1   -46.101000   0.552000  22.071000
337   1   1   -46.069000   2.024000  21.569000
338   1   1   -44.836000   -0.218000  21.564000
339   1   1   -44.768000   2.715000  22.078000
340   1   1   -46.11000   0.54000  30.41000
341   1   1   -46.08000   2.011000  29.906000
342   1   1   -44.847000   -0.234000  29.906000
343   1   1   -44.78000   2.701000  30.415000
344   1   1   -46.105000   0.539000  26.249000
345   1   1   -46.072000   2.017000  25.729000
346   1   1   -46.102000   0.546000  23.638000
347   1   1   -46.071000   2.02000  24.165000
348   1   1   -44.84000   -0.237000  25.726000
349   1   1   -44.838000   -0.231000  24.161000
350   1   1   -44.77000   2.713000  26.255000
351   1   1   -44.768000   2.716000  23.644000
352   1   1   -46.107000   0.538000  27.814000
353   1   1   -46.076000   2.013000  28.34000
354   1   1   -44.844000   -0.239000  28.339000
355   1   1   -44.773000   2.709000  27.819000
356   1   1   -48.667000   0.638000  22.068000
357   1   1   -48.637000   2.112000  21.566000
358   1   1   -47.402000   -0.137000  21.561000
359   1   1   -47.334000   2.798000  22.074000
360   1   1   -48.673000   0.63000  30.408000
361   1   1   -48.645000   2.103000  29.903000
362   1   1   -47.41000   -0.15000  29.904000
363   1   1   -47.344000   2.787000  30.411000
364   1   1   -48.669000   0.626000  26.247000
365   1   1   -48.639000   2.106000  25.726000
366   1   1   -48.667000   0.632000  23.635000
367   1   1   -48.638000   2.108000  24.162000
368   1   1   -47.406000   -0.156000  25.723000
369   1   1   -47.404000   -0.15000  24.158000
370   1   1   -47.337000   2.796000  26.251000
371   1   1   -47.335000   2.799000  23.64000
372   1   1   -48.671000   0.625000  27.812000
373   1   1   -48.642000   2.103000  28.337000
374   1   1   -47.408000   -0.157000  28.337000
375   1   1   -47.339000   2.793000  27.815000
376   1   1   -51.229000   0.728000  22.067000
377   1   1   -51.201000   2.205000  21.565000
378   1   1   -49.966000   -0.051000  21.56000
379   1   1   -49.901000   2.893000  22.071000
380   1   1   -51.232000   0.723000  30.406000
381   1   1   -51.206000   2.2000  29.9000
382   1   1   -49.971000   -0.061000  29.903000
383   1   1   -49.909000   2.887000  30.407000
384   1   1   -51.23000   0.717000  26.245000
385   1   1   -51.202000   2.2000  25.724000
386   1   1   -51.229000   0.723000  23.633000
387   1   1   -51.202000   2.202000  24.159000
388   1   1   -49.969000   -0.068000  25.722000
389   1   1   -49.968000   -0.063000  24.156000
390   1   1   -49.903000   2.892000  26.248000
391   1   1   -49.901000   2.894000  23.637000
392   1   1   -51.231000   0.717000  27.81000
393   1   1   -51.204000   2.199000  28.334000
394   1   1   -49.97000   -0.068000  28.335000
395   1   1   -49.904000   2.89000  27.812000
396   1   1   -53.787000   0.813000  22.067000
397   1   1   -53.761000   2.294000  21.565000
398   1   1   -52.526000   0.035000  21.559000
399   1   1   -52.464000   2.991000  22.069000
400   1   1   -53.786000   0.812000  30.406000
401   1   1   -53.761000   2.292000  29.899000
402   1   1   -52.527000   0.028000  29.902000
403   1   1   -52.467000   2.989000  30.404000
404   1   1   -53.787000   0.803000  26.245000
405   1   1   -53.76000   2.289000  25.723000
406   1   1   -53.787000   0.808000  23.634000
407   1   1   -53.76000   2.291000  24.159000
408   1   1   -52.527000   0.018000  25.721000
409   1   1   -52.527000   0.023000  24.155000
410   1   1   -52.464000   2.99000  26.245000
411   1   1   -52.463000   2.991000  23.636000
412   1   1   -53.787000   0.804000  27.81000
413   1   1   -53.76000   2.289000  28.332000
414   1   1   -52.527000   0.02000  28.335000
415   1   1   -52.464000   2.989000  27.81000
416   1   1   -56.342000   0.885000  22.07000
417   1   1   -56.315000   2.368000  21.568000
418   1   1   -55.082000   0.112000  21.561000
419   1   1   -55.021000   3.077000  22.07000
420   1   1   -56.337000   0.887000  30.406000
421   1   1   -56.311000   2.369000  29.899000
422   1   1   -55.078000   0.108000  29.902000
423   1   1   -55.02000   3.079000  30.402000
424   1   1   -56.343000   0.876000  26.246000
425   1   1   -56.315000   2.363000  25.724000
426   1   1   -56.343000   0.88000  23.636000
427   1   1   -56.315000   2.365000  24.16000
428   1   1   -55.082000   0.097000  25.722000
429   1   1   -55.081000   0.101000  24.156000
430   1   1   -55.021000   3.076000  26.245000
431   1   1   -55.021000   3.077000  23.637000
432   1   1   -56.341000   0.877000  27.811000
433   1   1   -56.313000   2.365000  28.333000
434   1   1   -55.08000   0.099000  28.335000
435   1   1   -55.02000   3.076000  27.809000
436   1   1   -58.896000   0.94000  22.073000
437   1   1   -58.867000   2.424000  21.571000
438   1   1   -57.634000   0.175000  21.564000
439   1   1   -57.576000   3.144000  22.073000
440   1   1   -58.886000   0.942000  30.408000
441   1   1   -58.859000   2.424000  29.901000
442   1   1   -57.626000   0.172000  29.904000
443   1   1   -57.569000   3.147000  30.403000
444   1   1   -58.9000   0.93000  26.249000
445   1   1   -58.872000   2.418000  25.728000
446   1   1   -58.899000   0.934000  23.64000
447   1   1   -58.871000   2.42000  24.164000
448   1   1   -57.635000   0.16000  25.725000
449   1   1   -57.635000   0.163000  24.159000
450   1   1   -57.577000   3.142000  26.247000
451   1   1   -57.577000   3.143000  23.64000
452   1   1   -58.896000   0.932000  27.814000
453   1   1   -58.866000   2.421000  28.335000
454   1   1   -57.631000   0.163000  28.337000
455   1   1   -57.575000   3.143000  27.81000
456   1   1   -61.448000   0.975000  22.073000
457   1   1   -61.414000   2.46000  21.568000
458   1   1   -60.184000   0.219000  21.567000
459   1   1   -60.129000   3.191000  22.076000
460   1   1   -61.432000   0.976000  30.418000
461   1   1   -61.406000   2.46000  29.909000
462   1   1   -60.174000   0.216000  29.908000
463   1   1   -60.117000   3.193000  30.407000
464   1   1   -61.462000   0.965000  26.254000
465   1   1   -61.432000   2.455000  25.731000
466   1   1   -61.459000   0.968000  23.64000
467   1   1   -61.43000   2.456000  24.164000
468   1   1   -60.193000   0.204000  25.729000
469   1   1   -60.192000   0.207000  24.163000
470   1   1   -60.137000   3.188000  26.25000
471   1   1   -60.135000   3.188000  23.642000
472   1   1   -61.456000   0.968000  27.821000
473   1   1   -61.422000   2.458000  28.343000
474   1   1   -60.185000   0.208000  28.341000
475   1   1   -60.132000   3.189000  27.815000
476   1   1   -64.007000   1.001000  22.038000
477   1   1   -63.959000   2.486000  21.531000
478   1   1   -62.73000   0.244000  21.559000
479   1   1   -62.678000   3.221000  22.062000
480   1   1   -63.978000   1.002000  30.464000
481   1   1   -63.961000   2.487000  29.956000
482   1   1   -62.724000   0.242000  29.93000
483   1   1   -62.658000   3.222000  30.426000
484   1   1   -64.027000   0.993000  26.264000
485   1   1   -63.997000   2.482000  25.73000
486   1   1   -64.023000   0.994000  23.616000
487   1   1   -63.997000   2.483000  24.148000
488   1   1   -62.757000   0.23000  25.733000
489   1   1   -62.755000   0.233000  24.156000
490   1   1   -62.699000   3.218000  26.255000
491   1   1   -62.695000   3.218000  23.635000
492   1   1   -64.023000   0.996000  27.846000
493   1   1   -63.984000   2.487000  28.377000
494   1   1   -62.745000   0.235000  28.357000
495   1   1   -62.693000   3.221000  27.831000
496   1   3   -65.242000   0.234000  21.445000
497   1   3   -65.199000   3.285000  22.01000
498   1   3   -65.248000   0.231000  29.989000
499   1   3   -65.162000   3.286000  30.553000
500   1   3   -65.279000   0.218000  25.712000
501   1   3   -65.279000   0.221000  24.153000
502   1   3   -65.219000   3.283000  26.287000
503   1   3   -65.222000   3.282000  23.573000
504   1   3   -65.273000   0.224000  28.425000
505   1   3   -65.214000   3.285000  27.845000
506   1   1   -38.319000   4.767000  22.036000
507   1   1   -38.323000   6.217000  21.465000
508   1   1   -37.097000   3.983000  21.469000
509   1   1   -38.347000   4.738000  30.48000
510   1   1   -38.32000   6.206000  29.982000
511   1   1   -37.097000   3.97000  29.976000
512   1   1   -38.31000   4.77000  26.275000
513   1   1   -38.301000   6.233000  25.723000
514   1   1   -38.312000   4.772000  23.619000
515   1   1   -38.301000   6.234000  24.166000
516   1   1   -37.074000   3.99000  25.721000
517   1   1   -37.074000   3.992000  24.166000
518   1   1   -38.311000   4.766000  27.856000
519   1   1   -38.3000   6.226000  28.424000
520   1   1   -37.075000   3.985000  28.417000
521   1   1   -40.878000   4.82000  22.077000
522   1   1   -40.847000   6.286000  21.558000
523   1   1   -39.623000   4.052000  21.564000
524   1   1   -39.543000   7.004000  22.029000
525   1   1   -40.895000   4.798000  30.441000
526   1   1   -40.854000   6.274000  29.951000
527   1   1   -39.631000   4.037000  29.941000
528   1   1   -39.567000   6.972000  30.493000
529   1   1   -40.869000   4.828000  26.267000
530   1   1   -40.832000   6.306000  25.744000
531   1   1   -40.872000   4.828000  23.644000
532   1   1   -40.832000   6.306000  24.164000
533   1   1   -39.606000   4.061000  25.741000
534   1   1   -39.606000   4.062000  24.165000
535   1   1   -39.534000   7.015000  26.279000
536   1   1   -39.536000   7.014000  23.616000
537   1   1   -40.873000   4.821000  27.837000
538   1   1   -40.838000   6.293000  28.376000
539   1   1   -39.613000   4.051000  28.367000
540   1   1   -39.535000   7.011000  27.867000
541   1   1   -43.435000   4.881000  22.08000
542   1   1   -43.399000   6.345000  21.565000
543   1   1   -42.174000   4.115000  21.575000
544   1   1   -42.103000   7.055000  22.064000
545   1   1   -43.448000   4.863000  30.427000
546   1   1   -43.41000   6.335000  29.932000
547   1   1   -42.185000   4.1000  29.921000
548   1   1   -42.118000   7.028000  30.458000
549   1   1   -43.433000   4.888000  26.262000
550   1   1   -43.394000   6.364000  25.74000
551   1   1   -43.432000   4.889000  23.647000
552   1   1   -43.394000   6.364000  24.17000
553   1   1   -42.168000   4.121000  25.739000
554   1   1   -42.169000   4.122000  24.173000
555   1   1   -42.096000   7.071000  26.272000
556   1   1   -42.097000   7.07000  23.638000
557   1   1   -43.436000   4.882000  27.828000
558   1   1   -43.4000   6.35000  28.365000
559   1   1   -42.175000   4.111000  28.353000
560   1   1   -42.1000   7.063000  27.852000
561   1   1   -45.997000   4.954000  22.076000
562   1   1   -45.959000   6.416000  21.561000
563   1   1   -44.734000   4.184000  21.573000
564   1   1   -44.658000   7.113000  22.064000
565   1   1   -46.01000   4.939000  30.421000
566   1   1   -45.971000   6.409000  29.925000
567   1   1   -44.746000   4.171000  29.914000
568   1   1   -44.672000   7.091000  30.446000
569   1   1   -45.999000   4.962000  26.258000
570   1   1   -45.959000   6.435000  25.735000
571   1   1   -45.997000   4.962000  23.643000
572   1   1   -45.958000   6.435000  24.166000
573   1   1   -44.734000   4.189000  25.735000
574   1   1   -44.734000   4.19000  24.17000
575   1   1   -44.657000   7.13000  26.267000
576   1   1   -44.656000   7.129000  23.638000
577   1   1   -46.002000   4.956000  27.823000
578   1   1   -45.965000   6.423000  28.358000
579   1   1   -44.74000   4.18000  28.347000
580   1   1   -44.66000   7.123000  27.844000
581   1   1   -48.565000   5.047000  22.071000
582   1   1   -48.528000   6.511000  21.557000
583   1   1   -47.301000   4.267000  21.569000
584   1   1   -47.219000   7.192000  22.058000
585   1   1   -48.577000   5.037000  30.415000
586   1   1   -48.54000   6.509000  29.918000
587   1   1   -47.312000   4.258000  29.909000
588   1   1   -47.233000   7.175000  30.439000
589   1   1   -48.567000   5.055000  26.252000
590   1   1   -48.528000   6.53000  25.729000
591   1   1   -48.565000   5.055000  23.638000
592   1   1   -48.527000   6.53000  24.16000
593   1   1   -47.303000   4.272000  25.73000
594   1   1   -47.302000   4.273000  24.165000
595   1   1   -47.219000   7.211000  26.26000
596   1   1   -47.218000   7.209000  23.633000
597   1   1   -48.569000   5.051000  27.818000
598   1   1   -48.533000   6.52000  28.351000
599   1   1   -47.308000   4.265000  28.343000
600   1   1   -47.222000   7.205000  27.837000
601   1   1   -51.135000   5.16000  22.068000
602   1   1   -51.104000   6.636000  21.557000
603   1   1   -49.872000   4.367000  21.566000
604   1   1   -49.788000   7.303000  22.055000
605   1   1   -51.145000   5.157000  30.407000
606   1   1   -51.114000   6.639000  29.908000
607   1   1   -49.881000   4.363000  29.904000
608   1   1   -49.802000   7.292000  30.428000
609   1   1   -51.135000   5.168000  26.247000
610   1   1   -51.102000   6.653000  25.723000
611   1   1   -51.134000   5.167000  23.635000
612   1   1   -51.101000   6.653000  24.155000
613   1   1   -49.872000   4.373000  25.726000
614   1   1   -49.872000   4.374000  24.161000
615   1   1   -49.787000   7.321000  26.252000
616   1   1   -49.787000   7.319000  23.628000
617   1   1   -51.137000   5.165000  27.813000
618   1   1   -51.106000   6.647000  28.341000
619   1   1   -49.876000   4.368000  28.338000
620   1   1   -49.789000   7.316000  27.828000
621   1   1   -53.697000   5.268000  22.068000
622   1   1   -53.67000   6.755000  21.56000
623   1   1   -52.437000   4.472000  21.565000
624   1   1   -52.366000   7.449000  22.053000
625   1   1   -53.701000   5.271000  30.4000
626   1   1   -53.673000   6.764000  29.897000
627   1   1   -52.442000   4.473000  29.899000
628   1   1   -52.377000   7.45000  30.407000
629   1   1   -53.695000   5.274000  26.243000
630   1   1   -53.665000   6.768000  25.72000
631   1   1   -53.696000   5.272000  23.634000
632   1   1   -53.666000   6.767000  24.153000
633   1   1   -52.436000   4.477000  25.723000
634   1   1   -52.435000   4.477000  24.158000
635   1   1   -52.364000   7.464000  26.242000
636   1   1   -52.364000   7.462000  23.626000
637   1   1   -53.696000   5.273000  27.809000
638   1   1   -53.668000   6.767000  28.331000
639   1   1   -52.438000   4.475000  28.333000
640   1   1   -52.364000   7.462000  27.816000
641   1   1   -56.253000   5.351000  22.071000
642   1   1   -56.225000   6.844000  21.567000
643   1   1   -54.994000   4.564000  21.567000
644   1   1   -54.929000   7.557000  22.063000
645   1   1   -56.25000   5.357000  30.399000
646   1   1   -56.219000   6.853000  29.895000
647   1   1   -54.993000   4.567000  29.897000
648   1   1   -54.928000   7.568000  30.399000
649   1   1   -56.252000   5.355000  26.244000
650   1   1   -56.221000   6.852000  25.721000
651   1   1   -56.253000   5.353000  23.637000
652   1   1   -56.222000   6.85000  24.156000
653   1   1   -54.992000   4.566000  25.723000
654   1   1   -54.992000   4.566000  24.158000
655   1   1   -54.925000   7.568000  26.24000
656   1   1   -54.928000   7.564000  23.628000
657   1   1   -56.251000   5.356000  27.808000
658   1   1   -56.22000   6.853000  28.328000
659   1   1   -54.992000   4.567000  28.331000
660   1   1   -54.925000   7.569000  27.806000
661   1   1   -58.806000   5.41000  22.075000
662   1   1   -58.774000   6.904000  21.572000
663   1   1   -57.546000   4.633000  21.571000
664   1   1   -57.481000   7.636000  22.07000
665   1   1   -58.797000   5.415000  30.401000
666   1   1   -58.766000   6.91000  29.897000
667   1   1   -57.54000   4.637000  29.898000
668   1   1   -57.474000   7.644000  30.395000
669   1   1   -58.81000   5.411000  26.247000
670   1   1   -58.778000   6.909000  25.725000
671   1   1   -58.809000   5.41000  23.641000
672   1   1   -58.778000   6.907000  24.161000
673   1   1   -57.547000   4.634000  25.725000
674   1   1   -57.547000   4.633000  24.161000
675   1   1   -57.48000   7.642000  26.242000
676   1   1   -57.482000   7.639000  23.637000
677   1   1   -58.806000   5.413000  27.811000
678   1   1   -58.772000   6.911000  28.33000
679   1   1   -57.544000   4.636000  28.331000
680   1   1   -57.478000   7.644000  27.807000
681   1   1   -61.357000   5.449000  22.074000
682   1   1   -61.324000   6.938000  21.567000
683   1   1   -60.096000   4.68000  21.573000
684   1   1   -60.039000   7.674000  22.074000
685   1   1   -61.343000   5.451000  30.413000
686   1   1   -61.317000   6.943000  29.906000
687   1   1   -60.088000   4.683000  29.902000
688   1   1   -60.027000   7.68000  30.401000
689   1   1   -61.372000   5.449000  26.252000
690   1   1   -61.342000   6.942000  25.728000
691   1   1   -61.368000   5.447000  23.64000
692   1   1   -61.34000   6.94000  24.161000
693   1   1   -60.106000   4.68000  25.729000
694   1   1   -60.104000   4.68000  24.164000
695   1   1   -60.046000   7.678000  26.246000
696   1   1   -60.045000   7.675000  23.64000
697   1   1   -61.366000   5.451000  27.818000
698   1   1   -61.332000   6.944000  28.34000
699   1   1   -60.098000   4.683000  28.336000
700   1   1   -60.042000   7.679000  27.811000
701   1   1   -63.913000   5.484000  22.036000
702   1   1   -63.869000   6.968000  21.527000
703   1   1   -62.638000   4.716000  21.561000
704   1   1   -62.59000   7.704000  22.058000
705   1   1   -63.886000   5.487000  30.461000
706   1   1   -63.872000   6.974000  29.953000
707   1   1   -62.635000   4.718000  29.926000
708   1   1   -62.571000   7.708000  30.423000
709   1   1   -63.937000   5.486000  26.262000
710   1   1   -63.908000   6.972000  25.726000
711   1   1   -63.931000   5.482000  23.614000
712   1   1   -63.908000   6.97000  24.145000
713   1   1   -62.668000   4.717000  25.732000
714   1   1   -62.666000   4.716000  24.157000
715   1   1   -62.612000   7.706000  26.252000
716   1   1   -62.607000   7.703000  23.631000
717   1   1   -63.932000   5.488000  27.843000
718   1   1   -63.895000   6.976000  28.374000
719   1   1   -62.656000   4.72000  28.353000
720   1   1   -62.605000   7.709000  27.827000
721   1   3   -65.146000   4.723000  21.442000
722   1   3   -65.113000   7.765000  22.006000
723   1   3   -65.158000   4.726000  29.986000
724   1   3   -65.076000   7.771000  30.55000
725   1   3   -65.191000   4.723000  25.709000
726   1   3   -65.191000   4.722000  24.151000
727   1   3   -65.134000   7.769000  26.283000
728   1   3   -65.136000   7.764000  23.569000
729   1   3   -65.185000   4.727000  28.423000
730   1   3   -65.129000   7.771000  27.841000
731   1   1   -40.775000   9.217000  22.017000
732   1   1   -39.549000   8.454000  21.449000
733   1   1   -40.793000   9.178000  30.581000
734   1   1   -39.548000   8.448000  30.013000
735   1   1   -40.768000   9.227000  26.305000
736   1   1   -40.766000   9.234000  23.583000
737   1   1   -39.53000   8.479000  25.725000
738   1   1   -39.529000   8.48000  24.162000
739   1   1   -40.772000   9.221000  27.868000
740   1   1   -39.533000   8.472000  28.446000
741   1   1   -43.327000   9.263000  22.037000
742   1   1   -42.073000   8.517000  21.528000
743   1   1   -43.341000   9.227000  30.562000
744   1   1   -42.079000   8.516000  29.995000
745   1   1   -43.322000   9.274000  26.3000
746   1   1   -43.322000   9.283000  23.595000
747   1   1   -42.06000   8.548000  25.743000
748   1   1   -42.06000   8.552000  24.155000
749   1   1   -43.326000   9.266000  27.857000
750   1   1   -42.068000   8.534000  28.408000
751   1   1   -45.871000   9.324000  22.033000
752   1   1   -44.618000   8.57000  21.529000
753   1   1   -45.885000   9.293000  30.552000
754   1   1   -44.629000   8.573000  29.982000
755   1   1   -45.869000   9.338000  26.294000
756   1   1   -45.869000   9.346000  23.591000
757   1   1   -44.614000   8.602000  25.739000
758   1   1   -44.614000   8.606000  24.156000
759   1   1   -45.873000   9.332000  27.849000
760   1   1   -44.621000   8.589000  28.399000
761   1   1   -48.42000   9.414000  22.026000
762   1   1   -47.17000   8.647000  21.523000
763   1   1   -48.434000   9.389000  30.54000
764   1   1   -47.182000   8.655000  29.973000
765   1   1   -48.418000   9.429000  26.284000
766   1   1   -48.418000   9.436000  23.584000
767   1   1   -47.168000   8.681000  25.732000
768   1   1   -47.169000   8.684000  24.15000
769   1   1   -48.421000   9.424000  27.839000
770   1   1   -47.174000   8.669000  28.39000
771   1   1   -50.98000   9.556000  22.027000
772   1   1   -49.736000   8.76000  21.522000
773   1   1   -50.993000   9.538000  30.514000
774   1   1   -49.744000   8.772000  29.959000
775   1   1   -50.975000   9.569000  26.27000
776   1   1   -50.978000   9.575000  23.582000
777   1   1   -49.731000   8.791000  25.723000
778   1   1   -49.732000   8.795000  24.143000
779   1   1   -50.976000   9.565000  27.821000
780   1   1   -49.736000   8.783000  28.377000
781   1   1   -53.606000   9.766000  22.013000
782   1   1   -53.654000   11.241000  21.392000
783   1   1   -52.328000   8.936000  21.528000
784   1   1   -53.607000   9.776000  30.413000
785   1   1   -53.611000   11.273000  29.894000
786   1   1   -52.33000   8.953000  29.927000
787   1   1   -53.602000   9.773000  26.231000
788   1   1   -53.624000   11.258000  25.659000
789   1   1   -53.613000   9.769000  23.594000
790   1   1   -53.645000   11.251000  24.119000
791   1   1   -52.321000   8.96000  25.713000
792   1   1   -52.324000   8.963000  24.135000
793   1   1   -53.605000   9.771000  27.809000
794   1   1   -53.626000   11.256000  28.353000
795   1   1   -52.323000   8.957000  28.349000
796   1   1   -56.15000   9.879000  22.059000
797   1   1   -56.123000   11.41000  21.564000
798   1   1   -54.905000   9.051000  21.549000
799   1   1   -54.787000   12.21000  21.994000
800   1   1   -56.143000   9.89000  30.395000
801   1   1   -56.103000   11.422000  29.909000
802   1   1   -54.896000   9.071000  29.899000
803   1   1   -54.786000   12.208000  30.421000
804   1   1   -56.142000   9.891000  26.234000
805   1   1   -56.103000   11.422000  25.714000
806   1   1   -56.148000   9.884000  23.624000
807   1   1   -56.108000   11.42000  24.125000
808   1   1   -54.894000   9.068000  25.711000
809   1   1   -54.898000   9.066000  24.14000
810   1   1   -54.78000   12.207000  26.231000
811   1   1   -54.791000   12.205000  23.573000
812   1   1   -56.141000   9.892000  27.804000
813   1   1   -56.101000   11.423000  28.321000
814   1   1   -54.895000   9.069000  28.329000
815   1   1   -54.78000   12.207000  27.801000
816   1   1   -58.723000   9.905000  22.07000
817   1   1   -58.711000   11.397000  21.565000
818   1   1   -57.451000   9.139000  21.569000
819   1   1   -57.427000   12.149000  22.057000
820   1   1   -58.711000   9.913000  30.395000
821   1   1   -58.696000   11.407000  29.893000
822   1   1   -57.441000   9.15000  29.894000
823   1   1   -57.412000   12.155000  30.397000
824   1   1   -58.722000   9.912000  26.241000
825   1   1   -58.706000   11.406000  25.718000
826   1   1   -58.725000   9.907000  23.635000
827   1   1   -58.709000   11.403000  24.152000
828   1   1   -57.446000   9.148000  25.72000
829   1   1   -57.448000   9.145000  24.153000
830   1   1   -57.414000   12.154000  26.234000
831   1   1   -57.422000   12.15000  23.622000
832   1   1   -58.719000   9.913000  27.805000
833   1   1   -58.7000   11.409000  28.325000
834   1   1   -57.443000   9.15000  28.325000
835   1   1   -57.411000   12.156000  27.802000
836   1   1   -61.282000   9.934000  22.069000
837   1   1   -61.266000   11.425000  21.561000
838   1   1   -60.012000   9.167000  21.571000
839   1   1   -59.989000   12.164000  22.065000
840   1   1   -61.266000   9.941000  30.407000
841   1   1   -61.256000   11.433000  29.899000
842   1   1   -60.002000   9.175000  29.898000
843   1   1   -59.973000   12.172000  30.394000
844   1   1   -61.295000   9.938000  26.246000
845   1   1   -61.281000   11.431000  25.722000
846   1   1   -61.292000   9.935000  23.635000
847   1   1   -61.281000   11.428000  24.155000
848   1   1   -60.02000   9.173000  25.724000
849   1   1   -60.02000   9.171000  24.159000
850   1   1   -59.991000   12.169000  26.239000
851   1   1   -59.992000   12.165000  23.632000
852   1   1   -61.289000   9.94000  27.813000
853   1   1   -61.271000   11.434000  28.333000
854   1   1   -60.012000   9.176000  28.331000
855   1   1   -59.985000   12.171000  27.805000
856   1   1   -63.839000   9.967000  22.03000
857   1   1   -63.811000   11.452000  21.521000
858   1   1   -62.56000   9.2000  21.557000
859   1   1   -62.538000   12.192000  22.051000
860   1   1   -63.812000   9.974000  30.456000
861   1   1   -63.812000   11.461000  29.946000
862   1   1   -62.556000   9.206000  29.921000
863   1   1   -62.516000   12.2000  30.415000
864   1   1   -63.863000   9.972000  26.257000
865   1   1   -63.848000   11.458000  25.72000
866   1   1   -63.858000   9.966000  23.608000
867   1   1   -63.849000   11.455000  24.138000
868   1   1   -62.589000   9.205000  25.727000
869   1   1   -62.587000   9.202000  24.152000
870   1   1   -62.557000   12.196000  26.245000
871   1   1   -62.554000   12.192000  23.624000
872   1   1   -63.858000   9.974000  27.838000
873   1   1   -63.835000   11.463000  28.368000
874   1   1   -62.577000   9.208000  28.348000
875   1   1   -62.55000   12.199000  27.821000
876   1   3   -65.068000   9.201000  21.436000
877   1   3   -65.06000   12.246000  21.999000
878   1   3   -65.079000   9.21000  29.982000
879   1   3   -65.022000   12.256000  30.543000
880   1   3   -65.114000   9.207000  25.704000
881   1   3   -65.113000   9.204000  24.146000
882   1   3   -65.079000   12.252000  26.276000
883   1   3   -65.082000   12.247000  23.562000
884   1   3   -65.107000   9.211000  28.418000
885   1   3   -65.074000   12.255000  27.834000
886   1   1   -56.217000   14.39000  22.014000
887   1   1   -56.219000   15.873000  21.547000
888   1   1   -54.924000   13.781000  21.385000
889   1   1   -54.842000   16.441000  22.004000
890   1   1   -56.212000   14.401000  30.413000
891   1   1   -56.19000   15.878000  29.916000
892   1   1   -54.894000   13.793000  29.903000
893   1   1   -54.842000   16.456000  30.438000
894   1   1   -56.203000   14.396000  26.232000
895   1   1   -56.184000   15.867000  25.709000
896   1   1   -56.207000   14.388000  23.595000
897   1   1   -56.185000   15.864000  24.119000
898   1   1   -54.894000   13.783000  25.676000
899   1   1   -54.898000   13.777000  24.139000
900   1   1   -54.827000   16.437000  26.235000
901   1   1   -54.826000   16.427000  23.575000
902   1   1   -56.198000   14.401000  27.806000
903   1   1   -56.181000   15.876000  28.326000
904   1   1   -54.884000   13.791000  28.368000
905   1   1   -54.817000   16.441000  27.805000
906   1   1   -58.725000   14.403000  22.056000
907   1   1   -58.716000   15.903000  21.557000
908   1   1   -57.471000   13.633000  21.534000
909   1   1   -57.442000   16.649000  22.062000
910   1   1   -58.709000   14.41000  30.393000
911   1   1   -58.696000   15.911000  29.891000
912   1   1   -57.447000   13.642000  29.891000
913   1   1   -57.426000   16.659000  30.407000
914   1   1   -58.716000   14.406000  26.234000
915   1   1   -58.705000   15.905000  25.711000
916   1   1   -58.72000   14.402000  23.624000
917   1   1   -58.708000   15.903000  24.145000
918   1   1   -57.449000   13.64000  25.706000
919   1   1   -57.451000   13.637000  24.142000
920   1   1   -57.423000   16.647000  26.232000
921   1   1   -57.43000   16.645000  23.614000
922   1   1   -58.712000   14.408000  27.801000
923   1   1   -58.699000   15.91000  28.321000
924   1   1   -57.444000   13.643000  28.329000
925   1   1   -57.42000   16.65000  27.792000
926   1   1   -61.256000   14.431000  22.06000
927   1   1   -61.242000   15.925000  21.552000
928   1   1   -59.994000   13.659000  21.558000
929   1   1   -59.971000   16.67000  22.059000
930   1   1   -61.237000   14.439000  30.401000
931   1   1   -61.23000   15.933000  29.892000
932   1   1   -59.979000   13.668000  29.891000
933   1   1   -59.953000   16.679000  30.39000
934   1   1   -61.265000   14.434000  26.239000
935   1   1   -61.254000   15.93000  25.714000
936   1   1   -61.264000   14.43000  23.626000
937   1   1   -61.255000   15.927000  24.147000
938   1   1   -59.995000   13.665000  25.716000
939   1   1   -59.995000   13.662000  24.151000
940   1   1   -59.97000   16.672000  26.232000
941   1   1   -59.972000   16.669000  23.624000
942   1   1   -61.259000   14.436000  27.806000
943   1   1   -61.244000   15.934000  28.326000
944   1   1   -59.987000   13.668000  28.325000
945   1   1   -59.964000   16.675000  27.797000
946   1   1   -63.804000   14.459000  22.022000
947   1   1   -63.778000   15.948000  21.513000
948   1   1   -62.524000   13.691000  21.549000
949   1   1   -62.507000   16.692000  22.043000
950   1   1   -63.774000   14.469000  30.447000
951   1   1   -63.778000   15.958000  29.938000
952   1   1   -62.518000   13.699000  29.913000
953   1   1   -62.484000   16.701000  30.407000
954   1   1   -63.824000   14.464000  26.249000
955   1   1   -63.813000   15.953000  25.712000
956   1   1   -63.821000   14.458000  23.601000
957   1   1   -63.815000   15.95000  24.13000
958   1   1   -62.55000   13.696000  25.72000
959   1   1   -62.549000   13.693000  24.144000
960   1   1   -62.524000   16.695000  26.236000
961   1   1   -62.522000   16.691000  23.616000
962   1   1   -63.82000   14.467000  27.83000
963   1   1   -63.8000   15.959000  28.359000
964   1   1   -62.538000   13.701000  28.34000
965   1   1   -62.517000   16.698000  27.812000
966   1   3   -65.027000   13.686000  21.43000
967   1   3   -65.024000   16.745000  21.99000
968   1   3   -65.036000   13.697000  29.973000
969   1   3   -64.985000   16.756000  30.534000
970   1   3   -65.07000   13.692000  25.697000
971   1   3   -65.07000   13.689000  24.139000
972   1   3   -65.043000   16.75000  26.267000
973   1   3   -65.046000   16.745000  23.554000
974   1   3   -65.064000   13.698000  28.41000
975   1   3   -65.037000   16.753000  27.825000
976   1   1   -40.774000   20.696000  21.326000
977   1   1   -39.522000   21.401000  21.895000
978   1   1   -40.756000   20.657000  29.894000
979   1   1   -39.524000   21.395000  30.463000
980   1   1   -40.75000   20.647000  25.604000
981   1   1   -40.754000   20.653000  24.041000
982   1   1   -39.507000   21.37000  26.185000
983   1   1   -39.509000   21.377000  23.461000
984   1   1   -40.748000   20.64000  28.328000
985   1   1   -39.507000   21.369000  27.747000
986   1   1   -43.311000   20.695000  21.347000
987   1   1   -42.04000   21.384000  21.913000
988   1   1   -43.293000   20.659000  29.874000
989   1   1   -42.031000   21.382000  30.385000
990   1   1   -43.291000   20.647000  25.61000
991   1   1   -43.295000   20.654000  24.053000
992   1   1   -42.021000   21.351000  26.167000
993   1   1   -42.03000   21.366000  23.501000
994   1   1   -43.289000   20.638000  28.316000
995   1   1   -42.02000   21.347000  27.755000
996   1   1   -45.848000   20.682000  21.36000
997   1   1   -44.58000   21.378000  21.928000
998   1   1   -45.827000   20.65000  29.88000
999   1   1   -44.562000   21.38000  30.384000
1000   1   1   -45.83000   20.636000  25.619000
1001   1   1   -45.835000   20.643000  24.063000
1002   1   1   -44.563000   21.348000  26.173000
1003   1   1   -44.571000   21.362000  23.512000
1004   1   1   -45.827000   20.628000  28.322000
1005   1   1   -44.562000   21.344000  27.755000
1006   1   1   -48.391000   20.65000  21.373000
1007   1   1   -47.124000   21.355000  21.939000
1008   1   1   -48.366000   20.624000  29.888000
1009   1   1   -47.102000   21.361000  30.392000
1010   1   1   -48.37000   20.608000  25.63000
1011   1   1   -48.375000   20.614000  24.074000
1012   1   1   -47.106000   21.329000  26.182000
1013   1   1   -47.115000   21.341000  23.522000
1014   1   1   -48.366000   20.602000  28.33000
1015   1   1   -47.105000   21.325000  27.763000
1016   1   1   -50.945000   20.572000  21.399000
1017   1   1   -49.68000   21.305000  21.954000
1018   1   1   -50.915000   20.552000  29.891000
1019   1   1   -49.657000   21.316000  30.396000
1020   1   1   -50.917000   20.538000  25.645000
1021   1   1   -50.921000   20.542000  24.093000
1022   1   1   -49.659000   21.284000  26.192000
1023   1   1   -49.668000   21.294000  23.537000
1024   1   1   -50.914000   20.532000  28.335000
1025   1   1   -49.657000   21.281000  27.773000
1026   1   1   -53.609000   18.908000  21.995000
1027   1   1   -53.557000   20.409000  21.495000
1028   1   1   -52.259000   21.194000  21.987000
1029   1   1   -53.623000   18.943000  30.495000
1030   1   1   -53.531000   20.414000  29.896000
1031   1   1   -52.239000   21.207000  30.39000
1032   1   1   -53.595000   18.91000  26.237000
1033   1   1   -53.531000   20.397000  25.68000
1034   1   1   -53.595000   18.908000  23.545000
1035   1   1   -53.533000   20.398000  24.103000
1036   1   1   -52.238000   21.181000  26.202000
1037   1   1   -52.246000   21.186000  23.565000
1038   1   1   -53.592000   18.912000  27.781000
1039   1   1   -53.529000   20.4000  28.318000
1040   1   1   -52.236000   21.18000  27.78000
1041   1   1   -56.087000   18.832000  22.025000
1042   1   1   -56.088000   20.36000  21.534000
1043   1   1   -54.813000   18.025000  21.493000
1044   1   1   -54.819000   21.145000  22.023000
1045   1   1   -56.074000   18.844000  30.366000
1046   1   1   -56.066000   20.369000  29.869000
1047   1   1   -54.778000   18.03000  29.903000
1048   1   1   -54.803000   21.161000  30.372000
1049   1   1   -56.066000   18.828000  26.213000
1050   1   1   -56.068000   20.356000  25.693000
1051   1   1   -56.072000   18.825000  23.607000
1052   1   1   -56.071000   20.354000  24.124000
1053   1   1   -54.777000   18.014000  25.686000
1054   1   1   -54.775000   18.01000  24.118000
1055   1   1   -54.8000   21.14000  26.209000
1056   1   1   -54.808000   21.141000  23.593000
1057   1   1   -56.064000   18.831000  27.795000
1058   1   1   -56.066000   20.362000  28.302000
1059   1   1   -54.772000   18.023000  28.336000
1060   1   1   -54.798000   21.142000  27.781000
1061   1   1   -58.659000   18.904000  22.051000
1062   1   1   -58.644000   20.396000  21.545000
1063   1   1   -57.399000   18.129000  21.544000
1064   1   1   -57.359000   21.132000  22.042000
1065   1   1   -58.641000   18.913000  30.377000
1066   1   1   -58.627000   20.404000  29.87000
1067   1   1   -57.379000   18.135000  29.877000
1068   1   1   -57.341000   21.14000  30.366000
1069   1   1   -58.651000   18.903000  26.223000
1070   1   1   -58.64000   20.397000  25.699000
1071   1   1   -58.655000   18.901000  23.617000
1072   1   1   -58.641000   20.396000  24.135000
1073   1   1   -57.38000   18.128000  25.701000
1074   1   1   -57.383000   18.127000  24.136000
1075   1   1   -57.348000   21.13000  26.214000
1076   1   1   -57.353000   21.129000  23.609000
1077   1   1   -58.648000   18.906000  27.788000
1078   1   1   -58.633000   20.401000  28.305000
1079   1   1   -57.378000   18.132000  28.312000
1080   1   1   -57.346000   21.133000  27.78000
1081   1   1   -61.209000   18.933000  22.052000
1082   1   1   -61.191000   20.425000  21.543000
1083   1   1   -59.945000   18.165000  21.553000
1084   1   1   -59.913000   21.165000  22.048000
1085   1   1   -61.19000   18.941000  30.39000
1086   1   1   -61.179000   20.432000  29.881000
1087   1   1   -59.93000   18.173000  29.882000
1088   1   1   -59.894000   21.172000  30.375000
1089   1   1   -61.219000   18.934000  26.229000
1090   1   1   -61.206000   20.428000  25.704000
1091   1   1   -61.218000   18.931000  23.618000
1092   1   1   -61.205000   20.426000  24.137000
1093   1   1   -59.947000   18.168000  25.708000
1094   1   1   -59.948000   18.166000  24.142000
1095   1   1   -59.916000   21.165000  26.221000
1096   1   1   -59.917000   21.163000  23.614000
1097   1   1   -61.213000   18.937000  27.796000
1098   1   1   -61.195000   20.431000  28.315000
1099   1   1   -59.939000   18.172000  28.315000
1100   1   1   -59.91000   21.167000  27.785000
1101   1   1   -63.761000   18.959000  22.013000
1102   1   1   -63.733000   20.447000  21.503000
1103   1   1   -62.482000   18.192000  21.54000
1104   1   1   -62.461000   21.19000  22.033000
1105   1   1   -63.731000   18.968000  30.438000
1106   1   1   -63.733000   20.455000  29.928000
1107   1   1   -62.475000   18.2000  29.904000
1108   1   1   -62.438000   21.196000  30.397000
1109   1   1   -63.782000   18.963000  26.239000
1110   1   1   -63.77000   20.451000  25.702000
1111   1   1   -63.779000   18.958000  23.591000
1112   1   1   -63.771000   20.449000  24.12000
1113   1   1   -62.509000   18.196000  25.711000
1114   1   1   -62.508000   18.194000  24.135000
1115   1   1   -62.48000   21.191000  26.227000
1116   1   1   -62.477000   21.188000  23.606000
1117   1   1   -63.778000   18.966000  27.821000
1118   1   1   -63.757000   20.456000  28.35000
1119   1   1   -62.496000   18.201000  28.331000
1120   1   1   -62.473000   21.194000  27.802000
1121   1   3   -64.986000   18.187000  21.421000
1122   1   3   -64.981000   21.243000  21.98000
1123   1   3   -64.995000   18.197000  29.964000
1124   1   3   -64.942000   21.25000  30.526000
1125   1   3   -65.029000   18.191000  25.688000
1126   1   3   -65.029000   18.188000  24.13000
1127   1   3   -65.002000   21.246000  26.258000
1128   1   3   -65.004000   21.241000  23.543000
1129   1   3   -65.023000   18.197000  28.401000
1130   1   3   -64.996000   21.248000  27.816000
1131   1   1   -38.245000   25.081000  21.424000
1132   1   1   -38.252000   23.602000  30.446000
1133   1   1   -38.216000   25.05000  29.874000
1134   1   1   -36.985000   25.807000  30.443000
1135   1   1   -38.233000   23.586000  26.186000
1136   1   1   -38.207000   25.047000  25.632000
1137   1   1   -38.208000   25.051000  24.05000
1138   1   1   -38.233000   23.586000  27.742000
1139   1   1   -38.209000   25.045000  28.291000
1140   1   1   -40.772000   23.601000  21.956000
1141   1   1   -40.78000   25.078000  21.464000
1142   1   1   -39.507000   22.875000  21.412000
1143   1   1   -39.505000   25.812000  21.965000
1144   1   1   -40.762000   23.588000  30.354000
1145   1   1   -40.759000   25.054000  29.834000
1146   1   1   -39.482000   22.841000  29.882000
1147   1   1   -39.494000   25.795000  30.348000
1148   1   1   -40.749000   23.569000  26.166000
1149   1   1   -40.753000   25.047000  25.641000
1150   1   1   -40.757000   23.582000  23.531000
1151   1   1   -40.757000   25.054000  24.072000
1152   1   1   -39.475000   22.831000  25.629000
1153   1   1   -39.476000   22.835000  24.041000
1154   1   1   -39.479000   25.786000  26.168000
1155   1   1   -39.487000   25.797000  23.539000
1156   1   1   -40.75000   23.568000  27.746000
1157   1   1   -40.754000   25.046000  28.267000
1158   1   1   -39.477000   22.831000  28.295000
1159   1   1   -39.479000   25.785000  27.744000
1160   1   1   -43.316000   23.595000  21.978000
1161   1   1   -43.32000   25.069000  21.482000
1162   1   1   -42.047000   22.872000  21.449000
1163   1   1   -42.046000   25.806000  21.988000
1164   1   1   -43.299000   23.583000  30.349000
1165   1   1   -43.3000   25.048000  29.833000
1166   1   1   -42.028000   22.845000  29.848000
1167   1   1   -42.029000   25.789000  30.339000
1168   1   1   -43.298000   23.565000  26.171000
1169   1   1   -43.302000   25.042000  25.649000
1170   1   1   -43.306000   23.579000  23.545000
1171   1   1   -43.307000   25.049000  24.082000
1172   1   1   -42.024000   22.829000  25.638000
1173   1   1   -42.028000   22.837000  24.058000
1174   1   1   -42.027000   25.784000  26.172000
1175   1   1   -42.035000   25.794000  23.555000
1176   1   1   -43.297000   23.564000  27.741000
1177   1   1   -43.299000   25.041000  28.266000
1178   1   1   -42.024000   22.829000  28.273000
1179   1   1   -42.026000   25.783000  27.738000
1180   1   1   -45.865000   23.577000  21.987000
1181   1   1   -45.869000   25.05000  21.491000
1182   1   1   -44.589000   22.863000  21.464000
1183   1   1   -44.594000   25.792000  21.998000
1184   1   1   -45.844000   23.569000  30.355000
1185   1   1   -45.848000   25.032000  29.839000
1186   1   1   -44.569000   22.84000  29.849000
1187   1   1   -44.574000   25.777000  30.343000
1188   1   1   -45.849000   23.55000  26.178000
1189   1   1   -45.854000   25.026000  25.656000
1190   1   1   -45.858000   23.563000  23.554000
1191   1   1   -45.859000   25.032000  24.09000
1192   1   1   -44.571000   22.823000  25.645000
1193   1   1   -44.576000   22.83000  24.068000
1194   1   1   -44.578000   25.773000  26.178000
1195   1   1   -44.586000   25.783000  23.564000
1196   1   1   -45.847000   23.55000  27.747000
1197   1   1   -45.849000   25.025000  28.272000
1198   1   1   -44.568000   22.823000  28.275000
1199   1   1   -44.576000   25.772000  27.743000
1200   1   1   -48.423000   23.54000  21.997000
1201   1   1   -48.425000   25.014000  21.5000
1202   1   1   -47.139000   22.838000  21.474000
1203   1   1   -47.148000   25.764000  22.005000
1204   1   1   -48.4000   23.536000  30.361000
1205   1   1   -48.402000   25.001000  29.847000
1206   1   1   -47.116000   22.819000  29.857000
1207   1   1   -47.126000   25.753000  30.35000
1208   1   1   -48.406000   23.517000  26.187000
1209   1   1   -48.41000   24.994000  25.664000
1210   1   1   -48.415000   23.528000  23.563000
1211   1   1   -48.415000   24.999000  24.098000
1212   1   1   -47.122000   22.801000  25.653000
1213   1   1   -47.127000   22.808000  24.077000
1214   1   1   -47.134000   25.749000  26.186000
1215   1   1   -47.142000   25.757000  23.572000
1216   1   1   -48.403000   23.517000  27.756000
1217   1   1   -48.404000   24.993000  28.28000
1218   1   1   -47.117000   22.802000  28.282000
1219   1   1   -47.131000   25.748000  27.751000
1220   1   1   -50.989000   23.476000  22.01000
1221   1   1   -50.985000   24.959000  21.512000
1222   1   1   -49.699000   22.787000  21.487000
1223   1   1   -49.706000   25.722000  22.014000
1224   1   1   -50.965000   23.475000  30.364000
1225   1   1   -50.961000   24.952000  29.853000
1226   1   1   -49.673000   22.774000  29.863000
1227   1   1   -49.684000   25.714000  30.355000
1228   1   1   -50.97000   23.459000  26.195000
1229   1   1   -50.969000   24.945000  25.673000
1230   1   1   -50.979000   23.467000  23.577000
1231   1   1   -50.973000   24.949000  24.107000
1232   1   1   -49.679000   22.756000  25.664000
1233   1   1   -49.684000   22.762000  24.088000
1234   1   1   -49.692000   25.711000  26.193000
1235   1   1   -49.7000   25.717000  23.58000
1236   1   1   -50.967000   23.459000  27.764000
1237   1   1   -50.963000   24.946000  28.286000
1238   1   1   -49.674000   22.758000  28.29000
1239   1   1   -49.688000   25.71000  27.758000
1240   1   1   -53.543000   23.418000  22.025000
1241   1   1   -53.535000   24.911000  21.524000
1242   1   1   -52.269000   22.698000  21.511000
1243   1   1   -52.26000   25.677000  22.023000
1244   1   1   -53.52000   23.422000  30.365000
1245   1   1   -53.513000   24.91000  29.859000
1246   1   1   -52.241000   22.694000  29.867000
1247   1   1   -52.238000   25.673000  30.361000
1248   1   1   -53.524000   23.41000  26.204000
1249   1   1   -53.52000   24.905000  25.682000
1250   1   1   -53.533000   23.413000  23.591000
1251   1   1   -53.524000   24.906000  24.117000
1252   1   1   -52.246000   22.679000  25.677000
1253   1   1   -52.251000   22.682000  24.103000
1254   1   1   -52.245000   25.671000  26.201000
1255   1   1   -52.253000   25.674000  23.59000
1256   1   1   -53.521000   23.411000  27.77000
1257   1   1   -53.515000   24.905000  28.292000
1258   1   1   -52.241000   22.681000  28.294000
1259   1   1   -52.242000   25.67000  27.765000
1260   1   1   -56.084000   23.394000  22.036000
1261   1   1   -56.079000   24.89000  21.533000
1262   1   1   -54.817000   22.648000  21.526000
1263   1   1   -54.805000   25.648000  22.032000
1264   1   1   -56.066000   23.399000  30.365000
1265   1   1   -56.061000   24.892000  29.862000
1266   1   1   -54.793000   22.653000  29.862000
1267   1   1   -54.786000   25.647000  30.364000
1268   1   1   -56.073000   23.392000  26.21000
1269   1   1   -56.071000   24.889000  25.688000
1270   1   1   -56.079000   23.392000  23.602000
1271   1   1   -56.073000   24.889000  24.124000
1272   1   1   -54.799000   22.641000  25.685000
1273   1   1   -54.803000   22.642000  24.119000
1274   1   1   -54.794000   25.646000  26.207000
1275   1   1   -54.8000   25.647000  23.598000
1276   1   1   -56.07000   23.393000  27.774000
1277   1   1   -56.065000   24.89000  28.296000
1278   1   1   -54.795000   22.645000  28.296000
1279   1   1   -54.79000   25.646000  27.771000
1280   1   1   -58.627000   23.399000  22.043000
1281   1   1   -58.623000   24.895000  21.539000
1282   1   1   -57.357000   22.635000  21.539000
1283   1   1   -57.348000   25.642000  22.039000
1284   1   1   -58.61000   23.404000  30.369000
1285   1   1   -58.608000   24.898000  29.866000
1286   1   1   -57.339000   22.641000  29.864000
1287   1   1   -57.331000   25.643000  30.367000
1288   1   1   -58.625000   23.4000  26.215000
1289   1   1   -58.623000   24.897000  25.694000
1290   1   1   -58.627000   23.398000  23.61000
1291   1   1   -58.624000   24.896000  24.13000
1292   1   1   -57.349000   22.635000  25.693000
1293   1   1   -57.351000   22.634000  24.128000
1294   1   1   -57.343000   25.643000  26.212000
1295   1   1   -57.347000   25.642000  23.605000
1296   1   1   -58.62000   23.401000  27.779000
1297   1   1   -58.616000   24.898000  28.3000
1298   1   1   -57.343000   22.638000  28.298000
1299   1   1   -57.339000   25.643000  27.776000
1300   1   1   -61.173000   23.427000  22.043000
1301   1   1   -61.164000   24.919000  21.536000
1302   1   1   -59.904000   22.659000  21.543000
1303   1   1   -59.891000   25.658000  22.042000
1304   1   1   -61.154000   23.43000  30.382000
1305   1   1   -61.155000   24.921000  29.875000
1306   1   1   -59.89000   22.664000  29.871000
1307   1   1   -59.876000   25.659000  30.372000
1308   1   1   -61.186000   23.427000  26.221000
1309   1   1   -61.182000   24.921000  25.697000
1310   1   1   -61.183000   23.425000  23.609000
1311   1   1   -61.181000   24.919000  24.13000
1312   1   1   -59.911000   22.661000  25.698000
1313   1   1   -59.911000   22.659000  24.134000
1314   1   1   -59.898000   25.659000  26.216000
1315   1   1   -59.897000   25.658000  23.609000
1316   1   1   -61.179000   23.429000  27.787000
1317   1   1   -61.171000   24.922000  28.309000
1318   1   1   -59.902000   22.663000  28.305000
1319   1   1   -59.892000   25.659000  27.781000
1320   1   1   -63.725000   23.455000  22.004000
1321   1   1   -63.705000   24.943000  21.495000
1322   1   1   -62.444000   22.689000  21.531000
1323   1   1   -62.436000   25.683000  22.027000
1324   1   1   -63.696000   23.46000  30.43000
1325   1   1   -63.708000   24.946000  29.921000
1326   1   1   -62.438000   22.693000  29.895000
1327   1   1   -62.415000   25.684000  30.391000
1328   1   1   -63.749000   23.457000  26.231000
1329   1   1   -63.744000   24.945000  25.695000
1330   1   1   -63.744000   23.453000  23.583000
1331   1   1   -63.744000   24.943000  24.113000
1332   1   1   -62.472000   22.691000  25.702000
1333   1   1   -62.471000   22.689000  24.126000
1334   1   1   -62.457000   25.685000  26.221000
1335   1   1   -62.453000   25.682000  23.6000
1336   1   1   -63.744000   23.459000  27.812000
1337   1   1   -63.731000   24.948000  28.343000
1338   1   1   -62.46000   22.694000  28.322000
1339   1   1   -62.45000   25.686000  27.796000
1340   1   3   -64.947000   22.683000  21.41000
1341   1   3   -64.955000   25.737000  21.973000
1342   1   3   -64.958000   22.689000  29.956000
1343   1   3   -64.919000   25.739000  30.519000
1344   1   3   -64.993000   22.685000  25.678000
1345   1   3   -64.992000   22.683000  24.12000
1346   1   3   -64.977000   25.74000  26.251000
1347   1   3   -64.979000   25.737000  23.537000
1348   1   3   -64.986000   22.69000  28.393000
1349   1   3   -64.972000   25.741000  27.809000
1350   1   1   -35.71000   28.02000  21.932000
1351   1   1   -35.688000   29.483000  21.428000
1352   1   1   -34.417000   30.21000  21.931000
1353   1   1   -35.71000   28.005000  30.444000
1354   1   1   -35.659000   29.454000  29.878000
1355   1   1   -34.419000   30.192000  30.451000
1356   1   1   -35.686000   28.007000  26.189000
1357   1   1   -35.647000   29.467000  25.637000
1358   1   1   -35.687000   28.009000  23.49000
1359   1   1   -35.648000   29.468000  24.055000
1360   1   1   -34.393000   30.206000  26.192000
1361   1   1   -34.394000   30.206000  23.489000
1362   1   1   -35.687000   28.002000  27.743000
1363   1   1   -35.65000   29.459000  28.295000
1364   1   1   -34.395000   30.2000  27.748000
1365   1   1   -38.23000   28.02000  21.969000
1366   1   1   -38.224000   29.494000  21.471000
1367   1   1   -36.973000   27.286000  21.427000
1368   1   1   -36.943000   30.224000  21.968000
1369   1   1   -38.219000   28.002000  30.349000
1370   1   1   -38.202000   29.472000  29.837000
1371   1   1   -36.943000   27.255000  29.874000
1372   1   1   -36.931000   30.204000  30.354000
1373   1   1   -38.202000   28.002000  26.17000
1374   1   1   -38.194000   29.482000  25.647000
1375   1   1   -38.211000   28.01000  23.543000
1376   1   1   -38.199000   29.485000  24.078000
1377   1   1   -36.933000   27.259000  25.635000
1378   1   1   -36.934000   27.262000  24.054000
1379   1   1   -36.914000   30.215000  26.173000
1380   1   1   -36.923000   30.221000  23.543000
1381   1   1   -38.203000   27.999000  27.746000
1382   1   1   -38.196000   29.475000  28.27000
1383   1   1   -36.936000   27.255000  28.292000
1384   1   1   -36.915000   30.21000  27.751000
1385   1   1   -40.77000   28.018000  21.992000
1386   1   1   -40.765000   29.491000  21.49000
1387   1   1   -39.507000   27.287000  21.469000
1388   1   1   -39.487000   30.229000  21.992000
1389   1   1   -40.754000   27.999000  30.339000
1390   1   1   -40.745000   29.471000  29.835000
1391   1   1   -39.485000   27.263000  29.833000
1392   1   1   -39.47000   30.208000  30.344000
1393   1   1   -40.75000   28.004000  26.174000
1394   1   1   -40.746000   29.484000  25.654000
1395   1   1   -40.758000   28.012000  23.559000
1396   1   1   -40.75000   29.487000  24.089000
1397   1   1   -39.478000   27.265000  25.644000
1398   1   1   -39.483000   27.27000  24.076000
1399   1   1   -39.466000   30.223000  26.177000
1400   1   1   -39.475000   30.229000  23.56000
1401   1   1   -40.75000   28.001000  27.74000
1402   1   1   -40.744000   29.476000  28.268000
1403   1   1   -39.479000   27.262000  28.267000
1404   1   1   -39.466000   30.218000  27.744000
1405   1   1   -43.316000   28.007000  22.002000
1406   1   1   -43.312000   29.479000  21.498000
1407   1   1   -42.046000   27.28000  21.488000
1408   1   1   -42.035000   30.222000  22.002000
1409   1   1   -43.297000   27.989000  30.343000
1410   1   1   -43.292000   29.462000  29.84000
1411   1   1   -42.025000   27.259000  29.832000
1412   1   1   -42.016000   30.201000  30.347000
1413   1   1   -43.301000   27.997000  26.18000
1414   1   1   -43.298000   29.476000  25.66000
1415   1   1   -43.309000   28.003000  23.568000
1416   1   1   -43.302000   29.479000  24.096000
1417   1   1   -42.026000   27.263000  25.651000
1418   1   1   -42.031000   27.268000  24.087000
1419   1   1   -42.02000   30.22000  26.183000
1420   1   1   -42.027000   30.225000  23.569000
1421   1   1   -43.3000   27.993000  27.744000
1422   1   1   -43.294000   29.468000  28.273000
1423   1   1   -42.024000   27.259000  28.265000
1424   1   1   -42.018000   30.215000  27.749000
1425   1   1   -45.868000   27.986000  22.008000
1426   1   1   -45.862000   29.458000  21.504000
1427   1   1   -44.592000   27.264000  21.496000
1428   1   1   -44.586000   30.206000  22.007000
1429   1   1   -45.847000   27.97000  30.349000
1430   1   1   -45.843000   29.443000  29.847000
1431   1   1   -44.572000   27.247000  29.837000
1432   1   1   -44.566000   30.187000  30.353000
1433   1   1   -45.855000   27.978000  26.187000
1434   1   1   -45.851000   29.458000  25.667000
1435   1   1   -45.862000   27.984000  23.574000
1436   1   1   -45.855000   29.46000  24.102000
1437   1   1   -44.578000   27.251000  25.658000
1438   1   1   -44.583000   27.255000  24.094000
1439   1   1   -44.574000   30.207000  26.189000
1440   1   1   -44.581000   30.21000  23.575000
1441   1   1   -45.852000   27.975000  27.751000
1442   1   1   -45.846000   29.449000  28.28000
1443   1   1   -44.574000   27.246000  28.271000
1444   1   1   -44.571000   30.201000  27.755000
1445   1   1   -48.422000   27.955000  22.015000
1446   1   1   -48.414000   29.429000  21.51000
1447   1   1   -47.144000   27.237000  21.503000
1448   1   1   -47.138000   30.181000  22.013000
1449   1   1   -48.401000   27.942000  30.355000
1450   1   1   -48.395000   29.417000  29.853000
1451   1   1   -47.124000   27.223000  29.844000
1452   1   1   -47.119000   30.164000  30.36000
1453   1   1   -48.41000   27.95000  26.194000
1454   1   1   -48.404000   29.431000  25.673000
1455   1   1   -48.417000   27.954000  23.581000
1456   1   1   -48.408000   29.432000  24.108000
1457   1   1   -47.132000   27.227000  25.665000
1458   1   1   -47.136000   27.231000  24.101000
1459   1   1   -47.128000   30.184000  26.196000
1460   1   1   -47.134000   30.187000  23.58000
1461   1   1   -48.407000   27.947000  27.758000
1462   1   1   -48.399000   29.423000  28.286000
1463   1   1   -47.126000   27.223000  28.278000
1464   1   1   -47.125000   30.179000  27.761000
1465   1   1   -50.974000   27.92000  22.022000
1466   1   1   -50.964000   29.397000  21.516000
1467   1   1   -49.699000   27.2000  21.511000
1468   1   1   -49.689000   30.151000  22.019000
1469   1   1   -50.954000   27.911000  30.361000
1470   1   1   -50.946000   29.389000  29.859000
1471   1   1   -49.678000   27.189000  29.851000
1472   1   1   -49.67000   30.138000  30.366000
1473   1   1   -50.963000   27.918000  26.2000
1474   1   1   -50.955000   29.401000  25.679000
1475   1   1   -50.969000   27.92000  23.588000
1476   1   1   -50.958000   29.402000  24.114000
1477   1   1   -49.687000   27.193000  25.672000
1478   1   1   -49.691000   27.195000  24.108000
1479   1   1   -49.68000   30.157000  26.201000
1480   1   1   -49.685000   30.158000  23.586000
1481   1   1   -50.959000   27.915000  27.764000
1482   1   1   -50.95000   29.395000  28.292000
1483   1   1   -49.681000   27.189000  28.284000
1484   1   1   -49.676000   30.152000  27.767000
1485   1   1   -53.521000   27.891000  22.029000
1486   1   1   -53.511000   29.371000  21.522000
1487   1   1   -52.25000   27.161000  21.52000
1488   1   1   -52.236000   30.124000  22.024000
1489   1   1   -53.503000   27.885000  30.366000
1490   1   1   -53.495000   29.367000  29.864000
1491   1   1   -52.23000   27.155000  29.857000
1492   1   1   -52.219000   30.114000  30.371000
1493   1   1   -53.512000   27.893000  26.206000
1494   1   1   -53.504000   29.378000  25.684000
1495   1   1   -53.517000   27.893000  23.595000
1496   1   1   -53.506000   29.378000  24.119000
1497   1   1   -52.239000   27.158000  25.679000
1498   1   1   -52.242000   27.16000  24.115000
1499   1   1   -52.228000   30.133000  26.207000
1500   1   1   -52.233000   30.132000  23.592000
1501   1   1   -53.508000   27.89000  27.77000
1502   1   1   -53.498000   29.372000  28.297000
1503   1   1   -52.233000   27.156000  28.29000
1504   1   1   -52.225000   30.128000  27.773000
1505   1   1   -56.065000   27.878000  22.035000
1506   1   1   -56.055000   29.36000  21.528000
1507   1   1   -54.796000   27.135000  21.528000
1508   1   1   -54.78000   30.107000  22.03000
1509   1   1   -56.05000   27.875000  30.369000
1510   1   1   -56.042000   29.358000  29.867000
1511   1   1   -54.779000   27.133000  29.862000
1512   1   1   -54.765000   30.1000  30.374000
1513   1   1   -56.06000   27.882000  26.211000
1514   1   1   -56.052000   29.369000  25.689000
1515   1   1   -56.063000   27.881000  23.601000
1516   1   1   -56.053000   29.368000  24.125000
1517   1   1   -54.788000   27.137000  25.686000
1518   1   1   -54.791000   27.137000  24.122000
1519   1   1   -54.774000   30.117000  26.211000
1520   1   1   -54.778000   30.116000  23.597000
1521   1   1   -56.056000   27.88000  27.775000
1522   1   1   -56.046000   29.364000  28.301000
1523   1   1   -54.782000   27.134000  28.295000
1524   1   1   -54.771000   30.113000  27.777000
1525   1   1   -58.609000   27.885000  22.04000
1526   1   1   -58.599000   29.368000  21.534000
1527   1   1   -57.341000   27.131000  21.534000
1528   1   1   -57.322000   30.106000  22.035000
1529   1   1   -58.595000   27.884000  30.372000
1530   1   1   -58.589000   29.368000  29.87000
1531   1   1   -57.327000   27.131000  29.865000
1532   1   1   -57.31000   30.101000  30.377000
1533   1   1   -58.611000   27.89000  26.215000
1534   1   1   -58.603000   29.379000  25.693000
1535   1   1   -58.612000   27.889000  23.607000
1536   1   1   -58.603000   29.377000  24.129000
1537   1   1   -57.339000   27.135000  25.691000
1538   1   1   -57.34000   27.134000  24.127000
1539   1   1   -57.322000   30.118000  26.215000
1540   1   1   -57.323000   30.115000  23.602000
1541   1   1   -58.606000   27.889000  27.778000
1542   1   1   -58.596000   29.374000  28.303000
1543   1   1   -57.332000   27.133000  28.299000
1544   1   1   -57.318000   30.114000  27.78000
1545   1   1   -61.152000   27.913000  22.04000
1546   1   1   -61.142000   29.397000  21.531000
1547   1   1   -59.885000   27.148000  21.538000
1548   1   1   -59.865000   30.126000  22.037000
1549   1   1   -61.138000   27.911000  30.381000
1550   1   1   -61.136000   29.397000  29.876000
1551   1   1   -59.874000   27.148000  29.87000
1552   1   1   -59.854000   30.121000  30.38000
1553   1   1   -61.168000   27.917000  26.218000
1554   1   1   -61.161000   29.408000  25.695000
1555   1   1   -61.164000   27.915000  23.606000
1556   1   1   -61.159000   29.406000  24.128000
1557   1   1   -59.894000   27.153000  25.695000
1558   1   1   -59.893000   27.151000  24.13000
1559   1   1   -59.874000   30.137000  26.218000
1560   1   1   -59.873000   30.134000  23.605000
1561   1   1   -61.161000   27.916000  27.785000
1562   1   1   -61.151000   29.404000  28.31000
1563   1   1   -59.885000   27.151000  28.303000
1564   1   1   -59.869000   30.134000  27.784000
1565   1   1   -63.704000   27.949000  22.0000
1566   1   1   -63.684000   29.436000  21.491000
1567   1   1   -62.422000   27.181000  21.526000
1568   1   1   -62.411000   30.165000  22.022000
1569   1   1   -63.68000   27.948000  30.426000
1570   1   1   -63.692000   29.435000  29.919000
1571   1   1   -62.42000   27.181000  29.891000
1572   1   1   -62.396000   30.16000  30.395000
1573   1   1   -63.729000   27.954000  26.227000
1574   1   1   -63.724000   29.445000  25.692000
1575   1   1   -63.723000   27.95000  23.579000
1576   1   1   -63.723000   29.442000  24.11000
1577   1   1   -62.453000   27.185000  25.697000
1578   1   1   -62.451000   27.183000  24.122000
1579   1   1   -62.434000   30.176000  26.22000
1580   1   1   -62.428000   30.171000  23.596000
1581   1   1   -63.725000   27.953000  27.808000
1582   1   1   -63.713000   29.443000  28.341000
1583   1   1   -62.441000   27.185000  28.318000
1584   1   1   -62.428000   30.173000  27.797000
1585   1   3   -64.924000   27.179000  21.405000
1586   1   3   -64.931000   30.241000  21.969000
1587   1   3   -64.939000   27.179000  29.95000
1588   1   3   -64.903000   30.235000  30.516000
1589   1   3   -64.972000   27.182000  25.673000
1590   1   3   -64.97000   27.18000  24.115000
1591   1   3   -64.952000   30.253000  26.248000
1592   1   3   -64.953000   30.247000  23.533000
1593   1   3   -64.966000   27.183000  28.387000
1594   1   3   -64.948000   30.25000  27.807000
1595   1   1   -33.104000   32.402000  21.901000
1596   1   3   -33.101000   33.846000  21.326000
1597   1   1   -33.102000   32.372000  30.474000
1598   1   3   -33.063000   33.827000  29.934000
1599   1   1   -33.079000   32.401000  26.198000
1600   1   3   -33.057000   33.849000  25.62000
1601   1   1   -33.081000   32.405000  23.47000
1602   1   3   -33.061000   33.854000  24.05000
1603   1   1   -33.079000   32.395000  27.765000
1604   1   3   -33.052000   33.84000  28.36000
1605   1   1   -35.642000   32.423000  21.952000
1606   1   3   -35.633000   33.894000  21.43000
1607   1   1   -34.385000   31.67000  21.417000
1608   1   3   -34.33000   34.6000  21.911000
1609   1   1   -35.629000   32.398000  30.374000
1610   1   3   -35.604000   33.887000  29.902000
1611   1   1   -34.353000   31.644000  29.894000
1612   1   3   -34.317000   34.566000  30.482000
1613   1   1   -35.611000   32.423000  26.177000
1614   1   3   -35.595000   33.905000  25.649000
1615   1   1   -35.622000   32.427000  23.535000
1616   1   3   -35.601000   33.913000  24.058000
1617   1   1   -34.342000   31.666000  25.638000
1618   1   1   -34.343000   31.668000  24.048000
1619   1   3   -34.298000   34.593000  26.207000
1620   1   3   -34.309000   34.607000  23.481000
1621   1   1   -35.611000   32.417000  27.767000
1622   1   3   -35.596000   33.896000  28.316000
1623   1   1   -34.344000   31.655000  28.307000
1624   1   3   -34.297000   34.588000  27.774000
1625   1   1   -38.196000   32.436000  21.979000
1626   1   3   -38.187000   33.903000  21.453000
1627   1   1   -36.931000   31.695000  21.463000
1628   1   3   -36.9000   34.621000  21.953000
1629   1   1   -38.178000   32.41000  30.361000
1630   1   3   -38.165000   33.897000  29.895000
1631   1   1   -36.907000   31.676000  29.848000
1632   1   3   -36.881000   34.585000  30.465000
1633   1   1   -38.173000   32.439000  26.182000
1634   1   3   -38.163000   33.919000  25.657000
1635   1   1   -38.183000   32.443000  23.554000
1636   1   3   -38.17000   33.926000  24.075000
1637   1   1   -36.899000   31.695000  25.649000
1638   1   1   -36.905000   31.698000  24.075000
1639   1   3   -36.873000   34.617000  26.21000
1640   1   3   -36.884000   34.632000  23.511000
1641   1   1   -38.173000   32.434000  27.76000
1642   1   3   -38.162000   33.908000  28.312000
1643   1   1   -36.901000   31.685000  28.282000
1644   1   3   -36.873000   34.613000  27.766000
1645   1   1   -40.75000   32.434000  21.989000
1646   1   3   -40.745000   33.9000  21.46000
1647   1   1   -39.478000   31.699000  21.483000
1648   1   3   -39.463000   34.624000  21.963000
1649   1   1   -40.73000   32.408000  30.364000
1650   1   3   -40.725000   33.896000  29.899000
1651   1   1   -39.457000   31.682000  29.845000
1652   1   3   -39.443000   34.588000  30.466000
1653   1   1   -40.734000   32.442000  26.188000
1654   1   3   -40.73000   33.922000  25.663000
1655   1   1   -40.742000   32.445000  23.563000
1656   1   3   -40.735000   33.928000  24.082000
1657   1   1   -39.458000   31.704000  25.656000
1658   1   1   -39.463000   31.707000  24.087000
1659   1   3   -39.444000   34.626000  26.215000
1660   1   3   -39.454000   34.639000  23.521000
1661   1   1   -40.732000   32.436000  27.764000
1662   1   3   -40.726000   33.91000  28.317000
1663   1   1   -39.456000   31.692000  28.279000
1664   1   3   -39.442000   34.621000  27.77000
1665   1   1   -43.304000   32.423000  21.994000
1666   1   3   -43.303000   33.888000  21.464000
1667   1   1   -42.029000   31.691000  21.49000
1668   1   3   -42.025000   34.618000  21.968000
1669   1   1   -43.285000   32.398000  30.371000
1670   1   3   -43.284000   33.886000  29.906000
1671   1   1   -42.009000   31.676000  29.85000
1672   1   3   -42.004000   34.582000  30.473000
1673   1   1   -43.293000   32.433000  26.194000
1674   1   3   -43.293000   33.913000  25.668000
1675   1   1   -43.3000   32.436000  23.568000
1676   1   3   -43.297000   33.919000  24.087000
1677   1   1   -42.015000   31.7000  25.663000
1678   1   1   -42.02000   31.703000  24.094000
1679   1   3   -42.011000   34.624000  26.221000
1680   1   3   -42.019000   34.636000  23.526000
1681   1   1   -43.29000   32.427000  27.77000
1682   1   3   -43.287000   33.9000  28.323000
1683   1   1   -42.011000   31.688000  28.284000
1684   1   3   -42.009000   34.618000  27.776000
1685   1   1   -45.858000   32.403000  21.999000
1686   1   3   -45.859000   33.868000  21.468000
1687   1   1   -44.581000   31.675000  21.495000
1688   1   3   -44.584000   34.602000  21.971000
1689   1   1   -45.839000   32.38000  30.377000
1690   1   3   -45.84000   33.869000  29.912000
1691   1   1   -44.562000   31.662000  29.857000
1692   1   3   -44.564000   34.568000  30.48000
1693   1   1   -45.849000   32.416000  26.2000
1694   1   3   -45.851000   33.895000  25.673000
1695   1   1   -45.855000   32.417000  23.573000
1696   1   3   -45.854000   33.9000  24.092000
1697   1   1   -44.571000   31.687000  25.668000
1698   1   1   -44.575000   31.689000  24.1000
1699   1   3   -44.574000   34.611000  26.227000
1700   1   3   -44.581000   34.622000  23.53000
1701   1   1   -45.845000   32.409000  27.776000
1702   1   3   -45.844000   33.883000  28.329000
1703   1   1   -44.566000   31.674000  28.291000
1704   1   3   -44.57000   34.605000  27.782000
1705   1   1   -48.41000   32.377000  22.003000
1706   1   3   -48.411000   33.843000  21.471000
1707   1   1   -47.133000   31.65000  21.5000
1708   1   3   -47.14000   34.58000  21.975000
1709   1   1   -48.391000   32.357000  30.383000
1710   1   3   -48.393000   33.846000  29.918000
1711   1   1   -47.115000   31.641000  29.863000
1712   1   3   -47.119000   34.549000  30.486000
1713   1   1   -48.401000   32.392000  26.205000
1714   1   3   -48.403000   33.872000  25.678000
1715   1   1   -48.407000   32.392000  23.578000
1716   1   3   -48.407000   33.876000  24.096000
1717   1   1   -47.125000   31.665000  25.674000
1718   1   1   -47.128000   31.666000  24.105000
1719   1   3   -47.13000   34.591000  26.232000
1720   1   3   -47.137000   34.601000  23.534000
1721   1   1   -48.398000   32.386000  27.782000
1722   1   3   -48.397000   33.86000  28.335000
1723   1   1   -47.119000   31.653000  28.297000
1724   1   3   -47.127000   34.585000  27.787000
1725   1   1   -50.956000   32.351000  22.008000
1726   1   3   -50.956000   33.817000  21.474000
1727   1   1   -49.683000   31.622000  21.505000
1728   1   3   -49.688000   34.555000  21.978000
1729   1   1   -50.939000   32.334000  30.388000
1730   1   3   -50.939000   33.823000  29.922000
1731   1   1   -49.666000   31.615000  29.869000
1732   1   3   -49.669000   34.527000  30.491000
1733   1   1   -50.949000   32.368000  26.21000
1734   1   3   -50.949000   33.848000  25.682000
1735   1   1   -50.954000   32.367000  23.582000
1736   1   3   -50.952000   33.851000  24.1000
1737   1   1   -49.675000   31.639000  25.679000
1738   1   1   -49.678000   31.639000  24.11000
1739   1   3   -49.68000   34.568000  26.236000
1740   1   3   -49.685000   34.576000  23.537000
1741   1   1   -50.946000   32.362000  27.786000
1742   1   3   -50.943000   33.837000  28.339000
1743   1   1   -49.669000   31.627000  28.302000
1744   1   3   -49.676000   34.562000  27.792000
1745   1   1   -53.498000   32.33000  22.012000
1746   1   3   -53.494000   33.797000  21.478000
1747   1   1   -52.228000   31.596000  21.509000
1748   1   3   -52.228000   34.533000  21.982000
1749   1   1   -53.483000   32.317000  30.393000
1750   1   3   -53.48000   33.806000  29.926000
1751   1   1   -52.213000   31.593000  29.874000
1752   1   3   -52.211000   34.508000  30.495000
1753   1   1   -53.493000   32.349000  26.214000
1754   1   3   -53.489000   33.829000  25.685000
1755   1   1   -53.497000   32.347000  23.586000
1756   1   3   -53.492000   33.832000  24.104000
1757   1   1   -52.222000   31.615000  25.684000
1758   1   1   -52.224000   31.615000  24.115000
1759   1   3   -52.222000   34.548000  26.24000
1760   1   3   -52.226000   34.555000  23.541000
1761   1   1   -53.489000   32.344000  27.79000
1762   1   3   -53.484000   33.819000  28.343000
1763   1   1   -52.216000   31.605000  28.307000
1764   1   3   -52.218000   34.542000  27.796000
1765   1   1   -56.037000   32.323000  22.016000
1766   1   3   -56.027000   33.789000  21.481000
1767   1   1   -54.77000   31.58000  21.514000
1768   1   3   -54.761000   34.52000  21.985000
1769   1   1   -56.024000   32.312000  30.395000
1770   1   3   -56.016000   33.801000  29.928000
1771   1   1   -54.757000   31.58000  29.877000
1772   1   3   -54.747000   34.497000  30.497000
1773   1   1   -56.034000   32.343000  26.217000
1774   1   3   -56.026000   33.823000  25.688000
1775   1   1   -56.037000   32.34000  23.59000
1776   1   3   -56.027000   33.825000  24.108000
1777   1   1   -54.766000   31.601000  25.688000
1778   1   1   -54.768000   31.6000  24.119000
1779   1   3   -54.757000   34.536000  26.243000
1780   1   3   -54.76000   34.542000  23.544000
1781   1   1   -56.031000   32.338000  27.793000
1782   1   3   -56.021000   33.814000  28.345000
1783   1   1   -54.761000   31.591000  28.311000
1784   1   3   -54.754000   34.531000  27.798000
1785   1   1   -58.573000   32.332000  22.02000
1786   1   3   -58.556000   33.799000  21.484000
1787   1   1   -57.31000   31.58000  21.519000
1788   1   3   -57.288000   34.521000  21.989000
1789   1   1   -58.563000   32.323000  30.397000
1790   1   3   -58.548000   33.812000  29.928000
1791   1   1   -57.3000   31.582000  29.879000
1792   1   3   -57.276000   34.501000  30.498000
1793   1   1   -58.578000   32.353000  26.22000
1794   1   3   -58.563000   33.833000  25.691000
1795   1   1   -58.577000   32.349000  23.594000
1796   1   3   -58.562000   33.835000  24.11000
1797   1   1   -57.311000   31.602000  25.692000
1798   1   1   -57.311000   31.6000  24.123000
1799   1   3   -57.289000   34.537000  26.245000
1800   1   3   -57.29000   34.543000  23.547000
1801   1   1   -58.573000   32.348000  27.796000
1802   1   3   -58.556000   33.825000  28.346000
1803   1   1   -57.305000   31.593000  28.313000
1804   1   3   -57.286000   34.533000  27.8000
1805   1   1   -61.11000   32.366000  22.018000
1806   1   3   -61.08000   33.83000  21.479000
1807   1   1   -59.85000   31.6000  21.521000
1808   1   3   -59.811000   34.541000  21.99000
1809   1   1   -61.1000   32.357000  30.405000
1810   1   3   -61.08000   33.844000  29.933000
1811   1   1   -59.843000   31.603000  29.883000
1812   1   3   -59.801000   34.523000  30.499000
1813   1   1   -61.128000   32.386000  26.222000
1814   1   3   -61.104000   33.864000  25.691000
1815   1   1   -61.123000   32.382000  23.592000
1816   1   3   -61.101000   33.866000  24.109000
1817   1   1   -59.862000   31.622000  25.694000
1818   1   1   -59.86000   31.62000  24.125000
1819   1   3   -59.823000   34.556000  26.246000
1820   1   3   -59.819000   34.562000  23.549000
1821   1   1   -61.122000   32.382000  27.801000
1822   1   3   -61.094000   33.856000  28.352000
1823   1   1   -59.854000   31.614000  28.316000
1824   1   3   -59.818000   34.553000  27.802000
1825   1   1   -63.663000   32.437000  21.978000
1826   1   3   -63.613000   33.913000  21.436000
1827   1   1   -62.389000   31.651000  21.511000
1828   1   3   -62.329000   34.588000  21.972000
1829   1   1   -63.644000   32.426000  30.446000
1830   1   3   -63.633000   33.927000  29.982000
1831   1   1   -62.391000   31.653000  29.902000
1832   1   3   -62.32000   34.572000  30.513000
1833   1   1   -63.692000   32.459000  26.228000
1834   1   3   -63.665000   33.951000  25.687000
1835   1   1   -63.684000   32.452000  23.564000
1836   1   3   -63.665000   33.95000  24.085000
1837   1   1   -62.421000   31.674000  25.696000
1838   1   1   -62.418000   31.671000  24.115000
1839   1   3   -62.358000   34.602000  26.248000
1840   1   3   -62.351000   34.607000  23.537000
1841   1   1   -63.688000   32.455000  27.823000
1842   1   3   -63.654000   33.943000  28.383000
1843   1   1   -62.411000   31.667000  28.328000
1844   1   3   -62.352000   34.599000  27.814000
1845   1   3   -64.894000   31.681000  21.394000
1846   1   3   -64.824000   34.762000  21.906000
1847   1   3   -64.911000   31.682000  29.956000
1848   1   3   -64.812000   34.729000  30.662000
1849   1   3   -64.937000   31.699000  25.67000
1850   1   3   -64.935000   31.696000  24.109000
1851   1   3   -64.858000   34.788000  26.278000
1852   1   3   -64.864000   34.779000  23.459000
1853   1   3   -64.935000   31.694000  28.393000
1854   1   3   -64.854000   34.78000  27.824000
1855   1   1   -53.97000   15.19000  21.34000
1856   1   1   -53.938000   15.138000  24.121000
1857   1   1   -53.934000   15.154000  25.69000
1858   1   1   -53.916000   15.155000  28.378000
1859   1   1   -53.936000   15.169000  29.95000
1860   1   1   -47.601000   14.192000  21.974000
1861   1   1   -47.584000   15.679000  21.486000
1862   1   1   -46.319000   13.492000  21.408000
1863   1   1   -46.321000   16.384000  21.999000
1864   1   1   -47.531000   14.223000  30.479000
1865   1   1   -47.525000   15.709000  29.99000
1866   1   1   -46.257000   13.498000  29.948000
1867   1   1   -46.249000   16.386000  30.541000
1868   1   1   -47.561000   14.211000  26.251000
1869   1   1   -47.554000   15.69000  25.713000
1870   1   1   -47.581000   14.205000  23.573000
1871   1   1   -47.568000   15.691000  24.114000
1872   1   1   -46.28000   13.5000  25.68000
1873   1   1   -46.292000   13.498000  24.119000
1874   1   1   -46.279000   16.38000  26.264000
1875   1   1   -46.304000   16.391000  23.553000
1876   1   1   -47.552000   14.21000  27.853000
1877   1   1   -47.533000   15.697000  28.391000
1878   1   1   -46.264000   13.491000  28.392000
1879   1   1   -46.266000   16.383000  27.823000
1880   1   1   -50.149000   14.253000  21.973000
1881   1   1   -50.064000   15.696000  21.478000
1882   1   1   -48.907000   13.508000  21.407000
1883   1   1   -48.83000   16.424000  22.01000
1884   1   1   -50.058000   14.323000  30.549000
1885   1   1   -50.029000   15.761000  30.029000
1886   1   1   -48.841000   13.537000  29.989000
1887   1   1   -48.77000   16.449000  30.582000
1888   1   1   -50.088000   14.293000  26.286000
1889   1   1   -50.052000   15.727000  25.725000
1890   1   1   -50.105000   14.272000  23.576000
1891   1   1   -50.07000   15.72000  24.101000
1892   1   1   -48.864000   13.528000  25.7000
1893   1   1   -48.87000   13.522000  24.141000
1894   1   1   -48.801000   16.433000  26.283000
1895   1   1   -48.825000   16.435000  23.553000
1896   1   1   -50.078000   14.286000  27.889000
1897   1   1   -50.029000   15.734000  28.411000
1898   1   1   -48.847000   13.522000  28.435000
1899   1   1   -48.787000   16.435000  27.836000
1900   1   1   -51.564000   13.876000  21.361000
1901   1   1   -51.421000   16.227000  21.928000
1902   1   1   -51.453000   13.913000  30.057000
1903   1   1   -51.39000   16.278000  30.568000
1904   1   1   -51.462000   13.9000  25.713000
1905   1   1   -51.45000   13.86000  24.195000
1906   1   1   -51.392000   16.237000  26.283000
1907   1   1   -51.429000   16.206000  23.505000
1908   1   1   -51.443000   13.873000  28.52000
1909   1   1   -51.38000   16.226000  27.839000
1910   1   1   -52.354000   15.204000  21.187000
1911   1   1   -52.348000   15.125000  24.125000
1912   1   1   -52.341000   15.165000  25.675000
1913   1   1   -52.32000   15.148000  28.448000
1914   1   1   -52.336000   15.183000  29.997000
1915   1   1   -38.251000   23.614000  21.924000
1916   1   1   -38.232000   23.594000  23.482000
1917   1   1   -36.985000   25.821000  21.929000
1918   1   1   -36.963000   25.804000  23.487000
1919   1   1   -36.963000   25.799000  26.187000
1920   1   1   -36.964000   25.797000  27.742000
1921   1   1   -35.04000   16.332000  21.764000
1922   1   1   -36.468000   16.256000  29.921000
1923   1   1   -35.007000   16.277000  30.471000
1924   1   1   -35.046000   16.285000  26.153000
1925   1   1   -35.061000   16.295000  23.355000
1926   1   1   -36.487000   16.244000  28.368000
1927   1   1   -35.043000   16.271000  27.73000
1928   1   1   -33.116000   19.856000  21.405000
1929   1   1   -33.274000   18.326000  30.47000
1930   1   1   -33.164000   19.793000  29.898000
1931   1   1   -31.9000   20.528000  30.458000
1932   1   1   -33.273000   18.327000  26.174000
1933   1   1   -33.155000   19.81000  25.624000
1934   1   1   -33.141000   19.819000  24.023000
1935   1   1   -33.277000   18.321000  27.732000
1936   1   1   -33.167000   19.797000  28.298000
1937   1   1   -35.751000   18.588000  21.802000
1938   1   1   -35.628000   20.025000  21.274000
1939   1   1   -34.544000   17.753000  21.336000
1940   1   1   -34.366000   20.666000  21.885000
1941   1   1   -35.788000   18.525000  30.419000
1942   1   1   -35.705000   19.952000  29.87000
1943   1   1   -34.581000   17.68000  29.912000
1944   1   1   -34.412000   20.602000  30.389000
1945   1   1   -35.773000   18.539000  26.142000
1946   1   1   -35.675000   19.968000  25.578000
1947   1   1   -35.765000   18.564000  23.419000
1948   1   1   -35.667000   19.982000  24.016000
1949   1   1   -34.587000   17.686000  25.595000
1950   1   1   -34.584000   17.693000  23.967000
1951   1   1   -34.397000   20.618000  26.158000
1952   1   1   -34.379000   20.641000  23.479000
1953   1   1   -35.788000   18.523000  27.755000
1954   1   1   -35.702000   19.954000  28.316000
1955   1   1   -34.59000   17.677000  28.294000
1956   1   1   -34.411000   20.61000  27.757000
1957   1   1   -36.916000   17.84000  21.09000
1958   1   1   -36.984000   17.721000  29.906000
1959   1   1   -36.958000   17.787000  25.533000
1960   1   1   -36.957000   17.797000  24.0000
1961   1   1   -36.982000   17.737000  28.365000
1962   1   1   -30.561000   22.812000  21.951000
1963   1   1   -30.562000   24.284000  21.446000
1964   1   1   -29.322000   25.022000  21.973000
1965   1   1   -30.612000   22.751000  30.482000
1966   1   1   -30.595000   24.211000  29.933000
1967   1   1   -29.38000   24.965000  30.517000
1968   1   1   -30.586000   22.773000  26.217000
1969   1   1   -30.569000   24.24000  25.671000
1970   1   1   -30.56000   22.79000  23.51000
1971   1   1   -30.558000   24.251000  24.078000
1972   1   1   -29.338000   24.985000  26.246000
1973   1   1   -29.315000   25.001000  23.532000
1974   1   1   -30.595000   22.764000  27.776000
1975   1   1   -30.588000   24.223000  28.342000
1976   1   1   -29.35000   24.977000  27.805000
1977   1   1   -33.07000   22.83000  21.923000
1978   1   1   -33.053000   24.287000  21.377000
1979   1   1   -31.807000   22.063000  21.427000
1980   1   1   -31.829000   25.038000  21.949000
1981   1   1   -33.108000   22.76000  30.404000
1982   1   1   -33.101000   24.218000  29.894000
1983   1   1   -31.844000   21.994000  29.908000
1984   1   1   -31.869000   24.963000  30.424000
1985   1   1   -33.088000   22.785000  26.181000
1986   1   1   -33.067000   24.245000  25.635000
1987   1   1   -33.072000   22.807000  23.512000
1988   1   1   -33.06000   24.258000  24.08000
1989   1   1   -31.828000   22.019000  25.647000
1990   1   1   -31.814000   22.03000  24.054000
1991   1   1   -31.836000   24.993000  26.205000
1992   1   1   -31.824000   25.016000  23.538000
1993   1   1   -33.102000   22.777000  27.773000
1994   1   1   -33.096000   24.232000  28.338000
1995   1   1   -31.844000   22.004000  28.316000
1996   1   1   -31.852000   24.984000  27.796000
1997   1   1   -34.3000   22.114000  21.341000
1998   1   1   -34.359000   22.051000  29.874000
1999   1   1   -34.332000   22.07000  25.609000
2000   1   1   -34.322000   22.083000  24.052000
2001   1   1   -34.358000   22.059000  28.318000
2002   1   1   -28.067000   27.167000  21.999000
2003   1   1   -28.018000   28.609000  21.488000
2004   1   1   -28.152000   27.127000  30.565000
2005   1   1   -28.094000   28.562000  30.013000
2006   1   1   -28.082000   27.142000  26.281000
2007   1   1   -28.024000   28.581000  25.732000
2008   1   1   -28.058000   27.151000  23.558000
2009   1   1   -28.009000   28.587000  24.131000
2010   1   1   -28.099000   27.136000  27.843000
2011   1   1   -28.063000   28.571000  28.418000
2012   1   1   -30.575000   27.255000  21.973000
2013   1   1   -30.516000   28.729000  21.43000
2014   1   1   -29.322000   26.48000  21.467000
2015   1   1   -29.246000   29.445000  21.986000
2016   1   1   -30.634000   27.183000  30.447000
2017   1   1   -30.597000   28.657000  29.934000
2018   1   1   -29.368000   26.413000  29.964000
2019   1   1   -29.346000   29.383000  30.473000
2020   1   1   -30.58000   27.211000  26.23000
2021   1   1   -30.521000   28.686000  25.684000
2022   1   1   -30.566000   27.234000  23.563000
2023   1   1   -30.511000   28.7000  24.128000
2024   1   1   -29.323000   26.44000  25.698000
2025   1   1   -29.312000   26.449000  24.105000
2026   1   1   -29.259000   29.407000  26.257000
2027   1   1   -29.239000   29.427000  23.585000
2028   1   1   -30.601000   27.202000  27.821000
2029   1   1   -30.569000   28.673000  28.38000
2030   1   1   -29.35000   26.424000  28.374000
2031   1   1   -29.287000   29.402000  27.855000
2032   1   1   -31.812000   26.506000  21.407000
2033   1   1   -31.867000   26.431000  29.914000
2034   1   1   -31.817000   26.461000  25.66000
2035   1   1   -31.809000   26.475000  24.105000
2036   1   1   -31.852000   26.446000  28.358000
2037   1   1   -33.229000   18.365000  21.901000
2038   1   1   -33.249000   18.337000  23.447000
2039   1   1   -31.846000   20.582000  21.932000
2040   1   1   -31.856000   20.558000  23.489000
2041   1   1   -31.886000   20.543000  26.193000
2042   1   1   -31.894000   20.535000  27.753000
2043   1   1   -36.441000   16.332000  20.982000
2044   1   1   -36.499000   16.296000  23.98000
2045   1   1   -36.488000   16.291000  25.534000
2046   1   1   -42.457000   14.257000  21.897000
2047   1   1   -42.593000   15.716000  21.41000
2048   1   1   -41.044000   13.908000  21.239000
2049   1   1   -41.269000   16.297000  21.86000
2050   1   1   -42.425000   14.276000  30.48000
2051   1   1   -42.485000   15.736000  29.976000
2052   1   1   -41.016000   13.87000  29.972000
2053   1   1   -41.141000   16.28000  30.529000
2054   1   1   -42.419000   14.253000  26.215000
2055   1   1   -42.522000   15.709000  25.671000
2056   1   1   -42.444000   14.256000  23.501000
2057   1   1   -42.537000   15.716000  24.052000
2058   1   1   -41.008000   13.881000  25.612000
2059   1   1   -41.025000   13.879000  24.067000
2060   1   1   -41.206000   16.264000  26.224000
2061   1   1   -41.236000   16.284000  23.454000
2062   1   1   -42.41000   14.246000  27.822000
2063   1   1   -42.501000   15.709000  28.367000
2064   1   1   -40.996000   13.848000  28.425000
2065   1   1   -41.183000   16.246000  27.81000
2066   1   1   -40.277000   15.293000  21.172000
2067   1   1   -40.236000   15.24000  24.04000
2068   1   1   -40.219000   15.237000  25.597000
2069   1   1   -40.185000   15.191000  28.431000
2070   1   1   -40.163000   15.198000  29.994000
2071   1   1   -45.023000   14.186000  21.952000
2072   1   1   -45.065000   15.673000  21.467000
2073   1   1   -43.72000   13.504000  21.361000
2074   1   1   -43.824000   16.423000  21.974000
2075   1   1   -44.965000   14.203000  30.454000
2076   1   1   -44.986000   15.691000  29.97000
2077   1   1   -43.661000   13.503000  29.939000
2078   1   1   -43.738000   16.422000  30.547000
2079   1   1   -44.981000   14.193000  26.227000
2080   1   1   -45.015000   15.675000  25.695000
2081   1   1   -45.005000   14.193000  23.551000
2082   1   1   -45.031000   15.679000  24.096000
2083   1   1   -43.674000   13.501000  25.651000
2084   1   1   -43.688000   13.502000  24.09000
2085   1   1   -43.766000   16.409000  26.25000
2086   1   1   -43.797000   16.424000  23.52000
2087   1   1   -44.972000   14.192000  27.83000
2088   1   1   -44.995000   15.68000  28.372000
2089   1   1   -43.662000   13.49000  28.384000
2090   1   1   -43.752000   16.411000  27.804000
2091   1   1   -26.722000   29.21000  22.02000
2092   1   1   -26.639000   30.622000  21.481000
2093   1   1   -26.851000   29.195000  30.649000
2094   1   1   -26.745000   30.614000  30.109000
2095   1   1   -26.749000   29.2000  26.329000
2096   1   1   -26.662000   30.608000  25.76000
2097   1   1   -26.716000   29.201000  23.577000
2098   1   1   -26.636000   30.613000  24.151000
2099   1   1   -26.772000   29.2000  27.895000
2100   1   1   -26.705000   30.608000  28.491000
2101   1   1   -29.116000   30.923000  21.422000
2102   1   1   -27.794000   31.523000  21.986000
2103   1   1   -29.237000   30.867000  29.965000
2104   1   1   -27.944000   31.471000  30.548000
2105   1   1   -29.134000   30.889000  25.706000
2106   1   1   -29.118000   30.9000  24.153000
2107   1   1   -27.825000   31.498000  26.294000
2108   1   1   -27.793000   31.507000  23.6000
2109   1   1   -29.192000   30.884000  28.423000
2110   1   1   -27.852000   31.5000  27.917000
2111   1   1   -25.417000   31.313000  22.02000
2112   1   1   -25.599000   31.342000  30.837000
2113   1   1   -25.473000   31.301000  26.384000
2114   1   1   -25.417000   31.307000  23.557000
2115   1   1   -25.496000   31.302000  27.919000
2116   1   1   -27.273000   32.906000  21.437000
2117   1   1   -25.822000   32.801000  22.013000
2118   1   1   -27.427000   32.873000  30.108000
2119   1   1   -26.056000   32.844000  30.922000
2120   1   1   -27.315000   32.877000  25.738000
2121   1   1   -27.284000   32.884000  24.17000
2122   1   1   -25.893000   32.792000  26.378000
2123   1   1   -25.833000   32.804000  23.562000
2124   1   1   -27.359000   32.884000  28.522000
2125   1   1   -25.915000   32.797000  27.927000
2126   1   1   -23.369000   33.446000  21.398000
2127   1   1   -23.593000   33.4000  30.137000
2128   1   1   -23.483000   33.381000  25.797000
2129   1   1   -23.453000   33.388000  24.242000
2130   1   1   -23.548000   33.389000  28.584000
2131   1   1   -24.734000   33.906000  22.004000
2132   1   1   -24.936000   33.944000  30.757000
2133   1   1   -24.822000   33.904000  26.382000
2134   1   1   -24.756000   33.922000  23.565000
2135   1   1   -24.85000   33.915000  27.928000
2136   1   1   -37.523000   15.143000  21.108000
2137   1   1   -37.421000   15.006000  29.979000
2138   1   1   -37.493000   15.074000  25.547000
2139   1   1   -37.51000   15.079000  24.001000
2140   1   1   -37.471000   15.002000  28.423000
2141   1   1   -38.875000   15.534000  21.82000
2142   1   1   -38.78000   15.151000  30.775000
2143   1   1   -38.833000   15.453000  26.241000
2144   1   1   -38.865000   15.477000  23.361000
2145   1   1   -38.82000   15.395000  27.776000
2146   1   2   -35.932000   -2.628000  20.448000
2147   1   4   -34.677000   -4.799000  20.34000
2148   1   4   -35.985000   -4.139000  31.57000
2149   1   2   -34.656000   -1.941000  31.579000
2150   1   2   -38.472000   -2.561000  20.461000
2151   1   4   -37.236000   -4.725000  20.358000
2152   1   4   -38.526000   -4.077000  31.548000
2153   1   2   -37.21000   -1.902000  31.534000
2154   1   2   -41.033000   -2.496000  20.46000
2155   1   4   -39.797000   -4.658000  20.359000
2156   1   4   -41.085000   -4.012000  31.542000
2157   1   2   -39.758000   -1.839000  31.517000
2158   1   2   -43.599000   -2.427000  20.456000
2159   1   4   -42.366000   -4.592000  20.355000
2160   1   4   -43.65000   -3.941000  31.54000
2161   1   2   -42.317000   -1.771000  31.511000
2162   1   2   -46.167000   -2.352000  20.453000
2163   1   4   -44.937000   -4.521000  20.352000
2164   1   4   -46.215000   -3.863000  31.539000
2165   1   2   -44.879000   -1.696000  31.509000
2166   1   2   -48.732000   -2.271000  20.451000
2167   1   4   -47.505000   -4.444000  20.35000
2168   1   4   -48.776000   -3.779000  31.54000
2169   1   2   -47.441000   -1.613000  31.507000
2170   1   2   -51.293000   -2.187000  20.45000
2171   1   4   -50.068000   -4.363000  20.349000
2172   1   4   -51.331000   -3.692000  31.541000
2173   1   2   -50.0000   -1.525000  31.507000
2174   1   2   -53.849000   -2.108000  20.451000
2175   1   4   -52.624000   -4.284000  20.35000
2176   1   4   -53.878000   -3.611000  31.543000
2177   1   2   -52.554000   -1.437000  31.507000
2178   1   2   -56.4000   -2.04000  20.454000
2179   1   4   -55.171000   -4.212000  20.352000
2180   1   4   -56.418000   -3.541000  31.546000
2181   1   2   -55.103000   -1.359000  31.508000
2182   1   2   -58.946000   -1.989000  20.458000
2183   1   4   -57.711000   -4.153000  20.357000
2184   1   4   -58.952000   -3.487000  31.549000
2185   1   2   -57.649000   -1.295000  31.51000
2186   1   2   -61.484000   -1.961000  20.455000
2187   1   4   -60.242000   -4.114000  20.362000
2188   1   4   -61.474000   -3.452000  31.562000
2189   1   2   -60.19000   -1.251000  31.515000
2190   1   2   -64.024000   -1.965000  20.421000
2191   1   4   -62.749000   -4.107000  20.353000
2192   1   4   -64.0000   -3.466000  31.61000
2193   1   2   -62.714000   -1.236000  31.532000
2194   1   4   -65.241000   -4.135000  20.219000
2195   1   4   -65.177000   -1.176000  31.65000
2196   1   2   -33.417000   -2.715000  20.35000
2197   1   4   -33.494000   -4.138000  31.671000
2198   1   2   -35.922000   1.72000  20.381000
2199   1   2   -34.678000   -0.5000  20.375000
2200   1   2   -35.889000   0.271000  31.565000
2201   1   2   -38.412000   1.806000  20.473000
2202   1   2   -37.173000   -0.422000  20.468000
2203   1   2   -38.444000   0.323000  31.525000
2204   1   2   -37.124000   2.499000  31.566000
2205   1   2   -40.946000   1.878000  20.484000
2206   1   2   -39.711000   -0.352000  20.479000
2207   1   2   -40.992000   0.389000  31.509000
2208   1   2   -39.677000   2.555000  31.526000
2209   1   2   -43.502000   1.947000  20.482000
2210   1   2   -42.269000   -0.285000  20.477000
2211   1   2   -43.549000   0.46000  31.504000
2212   1   2   -42.224000   2.623000  31.511000
2213   1   2   -46.067000   2.024000  20.479000
2214   1   2   -44.833000   -0.213000  20.474000
2215   1   2   -46.112000   0.539000  31.501000
2216   1   2   -44.782000   2.697000  31.506000
2217   1   2   -48.634000   2.111000  20.476000
2218   1   2   -47.399000   -0.132000  20.471000
2219   1   2   -48.675000   0.629000  31.499000
2220   1   2   -47.347000   2.784000  31.502000
2221   1   2   -51.2000   2.205000  20.474000
2222   1   2   -49.964000   -0.046000  20.469000
2223   1   2   -51.234000   0.723000  31.497000
2224   1   2   -49.912000   2.884000  31.498000
2225   1   2   -53.76000   2.294000  20.475000
2226   1   2   -52.525000   0.039000  20.469000
2227   1   2   -53.787000   0.812000  31.496000
2228   1   2   -52.47000   2.987000  31.494000
2229   1   2   -56.316000   2.369000  20.477000
2230   1   2   -55.082000   0.117000  20.47000
2231   1   2   -56.337000   0.887000  31.496000
2232   1   2   -55.021000   3.077000  31.492000
2233   1   2   -58.868000   2.424000  20.481000
2234   1   2   -57.635000   0.179000  20.474000
2235   1   2   -58.883000   0.942000  31.498000
2236   1   2   -57.569000   3.145000  31.493000
2237   1   2   -61.409000   2.458000  20.478000
2238   1   2   -60.183000   0.222000  20.477000
2239   1   2   -61.422000   0.977000  31.508000
2240   1   2   -60.112000   3.191000  31.497000
2241   1   2   -63.945000   2.48000  20.441000
2242   1   2   -62.711000   0.246000  20.468000
2243   1   2   -63.959000   1.004000  31.554000
2244   1   2   -62.634000   3.221000  31.517000
2245   1   4   -65.174000   0.204000  20.358000
2246   1   4   -65.086000   3.314000  31.64000
2247   1   2   -38.383000   6.181000  20.377000
2248   1   2   -37.157000   3.949000  20.381000
2249   1   2   -38.351000   4.731000  31.571000
2250   1   2   -40.867000   6.268000  20.468000
2251   1   2   -39.644000   4.039000  20.474000
2252   1   2   -40.904000   4.787000  31.532000
2253   1   2   -39.569000   6.952000  31.583000
2254   1   2   -43.4000   6.335000  20.474000
2255   1   2   -42.176000   4.111000  20.484000
2256   1   2   -43.452000   4.854000  31.518000
2257   1   2   -42.127000   6.997000  31.548000
2258   1   2   -45.957000   6.405000  20.47000
2259   1   2   -44.732000   4.181000  20.482000
2260   1   2   -46.013000   4.931000  31.512000
2261   1   2   -44.676000   7.059000  31.537000
2262   1   2   -48.527000   6.5000  20.466000
2263   1   2   -47.299000   4.263000  20.478000
2264   1   2   -48.581000   5.03000  31.506000
2265   1   2   -47.238000   7.145000  31.529000
2266   1   2   -51.103000   6.626000  20.467000
2267   1   2   -49.87000   4.364000  20.476000
2268   1   2   -51.151000   5.152000  31.497000
2269   1   2   -49.81000   7.264000  31.518000
2270   1   2   -53.673000   6.75000  20.47000
2271   1   2   -52.436000   4.47000  20.475000
2272   1   2   -53.704000   5.268000  31.491000
2273   1   2   -52.389000   7.434000  31.497000
2274   1   2   -56.228000   6.842000  20.477000
2275   1   2   -54.995000   4.562000  20.477000
2276   1   2   -56.251000   5.355000  31.489000
2277   1   2   -54.932000   7.564000  31.489000
2278   1   2   -58.776000   6.903000  20.482000
2279   1   2   -57.548000   4.632000  20.48000
2280   1   2   -58.795000   5.413000  31.491000
2281   1   2   -57.474000   7.642000  31.485000
2282   1   2   -61.318000   6.935000  20.477000
2283   1   2   -60.095000   4.679000  20.483000
2284   1   2   -61.333000   5.451000  31.503000
2285   1   2   -60.022000   7.679000  31.492000
2286   1   2   -63.853000   6.961000  20.437000
2287   1   2   -62.618000   4.712000  20.471000
2288   1   2   -63.867000   5.489000  31.551000
2289   1   2   -62.546000   7.709000  31.513000
2290   1   4   -65.072000   4.685000  20.355000
2291   1   4   -64.999000   7.802000  31.637000
2292   1   2   -39.611000   8.42000  20.362000
2293   1   2   -40.797000   9.103000  31.668000
2294   1   2   -42.085000   8.511000  20.437000
2295   1   2   -43.348000   9.151000  31.649000
2296   1   2   -44.617000   8.567000  20.438000
2297   1   2   -45.892000   9.216000  31.639000
2298   1   2   -47.169000   8.642000  20.432000
2299   1   2   -48.445000   9.313000  31.626000
2300   1   2   -49.737000   8.755000  20.431000
2301   1   2   -51.016000   9.46000  31.6000
2302   1   2   -53.804000   11.166000  20.316000
2303   1   2   -52.32000   8.926000  20.438000
2304   1   2   -53.618000   9.786000  31.503000
2305   1   2   -56.163000   11.391000  20.475000
2306   1   2   -54.924000   9.034000  20.459000
2307   1   2   -56.146000   9.883000  31.485000
2308   1   2   -54.764000   12.206000  31.51000
2309   1   2   -58.714000   11.392000  20.475000
2310   1   2   -57.457000   9.138000  20.479000
2311   1   2   -58.709000   9.913000  31.485000
2312   1   2   -57.418000   12.156000  31.487000
2313   1   2   -61.26000   11.421000  20.471000
2314   1   2   -60.011000   9.165000  20.48000
2315   1   2   -61.256000   9.943000  31.497000
2316   1   2   -59.971000   12.172000  31.485000
2317   1   2   -63.795000   11.446000  20.431000
2318   1   2   -62.539000   9.195000  20.466000
2319   1   2   -63.793000   9.979000  31.546000
2320   1   2   -62.493000   12.202000  31.505000
2321   1   4   -64.994000   9.164000  20.349000
2322   1   4   -64.945000   12.29000  31.629000
2323   1   2   -56.276000   15.898000  20.457000
2324   1   2   -55.127000   13.586000  20.331000
2325   1   2   -56.211000   14.381000  31.504000
2326   1   2   -54.833000   16.474000  31.527000
2327   1   2   -58.719000   15.907000  20.467000
2328   1   2   -57.493000   13.625000  20.444000
2329   1   2   -58.712000   14.407000  31.484000
2330   1   2   -57.432000   16.669000  31.497000
2331   1   2   -61.236000   15.924000  20.462000
2332   1   2   -59.995000   13.658000  20.468000
2333   1   2   -61.229000   14.44000  31.491000
2334   1   2   -59.953000   16.682000  31.481000
2335   1   2   -63.763000   15.943000  20.422000
2336   1   2   -62.504000   13.688000  20.458000
2337   1   2   -63.756000   14.474000  31.538000
2338   1   2   -62.46000   16.704000  31.497000
2339   1   4   -64.955000   13.651000  20.343000
2340   1   4   -64.908000   16.791000  31.62000
2341   1   2   -40.776000   20.769000  20.239000
2342   1   2   -39.579000   21.426000  31.551000
2343   1   2   -43.317000   20.769000  20.26000
2344   1   2   -42.043000   21.388000  31.476000
2345   1   2   -45.854000   20.758000  20.273000
2346   1   2   -44.56000   21.382000  31.475000
2347   1   2   -48.4000   20.727000  20.286000
2348   1   2   -47.099000   21.364000  31.483000
2349   1   2   -50.965000   20.648000  20.313000
2350   1   2   -49.656000   21.32000  31.487000
2351   1   2   -53.571000   20.412000  20.405000
2352   1   2   -53.714000   18.992000  31.579000
2353   1   2   -52.233000   21.213000  31.48000
2354   1   2   -56.097000   20.367000  20.444000
2355   1   2   -54.813000   18.033000  20.404000
2356   1   2   -56.095000   18.851000  31.456000
2357   1   2   -54.814000   21.174000  31.462000
2358   1   2   -58.646000   20.396000  20.455000
2359   1   2   -57.41000   18.123000  20.454000
2360   1   2   -58.64000   18.919000  31.467000
2361   1   2   -57.342000   21.141000  31.456000
2362   1   2   -61.184000   20.423000  20.453000
2363   1   2   -59.946000   18.164000  20.463000
2364   1   2   -61.18000   18.946000  31.48000
2365   1   2   -59.889000   21.174000  31.465000
2366   1   2   -63.717000   20.443000  20.412000
2367   1   2   -62.462000   18.19000  20.45000
2368   1   2   -63.712000   18.975000  31.528000
2369   1   2   -62.413000   21.2000  31.487000
2370   1   4   -64.913000   18.152000  20.334000
2371   1   4   -64.863000   21.287000  31.612000
2372   1   2   -38.249000   25.088000  20.333000
2373   1   2   -38.305000   23.636000  31.534000
2374   1   2   -37.039000   25.838000  31.531000
2375   1   2   -40.79000   25.089000  20.374000
2376   1   2   -39.509000   22.894000  20.322000
2377   1   2   -40.781000   23.606000  31.445000
2378   1   2   -39.515000   25.807000  31.439000
2379   1   2   -43.325000   25.078000  20.391000
2380   1   2   -42.056000   22.904000  20.359000
2381   1   2   -43.299000   23.592000  31.44000
2382   1   2   -42.03000   25.792000  31.43000
2383   1   2   -45.873000   25.059000  20.4000
2384   1   2   -44.594000   22.895000  20.373000
2385   1   2   -45.841000   23.577000  31.445000
2386   1   2   -44.571000   25.778000  31.434000
2387   1   2   -48.431000   25.022000  20.409000
2388   1   2   -47.144000   22.869000  20.383000
2389   1   2   -48.397000   23.545000  31.452000
2390   1   2   -47.122000   25.754000  31.44000
2391   1   2   -50.992000   24.966000  20.421000
2392   1   2   -49.708000   22.816000  20.396000
2393   1   2   -50.962000   23.483000  31.454000
2394   1   2   -49.68000   25.716000  31.446000
2395   1   2   -53.54000   24.916000  20.433000
2396   1   2   -52.282000   22.717000  20.421000
2397   1   2   -53.52000   23.425000  31.455000
2398   1   2   -52.234000   25.674000  31.451000
2399   1   2   -56.083000   24.893000  20.442000
2400   1   2   -54.823000   22.654000  20.435000
2401   1   2   -56.064000   23.4000  31.455000
2402   1   2   -54.783000   25.647000  31.454000
2403   1   2   -58.623000   24.897000  20.449000
2404   1   2   -57.36000   22.638000  20.449000
2405   1   2   -58.607000   23.404000  31.459000
2406   1   2   -57.329000   25.642000  31.458000
2407   1   2   -61.156000   24.919000  20.445000
2408   1   2   -59.902000   22.66000  20.453000
2409   1   2   -61.144000   23.434000  31.472000
2410   1   2   -59.871000   25.659000  31.463000
2411   1   2   -63.687000   24.941000  20.405000
2412   1   2   -62.422000   22.688000  20.44000
2413   1   2   -63.677000   23.467000  31.52000
2414   1   2   -62.391000   25.688000  31.482000
2415   1   4   -64.873000   22.651000  20.324000
2416   1   4   -64.839000   25.776000  31.605000
2417   1   2   -35.693000   29.486000  20.337000
2418   1   2   -35.764000   28.034000  31.532000
2419   1   2   -34.471000   30.215000  31.539000
2420   1   2   -38.235000   29.501000  20.381000
2421   1   2   -36.978000   27.291000  20.336000
2422   1   2   -38.239000   28.012000  31.44000
2423   1   2   -36.952000   30.21000  31.445000
2424   1   2   -40.769000   29.495000  20.399000
2425   1   2   -39.517000   27.296000  20.379000
2426   1   2   -40.754000   27.999000  31.43000
2427   1   2   -39.471000   30.203000  31.435000
2428   1   2   -43.314000   29.482000  20.407000
2429   1   2   -42.05000   27.285000  20.397000
2430   1   2   -43.294000   27.987000  31.433000
2431   1   2   -42.012000   30.195000  31.438000
2432   1   2   -45.865000   29.46000  20.413000
2433   1   2   -44.595000   27.269000  20.405000
2434   1   2   -45.843000   27.969000  31.44000
2435   1   2   -44.562000   30.18000  31.444000
2436   1   2   -48.417000   29.431000  20.419000
2437   1   2   -47.148000   27.242000  20.413000
2438   1   2   -48.396000   27.941000  31.446000
2439   1   2   -47.114000   30.158000  31.45000
2440   1   2   -50.967000   29.398000  20.426000
2441   1   2   -49.704000   27.204000  20.421000
2442   1   2   -50.949000   27.909000  31.451000
2443   1   2   -49.666000   30.132000  31.456000
2444   1   2   -53.513000   29.372000  20.432000
2445   1   2   -52.254000   27.164000  20.429000
2446   1   2   -53.499000   27.884000  31.456000
2447   1   2   -52.215000   30.108000  31.461000
2448   1   2   -56.057000   29.361000  20.438000
2449   1   2   -54.8000   27.138000  20.437000
2450   1   2   -56.047000   27.874000  31.459000
2451   1   2   -54.762000   30.094000  31.465000
2452   1   2   -58.599000   29.369000  20.443000
2453   1   2   -57.343000   27.134000  20.444000
2454   1   2   -58.592000   27.883000  31.462000
2455   1   2   -57.307000   30.096000  31.467000
2456   1   2   -61.133000   29.396000  20.44000
2457   1   2   -59.882000   27.15000  20.448000
2458   1   2   -61.129000   27.913000  31.472000
2459   1   2   -59.85000   30.118000  31.47000
2460   1   2   -63.666000   29.433000  20.401000
2461   1   2   -62.399000   27.182000  20.436000
2462   1   2   -63.661000   27.955000  31.516000
2463   1   2   -62.373000   30.158000  31.485000
2464   1   4   -64.849000   27.148000  20.319000
2465   1   4   -64.829000   30.264000  31.602000
2466   1   4   -35.652000   33.897000  20.339000
2467   1   2   -34.397000   31.659000  20.326000
2468   1   4   -34.317000   35.625000  21.539000
2469   1   2   -35.65000   32.382000  31.464000
2470   1   4   -34.325000   34.511000  31.571000
2471   1   4   -34.281000   35.629000  30.252000
2472   1   4   -34.275000   35.651000  23.787000
2473   1   4   -34.271000   35.637000  25.898000
2474   1   4   -34.272000   35.628000  28.096000
2475   1   4   -38.191000   33.905000  20.362000
2476   1   2   -36.943000   31.694000  20.373000
2477   1   4   -36.897000   35.645000  21.576000
2478   1   2   -38.178000   32.383000  31.452000
2479   1   4   -36.883000   34.516000  31.552000
2480   1   4   -36.873000   35.651000  30.25000
2481   1   4   -36.874000   35.678000  23.811000
2482   1   4   -36.865000   35.663000  25.905000
2483   1   4   -36.865000   35.653000  28.089000
2484   1   4   -40.746000   33.901000  20.369000
2485   1   2   -39.482000   31.696000  20.392000
2486   1   4   -39.463000   35.647000  21.584000
2487   1   2   -40.726000   32.38000  31.455000
2488   1   4   -39.439000   34.516000  31.553000
2489   1   4   -39.441000   35.655000  30.255000
2490   1   4   -39.45000   35.686000  23.819000
2491   1   4   -39.441000   35.672000  25.911000
2492   1   4   -39.439000   35.661000  28.094000
2493   1   4   -43.304000   33.889000  20.373000
2494   1   2   -42.031000   31.687000  20.4000
2495   1   4   -42.028000   35.64000  21.587000
2496   1   2   -43.28000   32.369000  31.461000
2497   1   4   -41.999000   34.509000  31.56000
2498   1   4   -42.006000   35.65000  30.263000
2499   1   4   -42.02000   35.683000  23.823000
2500   1   4   -42.013000   35.67000  25.917000
2501   1   4   -42.009000   35.658000  28.101000
2502   1   4   -45.86000   33.869000  20.377000
2503   1   2   -44.583000   31.67000  20.405000
2504   1   4   -44.591000   35.625000  21.589000
2505   1   2   -45.834000   32.352000  31.468000
2506   1   4   -44.559000   34.495000  31.567000
2507   1   4   -44.569000   35.636000  30.269000
2508   1   4   -44.585000   35.67000  23.826000
2509   1   4   -44.579000   35.657000  25.922000
2510   1   4   -44.574000   35.645000  28.108000
2511   1   4   -48.411000   33.843000  20.38000
2512   1   2   -47.135000   31.646000  20.409000
2513   1   4   -47.148000   35.602000  21.592000
2514   1   2   -48.386000   32.329000  31.474000
2515   1   4   -47.114000   34.476000  31.573000
2516   1   4   -47.127000   35.617000  30.274000
2517   1   4   -47.143000   35.649000  23.83000
2518   1   4   -47.138000   35.637000  25.927000
2519   1   4   -47.133000   35.625000  28.113000
2520   1   4   -50.956000   33.817000  20.384000
2521   1   2   -49.684000   31.617000  20.414000
2522   1   4   -49.696000   35.577000  21.595000
2523   1   2   -50.935000   32.306000  31.479000
2524   1   4   -49.664000   34.455000  31.578000
2525   1   4   -49.676000   35.594000  30.278000
2526   1   4   -49.692000   35.624000  23.833000
2527   1   4   -49.687000   35.614000  25.93000
2528   1   4   -49.682000   35.602000  28.117000
2529   1   4   -53.495000   33.797000  20.387000
2530   1   2   -52.23000   31.591000  20.419000
2531   1   4   -52.234000   35.555000  21.598000
2532   1   2   -53.48000   32.29000  31.483000
2533   1   4   -52.207000   34.436000  31.582000
2534   1   4   -52.216000   35.575000  30.281000
2535   1   4   -52.231000   35.603000  23.837000
2536   1   4   -52.227000   35.593000  25.933000
2537   1   4   -52.222000   35.582000  28.121000
2538   1   4   -56.027000   33.789000  20.39000
2539   1   2   -54.771000   31.575000  20.424000
2540   1   2   -56.021000   32.285000  31.486000
2541   1   4   -54.744000   34.427000  31.585000
2542   1   4   -58.554000   33.799000  20.393000
2543   1   2   -57.31000   31.574000  20.428000
2544   1   2   -58.56000   32.297000  31.487000
2545   1   4   -57.274000   34.431000  31.586000
2546   1   4   -61.071000   33.827000  20.388000
2547   1   2   -59.847000   31.594000  20.431000
2548   1   2   -61.092000   32.334000  31.495000
2549   1   4   -59.797000   34.456000  31.587000
2550   1   4   -63.592000   33.907000  20.346000
2551   1   2   -62.366000   31.642000  20.42000
2552   1   2   -63.627000   32.403000  31.536000
2553   1   4   -62.297000   34.513000  31.601000
2554   1   4   -64.825000   31.645000  20.307000
2555   1   4   -64.781000   34.609000  31.743000
2556   1   4   -33.163000   33.815000  20.239000
2557   1   2   -33.142000   32.381000  31.563000
2558   1   4   -54.762000   35.541000  21.601000
2559   1   4   -54.746000   35.565000  30.283000
2560   1   4   -54.76000   35.59000  23.84000
2561   1   4   -54.758000   35.581000  25.936000
2562   1   4   -54.753000   35.571000  28.123000
2563   1   4   -57.282000   35.543000  21.605000
2564   1   4   -57.269000   35.568000  30.283000
2565   1   4   -57.283000   35.591000  23.843000
2566   1   4   -57.283000   35.583000  25.938000
2567   1   4   -57.279000   35.574000  28.124000
2568   1   4   -59.794000   35.564000  21.607000
2569   1   4   -59.785000   35.59000  30.282000
2570   1   4   -59.804000   35.61000  23.845000
2571   1   4   -59.808000   35.602000  25.939000
2572   1   4   -59.802000   35.594000  28.125000
2573   1   4   -62.284000   35.612000  21.596000
2574   1   4   -62.284000   35.638000  30.292000
2575   1   4   -62.316000   35.655000  23.833000
2576   1   4   -62.317000   35.647000  25.943000
2577   1   4   -62.308000   35.641000  28.13000
2578   1   4   -64.725000   35.78000  21.527000
2579   1   4   -64.73000   35.797000  30.467000
2580   1   4   -64.805000   35.818000  23.778000
2581   1   4   -64.783000   35.825000  25.951000
2582   1   4   -64.782000   35.809000  28.176000
2583   1   2   -32.233000   31.873000  21.518000
2584   1   2   -32.196000   31.833000  30.228000
2585   1   2   -32.187000   31.87000  25.88000
2586   1   2   -32.182000   31.876000  23.77000
2587   1   2   -32.192000   31.857000  28.082000
2588   1   2   -32.436000   -2.205000  21.678000
2589   1   2   -32.49000   -2.233000  30.386000
2590   1   2   -32.44000   -2.239000  26.028000
2591   1   2   -32.44000   -2.228000  23.831000
2592   1   2   -32.438000   -2.243000  28.139000
2593   1   2   -33.69000   0.042000  21.685000
2594   1   2   -33.736000   0.006000  30.357000
2595   1   2   -33.69000   0.014000  26.028000
2596   1   2   -33.691000   0.022000  23.845000
2597   1   2   -33.687000   0.016000  28.122000
2598   1   2   -34.93000   2.268000  21.686000
2599   1   2   -34.973000   2.231000  30.358000
2600   1   2   -34.927000   2.252000  26.029000
2601   1   2   -34.93000   2.257000  23.846000
2602   1   2   -34.925000   2.253000  28.123000
2603   1   2   -36.162000   4.497000  21.684000
2604   1   2   -36.203000   4.461000  30.363000
2605   1   2   -36.159000   4.491000  26.031000
2606   1   2   -36.162000   4.494000  23.846000
2607   1   2   -36.155000   4.49000  28.126000
2608   1   2   -37.388000   6.73000  21.681000
2609   1   2   -37.424000   6.694000  30.37000
2610   1   2   -37.384000   6.733000  26.033000
2611   1   2   -37.388000   6.733000  23.845000
2612   1   2   -37.381000   6.731000  28.132000
2613   1   2   -38.621000   8.978000  21.668000
2614   1   2   -38.652000   8.938000  30.396000
2615   1   2   -38.62000   8.989000  26.038000
2616   1   2   -38.62000   8.986000  23.841000
2617   1   2   -38.622000   8.989000  28.151000
2618   1   2   -38.648000   20.886000  21.509000
2619   1   2   -38.622000   20.843000  30.236000
2620   1   2   -38.622000   20.833000  25.869000
2621   1   2   -38.622000   20.833000  23.76000
2622   1   2   -38.623000   20.836000  28.072000
2623   1   2   -36.072000   25.27000  30.22000
2624   1   2   -37.338000   23.067000  30.223000
2625   1   2   -37.337000   23.064000  25.873000
2626   1   2   -37.341000   23.064000  28.066000
2627   1   2   -33.551000   29.682000  21.542000
2628   1   2   -33.507000   29.668000  25.878000
2629   1   2   -33.502000   29.667000  23.784000
2630   1   2   -33.513000   29.66000  28.069000
2631   1   2   -34.84000   27.501000  21.54000
2632   1   2   -34.802000   27.462000  30.219000
2633   1   2   -34.795000   27.476000  25.875000
2634   1   2   -34.792000   27.475000  23.784000
2635   1   2   -34.801000   27.472000  28.066000
2636   1   2   -33.518000   29.641000  30.221000
2637   1   2   -45.815000   19.586000  28.022000
2638   1   2   -48.363000   19.587000  21.581000
2639   1   2   -48.34000   19.61000  30.275000
2640   1   2   -48.342000   19.57000  25.937000
2641   1   2   -48.35000   19.581000  23.745000
2642   1   2   -48.341000   19.561000  28.031000
2643   1   2   -50.865000   19.512000  21.605000
2644   1   2   -50.841000   19.538000  30.274000
2645   1   2   -50.839000   19.501000  25.951000
2646   1   2   -50.845000   19.51000  23.767000
2647   1   2   -50.838000   19.492000  28.039000
2648   1   2   -52.734000   18.465000  21.597000
2649   1   2   -52.692000   18.494000  30.33000
2650   1   2   -52.697000   18.471000  25.917000
2651   1   2   -52.685000   18.485000  23.849000
2652   1   2   -52.695000   18.478000  28.118000
2653   1   2   -40.757000   19.631000  21.544000
2654   1   2   -40.755000   19.636000  30.275000
2655   1   2   -40.736000   19.605000  25.914000
2656   1   2   -40.746000   19.616000  23.713000
2657   1   2   -40.731000   19.596000  28.025000
2658   1   2   -43.302000   19.631000  21.56000
2659   1   2   -43.287000   19.643000  30.26000
2660   1   2   -43.283000   19.607000  25.917000
2661   1   2   -43.29000   19.62000  23.723000
2662   1   2   -43.282000   19.597000  28.015000
2663   1   2   -45.834000   19.618000  21.57000
2664   1   2   -45.814000   19.634000  30.266000
2665   1   2   -45.816000   19.595000  25.926000
2666   1   2   -45.823000   19.608000  23.733000
2667   1   2   -52.694000   11.575000  27.998000
2668   1   2   -40.756000   10.241000  21.639000
2669   1   2   -40.759000   10.245000  30.367000
2670   1   2   -40.738000   10.271000  25.997000
2671   1   2   -40.732000   10.28000  23.884000
2672   1   2   -40.747000   10.261000  28.194000
2673   1   2   -43.302000   10.279000  21.653000
2674   1   2   -43.312000   10.29000  30.352000
2675   1   2   -43.294000   10.313000  25.994000
2676   1   2   -43.294000   10.323000  23.896000
2677   1   2   -43.3000   10.299000  28.187000
2678   1   2   -45.832000   10.337000  21.646000
2679   1   2   -45.844000   10.354000  30.343000
2680   1   2   -45.828000   10.376000  25.986000
2681   1   2   -45.83000   10.385000  23.89000
2682   1   2   -45.834000   10.363000  28.179000
2683   1   2   -48.363000   10.425000  21.639000
2684   1   2   -48.375000   10.449000  30.33000
2685   1   2   -48.36000   10.465000  25.976000
2686   1   2   -48.361000   10.473000  23.882000
2687   1   2   -48.365000   10.453000  28.167000
2688   1   2   -50.879000   10.57000  21.649000
2689   1   2   -50.879000   10.597000  30.313000
2690   1   2   -50.864000   10.604000  25.966000
2691   1   2   -50.874000   10.613000  23.878000
2692   1   2   -50.87000   10.595000  28.147000
2693   1   2   -52.671000   11.637000  21.467000
2694   1   2   -52.68000   11.645000  30.229000
2695   1   2   -52.671000   11.603000  25.928000
2696   1   2   -52.727000   11.575000  23.733000
2697   1   2   -54.158000   15.457000  20.299000
2698   1   4   -65.871000   27.668000  21.612000
2699   1   4   -65.932000   18.677000  21.627000
2700   1   4   -65.89000   20.783000  21.599000
2701   1   4   -65.894000   18.675000  30.346000
2702   1   4   -65.899000   20.779000  30.325000
2703   1   4   -65.952000   18.673000  25.997000
2704   1   4   -65.935000   20.782000  25.951000
2705   1   4   -65.947000   18.672000  23.808000
2706   1   4   -65.942000   20.781000  23.838000
2707   1   4   -65.952000   18.676000  28.108000
2708   1   4   -65.922000   20.783000  28.141000
2709   1   4   -65.887000   29.794000  25.94000
2710   1   4   -65.887000   27.665000  23.792000
2711   1   4   -65.893000   29.791000  23.83000
2712   1   4   -65.895000   27.663000  28.094000
2713   1   4   -65.876000   29.787000  28.128000
2714   1   4   -65.829000   32.191000  21.606000
2715   1   4   -65.758000   34.387000  21.494000
2716   1   4   -65.796000   34.405000  30.341000
2717   1   4   -65.851000   32.2000  25.979000
2718   1   4   -65.82000   34.424000  25.932000
2719   1   4   -65.83000   34.408000  23.784000
2720   1   4   -65.809000   34.403000  28.175000
2721   1   4   -66.013000   9.692000  21.64000
2722   1   4   -65.969000   11.786000  21.62000
2723   1   4   -65.977000   9.688000  30.365000
2724   1   4   -65.978000   11.785000  30.34000
2725   1   4   -66.035000   9.689000  26.013000
2726   1   4   -66.012000   11.789000  25.97000
2727   1   4   -66.03000   9.688000  23.823000
2728   1   4   -66.019000   11.786000  23.858000
2729   1   4   -66.036000   9.692000  28.126000
2730   1   4   -66.0000   11.79000  28.159000
2731   1   4   -66.089000   5.217000  21.647000
2732   1   4   -66.024000   7.309000  21.625000
2733   1   4   -66.054000   5.208000  30.369000
2734   1   4   -66.035000   7.305000  30.346000
2735   1   4   -66.111000   5.209000  26.019000
2736   1   4   -66.069000   7.31000  25.976000
2737   1   4   -65.86000   29.77000  30.308000
2738   1   4   -66.106000   5.21000  23.829000
2739   1   4   -66.075000   7.308000  23.864000
2740   1   4   -65.854000   32.193000  28.099000
2741   1   4   -66.112000   5.211000  28.131000
2742   1   4   -65.844000   32.197000  23.786000
2743   1   4   -66.057000   7.31000  28.166000
2744   1   4   -65.894000   23.172000  21.616000
2745   1   4   -65.863000   25.278000  21.592000
2746   1   4   -65.857000   23.166000  30.339000
2747   1   4   -65.874000   25.267000  30.318000
2748   1   4   -65.916000   23.166000  25.988000
2749   1   4   -65.909000   25.277000  25.944000
2750   1   4   -65.91000   23.166000  23.798000
2751   1   4   -65.916000   25.275000  23.831000
2752   1   4   -65.801000   32.179000  30.34000
2753   1   4   -65.916000   23.168000  28.1000
2754   1   4   -65.897000   25.274000  28.133000
2755   1   4   -66.186000   0.724000  21.658000
2756   1   4   -66.111000   2.831000  21.629000
2757   1   4   -66.146000   0.711000  30.368000
2758   1   4   -66.121000   2.821000  30.348000
2759   1   4   -66.201000   0.7000  26.021000
2760   1   4   -66.155000   2.824000  25.98000
2761   1   4   -66.196000   0.707000  23.835000
2762   1   4   -66.161000   2.825000  23.869000
2763   1   4   -66.201000   0.704000  28.131000
2764   1   4   -66.142000   2.824000  28.17000
2765   1   4   -65.838000   27.656000  30.334000
2766   1   4   -65.894000   27.665000  25.982000
2767   1   4   -65.842000   29.783000  21.592000
2768   1   4   -65.974000   14.174000  21.636000
2769   1   4   -65.934000   16.286000  21.611000
2770   1   4   -65.936000   14.173000  30.356000
2771   1   4   -65.942000   16.286000  30.332000
2772   1   4   -65.993000   14.172000  26.006000
2773   1   4   -65.976000   16.288000  25.961000
2774   1   4   -65.989000   14.171000  23.816000
2775   1   4   -65.984000   16.285000  23.849000
2776   1   4   -65.994000   14.175000  28.117000
2777   1   4   -65.964000   16.289000  28.151000
2778   1   4   -66.243000   -3.905000  21.626000
2779   1   4   -66.189000   -1.684000  21.624000
2780   1   4   -66.182000   -3.888000  30.466000
2781   1   4   -66.195000   -1.695000  30.353000
2782   1   4   -66.254000   -3.923000  26.03000
2783   1   4   -66.228000   -1.703000  25.982000
2784   1   4   -66.249000   -3.902000  23.788000
2785   1   4   -66.236000   -1.697000  23.864000
2786   1   4   -66.259000   -3.907000  28.178000
2787   1   4   -66.215000   -1.701000  28.175000
2788   1   2   -47.585000   15.711000  20.395000
2789   1   2   -46.328000   13.54000  20.32000
2790   1   2   -47.515000   14.193000  31.569000
2791   1   2   -46.243000   16.325000  31.629000
2792   1   2   -50.006000   15.722000  20.386000
2793   1   2   -48.908000   13.549000  20.318000
2794   1   2   -50.037000   14.292000  31.64000
2795   1   2   -48.762000   16.399000  31.67000
2796   1   2   -51.456000   13.348000  20.413000
2797   1   2   -51.431000   16.321000  31.656000
2798   1   2   -48.836000   17.441000  21.627000
2799   1   2   -46.281000   17.419000  25.954000
2800   1   2   -48.905000   12.489000  28.121000
2801   1   2   -51.925000   13.106000  26.209000
2802   1   2   -46.267000   12.479000  30.322000
2803   1   2   -46.307000   12.464000  23.798000
2804   1   2   -46.327000   12.436000  21.644000
2805   1   2   -52.15000   13.288000  22.016000
2806   1   2   -51.485000   17.22000  25.907000
2807   1   2   -51.499000   17.208000  28.209000
2808   1   2   -48.835000   17.471000  23.871000
2809   1   2   -51.489000   17.255000  30.179000
2810   1   2   -51.798000   12.959000  23.816000
2811   1   2   -46.291000   12.463000  25.99000
2812   1   2   -51.889000   13.155000  30.665000
2813   1   2   -48.805000   17.467000  25.961000
2814   1   2   -46.25000   17.447000  30.314000
2815   1   2   -46.327000   17.407000  21.628000
2816   1   2   -48.918000   12.493000  23.814000
2817   1   2   -46.304000   17.431000  23.861000
2818   1   2   -48.887000   12.525000  30.375000
2819   1   2   -48.954000   12.458000  21.658000
2820   1   2   -46.282000   12.454000  28.082000
2821   1   2   -51.851000   13.012000  28.114000
2822   1   2   -48.914000   12.497000  26.023000
2823   1   2   -48.772000   17.502000  30.334000
2824   1   2   -48.788000   17.467000  28.167000
2825   1   2   -51.552000   17.18000  23.888000
2826   1   2   -51.459000   17.211000  21.513000
2827   1   2   -46.264000   17.42000  28.143000
2828   1   2   -52.205000   15.455000  20.132000
2829   1   2   -37.373000   23.106000  21.533000
2830   1   2   -37.332000   23.067000  23.777000
2831   1   2   -36.111000   25.308000  21.537000
2832   1   2   -36.064000   25.276000  23.781000
2833   1   2   -36.068000   25.274000  25.874000
2834   1   2   -36.072000   25.272000  28.065000
2835   1   4   -34.672000   -5.919000  21.657000
2836   1   4   -34.707000   -5.911000  30.372000
2837   1   4   -34.664000   -5.92000  23.815000
2838   1   4   -34.663000   -5.929000  26.012000
2839   1   4   -34.667000   -5.941000  28.125000
2840   1   4   -37.258000   -5.862000  21.658000
2841   1   4   -37.28000   -5.853000  30.335000
2842   1   4   -37.25000   -5.865000  23.822000
2843   1   4   -37.25000   -5.875000  26.005000
2844   1   4   -37.259000   -5.889000  28.101000
2845   1   4   -39.826000   -5.799000  21.655000
2846   1   4   -39.844000   -5.789000  30.328000
2847   1   4   -39.823000   -5.805000  23.818000
2848   1   4   -39.825000   -5.816000  26.0000
2849   1   4   -39.833000   -5.83000  28.094000
2850   1   4   -42.398000   -5.733000  21.651000
2851   1   4   -42.412000   -5.721000  30.327000
2852   1   4   -42.399000   -5.741000  23.814000
2853   1   4   -42.402000   -5.753000  25.997000
2854   1   4   -42.408000   -5.766000  28.092000
2855   1   4   -44.971000   -5.662000  21.648000
2856   1   4   -44.983000   -5.647000  30.326000
2857   1   4   -44.974000   -5.67000  23.811000
2858   1   4   -44.977000   -5.681000  25.994000
2859   1   4   -44.981000   -5.693000  28.091000
2860   1   4   -47.542000   -5.584000  21.647000
2861   1   4   -47.55000   -5.566000  30.327000
2862   1   4   -47.545000   -5.591000  23.809000
2863   1   4   -47.547000   -5.602000  25.994000
2864   1   4   -47.55000   -5.613000  28.091000
2865   1   4   -50.105000   -5.502000  21.647000
2866   1   4   -50.109000   -5.481000  30.328000
2867   1   4   -50.107000   -5.509000  23.809000
2868   1   4   -50.109000   -5.52000  25.994000
2869   1   4   -50.111000   -5.53000  28.092000
2870   1   4   -52.658000   -5.422000  21.649000
2871   1   4   -52.658000   -5.398000  30.33000
2872   1   4   -52.659000   -5.428000  23.81000
2873   1   4   -52.66000   -5.438000  25.996000
2874   1   4   -52.66000   -5.447000  28.093000
2875   1   4   -55.199000   -5.349000  21.653000
2876   1   4   -55.195000   -5.323000  30.333000
2877   1   4   -55.201000   -5.355000  23.813000
2878   1   4   -55.201000   -5.364000  25.999000
2879   1   4   -55.199000   -5.373000  28.095000
2880   1   4   -57.732000   -5.29000  21.659000
2881   1   4   -57.723000   -5.262000  30.336000
2882   1   4   -57.736000   -5.295000  23.818000
2883   1   4   -57.735000   -5.303000  26.003000
2884   1   4   -57.731000   -5.311000  28.098000
2885   1   4   -60.256000   -5.248000  21.666000
2886   1   4   -60.242000   -5.22000  30.34000
2887   1   4   -60.266000   -5.251000  23.823000
2888   1   4   -60.267000   -5.258000  26.008000
2889   1   4   -60.259000   -5.267000  28.103000
2890   1   4   -62.762000   -5.232000  21.662000
2891   1   4   -62.739000   -5.205000  30.357000
2892   1   4   -62.779000   -5.235000  23.824000
2893   1   4   -62.782000   -5.24000  26.01000
2894   1   4   -62.777000   -5.248000  28.121000
2895   1   4   -65.218000   -5.325000  21.493000
2896   1   4   -65.189000   -5.308000  30.432000
2897   1   4   -65.263000   -5.337000  23.784000
2898   1   4   -65.258000   -5.352000  26.009000
2899   1   4   -65.275000   -5.345000  28.181000
2900   1   2   -35.006000   16.262000  31.56000
2901   1   2   -33.078000   19.855000  20.315000
2902   1   2   -33.311000   18.354000  31.559000
2903   1   2   -31.946000   20.552000  31.546000
2904   1   2   -35.556000   20.025000  20.187000
2905   1   2   -34.458000   17.782000  20.248000
2906   1   2   -35.817000   18.557000  31.51000
2907   1   2   -34.436000   20.619000  31.48000
2908   1   2   -37.06000   18.233000  20.084000
2909   1   2   -30.538000   24.285000  20.355000
2910   1   2   -30.668000   22.772000  31.569000
2911   1   2   -29.45000   24.988000  31.604000
2912   1   2   -33.005000   24.277000  20.288000
2913   1   2   -31.779000   22.061000  20.336000
2914   1   2   -33.139000   22.768000  31.495000
2915   1   2   -31.904000   24.972000  31.515000
2916   1   2   -34.239000   22.1000  20.253000
2917   1   2   -30.489000   28.723000  20.341000
2918   1   2   -29.298000   26.483000  20.376000
2919   1   2   -30.677000   27.196000  31.537000
2920   1   2   -29.404000   29.397000  31.562000
2921   1   2   -31.776000   26.5000  20.318000
2922   1   2   -27.994000   28.604000  20.397000
2923   1   2   -28.239000   27.154000  31.651000
2924   1   2   -27.193000   26.633000  21.622000
2925   1   2   -27.231000   26.585000  30.357000
2926   1   2   -27.187000   26.602000  25.976000
2927   1   2   -27.168000   26.602000  23.861000
2928   1   2   -27.213000   26.595000  28.172000
2929   1   2   -34.377000   15.559000  21.373000
2930   1   2   -34.383000   15.454000  30.137000
2931   1   2   -34.431000   15.467000  25.787000
2932   1   2   -34.456000   15.461000  23.698000
2933   1   2   -34.412000   15.456000  28.073000
2934   1   2   -30.988000   19.983000  30.226000
2935   1   2   -32.399000   17.73000  30.224000
2936   1   2   -32.412000   17.743000  25.859000
2937   1   2   -32.419000   17.737000  28.058000
2938   1   2   -28.431000   24.519000  21.594000
2939   1   2   -28.428000   24.472000  25.938000
2940   1   2   -28.409000   24.48000  23.833000
2941   1   2   -28.447000   24.462000  28.13000
2942   1   2   -29.667000   22.313000  21.575000
2943   1   2   -29.684000   22.231000  30.254000
2944   1   2   -29.677000   22.26000  25.909000
2945   1   2   -29.653000   22.272000  23.813000
2946   1   2   -29.692000   22.248000  28.097000
2947   1   2   -28.449000   24.447000  30.298000
2948   1   2   -32.379000   17.793000  21.528000
2949   1   2   -32.397000   17.742000  23.765000
2950   1   2   -30.963000   20.06000  21.561000
2951   1   2   -30.963000   20.018000  23.796000
2952   1   2   -30.99000   20.008000  25.887000
2953   1   2   -31.002000   19.997000  28.072000
2954   1   2   -37.836000   18.07000  21.592000
2955   1   2   -32.745000   26.971000  28.044000
2956   1   2   -33.954000   24.782000  23.76000
2957   1   2   -37.94000   18.049000  27.97000
2958   1   2   -31.41000   29.286000  21.685000
2959   1   2   -32.714000   26.983000  25.971000
2960   1   2   -31.471000   29.185000  30.3000
2961   1   2   -35.201000   22.632000  23.73000
2962   1   2   -35.239000   22.609000  28.009000
2963   1   2   -37.942000   17.915000  30.383000
2964   1   2   -33.986000   24.727000  30.267000
2965   1   2   -36.536000   20.541000  25.895000
2966   1   2   -37.913000   18.108000  25.925000
2967   1   2   -31.444000   29.222000  28.059000
2968   1   2   -35.216000   22.616000  25.918000
2969   1   2   -32.724000   27.035000  21.656000
2970   1   2   -31.404000   29.232000  25.992000
2971   1   2   -35.205000   22.666000  21.569000
2972   1   2   -36.512000   20.604000  21.511000
2973   1   2   -35.228000   22.588000  30.246000
2974   1   2   -33.97000   24.814000  21.616000
2975   1   2   -36.548000   20.521000  30.245000
2976   1   2   -32.701000   27.002000  23.787000
2977   1   2   -36.561000   20.527000  27.995000
2978   1   2   -36.519000   20.565000  23.689000
2979   1   2   -32.752000   26.936000  30.285000
2980   1   2   -33.965000   24.766000  25.946000
2981   1   2   -31.387000   29.252000  23.809000
2982   1   2   -37.91000   18.124000  23.607000
2983   1   2   -33.99000   24.757000  28.027000
2984   1   4   -32.136000   34.345000  28.058000
2985   1   4   -32.143000   34.352000  25.933000
2986   1   4   -32.151000   34.359000  23.728000
2987   1   4   -32.165000   34.319000  30.31000
2988   1   4   -32.168000   34.362000  21.549000
2989   1   4   -32.495000   -4.72000  25.979000
2990   1   4   -32.519000   -4.722000  30.363000
2991   1   4   -32.513000   -4.688000  21.603000
2992   1   4   -32.487000   -4.715000  23.854000
2993   1   4   -32.503000   -4.724000  28.183000
2994   1   2   -36.136000   16.223000  19.939000
2995   1   2   -42.648000   15.753000  20.319000
2996   1   2   -41.206000   13.535000  20.229000
2997   1   2   -42.432000   14.235000  31.571000
2998   1   2   -41.146000   16.295000  31.619000
2999   1   2   -40.19000   15.56000  20.116000
3000   1   2   -40.524000   13.0000  23.674000
3001   1   2   -40.565000   13.004000  30.456000
3002   1   2   -40.472000   13.131000  21.725000
3003   1   2   -40.494000   12.969000  28.035000
3004   1   2   -41.044000   17.294000  23.803000
3005   1   2   -41.145000   17.307000  21.471000
3006   1   2   -40.992000   17.259000  28.152000
3007   1   2   -40.488000   13.018000  26.015000
3008   1   2   -41.029000   17.28000  25.884000
3009   1   2   -40.901000   17.286000  30.204000
3010   1   2   -45.08000   15.706000  20.376000
3011   1   2   -43.744000   13.545000  20.273000
3012   1   2   -44.964000   14.172000  31.545000
3013   1   2   -43.735000   16.365000  31.635000
3014   1   2   -43.644000   12.466000  25.967000
3015   1   2   -43.636000   12.454000  28.07000
3016   1   2   -43.845000   17.444000  21.599000
3017   1   2   -43.665000   12.469000  23.762000
3018   1   2   -43.631000   12.486000  30.32000
3019   1   2   -43.779000   17.446000  25.933000
3020   1   2   -43.76000   17.445000  28.133000
3021   1   2   -43.75000   17.479000  30.305000
3022   1   2   -43.681000   12.451000  21.608000
3023   1   2   -43.801000   17.46000  23.84000
3024   1   2   -29.089000   30.914000  20.334000
3025   1   2   -28.054000   31.462000  31.635000
3026   1   2   -26.6000   30.606000  20.389000
3027   1   2   -26.956000   29.21000  31.734000
3028   1   2   -25.87000   28.642000  21.641000
3029   1   2   -25.945000   28.629000  30.438000
3030   1   2   -25.872000   28.632000  26.021000
3031   1   2   -25.847000   28.626000  23.894000
3032   1   2   -25.91000   28.628000  28.238000
3033   1   2   -29.968000   31.542000  21.685000
3034   1   2   -30.079000   31.45000  30.327000
3035   1   2   -30.023000   31.492000  28.085000
3036   1   2   -29.982000   31.49000  26.017000
3037   1   2   -29.954000   31.508000  23.821000
3038   1   2   -27.258000   32.932000  20.348000
3039   1   2   -26.37000   32.992000  31.958000
3040   1   2   -25.47000   30.96000  31.849000
3041   1   2   -24.506000   30.973000  21.546000
3042   1   2   -24.692000   31.09000  30.33000
3043   1   2   -24.536000   30.941000  25.991000
3044   1   2   -24.486000   30.94000  23.959000
3045   1   2   -24.572000   30.932000  28.336000
3046   1   2   -27.837000   33.773000  21.77000
3047   1   2   -28.082000   33.667000  30.472000
3048   1   2   -27.92000   33.738000  28.151000
3049   1   2   -27.897000   33.725000  26.089000
3050   1   2   -27.855000   33.736000  23.811000
3051   1   2   -23.349000   33.761000  20.356000
3052   1   2   -24.695000   34.325000  31.749000
3053   1   2   -25.116000   34.881000  23.928000
3054   1   2   -23.291000   32.384000  21.324000
3055   1   2   -25.329000   34.817000  30.253000
3056   1   2   -23.482000   32.407000  30.498000
3057   1   2   -25.205000   34.88000  28.276000
3058   1   2   -23.39000   32.364000  26.083000
3059   1   2   -23.345000   32.383000  23.914000
3060   1   2   -23.44000   32.372000  28.3000
3061   1   2   -25.1000   34.835000  21.567000
3062   1   2   -25.169000   34.854000  25.985000
3063   1   2   -37.779000   14.807000  20.104000
3064   1   2   -38.833000   14.329000  31.486000
3065   1   2   -38.873000   16.516000  23.613000
3066   1   2   -37.064000   14.269000  21.557000
3067   1   2   -38.709000   16.034000  31.405000
3068   1   2   -36.869000   14.139000  30.343000
3069   1   2   -38.832000   16.426000  28.046000
3070   1   2   -37.05000   14.154000  25.918000
3071   1   2   -37.092000   14.152000  23.619000
3072   1   2   -37.041000   14.086000  28.028000
3073   1   2   -38.89000   16.583000  21.62000
3074   1   2   -38.845000   16.505000  26.062000
3075   2   1   -13.5000   33.198000  31.258000
3076   2   1   -13.27000   33.234000  22.332000
3077   2   1   -13.383000   33.176000  26.759000
3078   2   1   -13.428000   33.175000  28.296000
3079   2   1   -13.312000   33.188000  23.877000
3080   2   2   -13.327000   33.111000  32.331000
3081   2   2   -13.667000   32.206000  30.922000
3082   2   2   -13.478000   32.324000  21.803000
3083   2   2   -13.57000   32.216000  26.35000
3084   2   2   -13.655000   32.22000  28.701000
3085   2   2   -13.518000   32.209000  24.222000
3086   2   1   4.711000   -0.644000  30.661000
3087   2   1   4.72000   -2.123000  30.184000
3088   2   3   4.743000   -5.015000  30.844000
3089   2   1   4.69000   2.282000  30.11000
3090   2   1   4.68000   3.755000  30.6000
3091   2   1   3.425000   0.069000  30.142000
3092   2   1   3.418000   1.546000  30.628000
3093   2   3   3.453000   -4.347000  30.265000
3094   2   1   3.444000   -2.854000  30.709000
3095   2   1   3.395000   4.477000  30.089000
3096   2   1   4.718000   -0.766000  22.319000
3097   2   1   4.701000   2.167000  21.771000
3098   2   1   4.689000   3.647000  22.253000
3099   2   1   4.727000   -2.241000  21.827000
3100   2   3   4.75000   -5.159000  22.341000
3101   2   1   3.451000   -2.986000  22.337000
3102   2   1   3.435000   -0.052000  21.802000
3103   2   3   3.461000   -4.458000  21.827000
3104   2   1   3.426000   1.427000  22.285000
3105   2   1   3.411000   4.36000  21.725000
3106   2   1   4.719000   -2.155000  28.618000
3107   2   1   4.709000   -0.714000  26.499000
3108   2   1   4.709000   -0.689000  28.064000
3109   2   1   4.687000   2.232000  25.932000
3110   2   1   4.673000   3.715000  26.435000
3111   2   1   4.72000   -2.2000  25.998000
3112   2   1   4.687000   2.265000  28.544000
3113   2   3   4.743000   -5.087000  28.149000
3114   2   1   4.674000   3.734000  28.001000
3115   2   3   4.743000   -5.113000  26.594000
3116   2   1   3.441000   -2.915000  28.111000
3117   2   1   3.441000   -2.941000  26.535000
3118   2   1   3.422000   0.045000  28.576000
3119   2   1   3.421000   0.005000  25.964000
3120   2   3   3.452000   -4.427000  26.03000
3121   2   3   3.452000   -4.381000  28.683000
3122   2   1   3.41000   1.491000  26.465000
3123   2   1   3.411000   1.513000  28.03000
3124   2   1   3.387000   4.438000  25.898000
3125   2   1   3.389000   4.467000  28.522000
3126   2   1   4.722000   -2.221000  24.43000
3127   2   1   4.713000   -0.75000  23.886000
3128   2   1   4.69000   2.209000  24.368000
3129   2   3   4.747000   -5.158000  23.899000
3130   2   1   4.679000   3.676000  23.82000
3131   2   1   3.445000   -2.977000  23.911000
3132   2   1   3.424000   -0.017000  24.399000
3133   2   3   3.455000   -4.453000  24.449000
3134   2   1   3.416000   1.453000  23.852000
3135   2   1   3.39000   4.414000  24.329000
3136   2   1   7.275000   -0.615000  30.662000
3137   2   1   7.285000   -2.095000  30.184000
3138   2   3   7.312000   -4.987000  30.844000
3139   2   1   7.251000   2.308000  30.111000
3140   2   1   7.239000   3.779000  30.601000
3141   2   1   5.987000   0.093000  30.143000
3142   2   1   5.977000   1.569000  30.627000
3143   2   3   6.021000   -4.322000  30.265000
3144   2   1   6.009000   -2.829000  30.709000
3145   2   1   5.951000   4.491000  30.086000
3146   2   1   7.28000   -0.733000  22.32000
3147   2   1   7.259000   2.199000  21.774000
3148   2   1   7.248000   3.678000  22.259000
3149   2   1   7.289000   -2.208000  21.826000
3150   2   3   7.317000   -5.127000  22.338000
3151   2   1   6.014000   -2.956000  22.337000
3152   2   1   5.993000   -0.023000  21.805000
3153   2   3   6.026000   -4.429000  21.826000
3154   2   1   5.984000   1.456000  22.29000
3155   2   1   5.963000   4.386000  21.739000
3156   2   1   7.285000   -2.126000  28.618000
3157   2   1   7.275000   -0.685000  26.5000
3158   2   1   7.275000   -0.66000  28.065000
3159   2   1   7.251000   2.259000  25.934000
3160   2   1   7.238000   3.74000  26.438000
3161   2   1   7.286000   -2.17000  25.998000
3162   2   1   7.25000   2.292000  28.545000
3163   2   3   7.313000   -5.058000  28.148000
3164   2   1   7.238000   3.758000  28.003000
3165   2   3   7.314000   -5.084000  26.593000
3166   2   1   6.009000   -2.89000  28.111000
3167   2   1   6.01000   -2.916000  26.535000
3168   2   1   5.986000   0.069000  28.576000
3169   2   1   5.986000   0.03000  25.965000
3170   2   3   6.022000   -4.402000  26.029000
3171   2   3   6.021000   -4.357000  28.682000
3172   2   1   5.975000   1.514000  26.467000
3173   2   1   5.975000   1.535000  28.03000
3174   2   1   5.949000   4.456000  25.903000
3175   2   1   5.949000   4.484000  28.519000
3176   2   1   7.287000   -2.191000  24.429000
3177   2   1   7.278000   -0.719000  23.887000
3178   2   1   7.253000   2.237000  24.37000
3179   2   3   7.316000   -5.127000  23.897000
3180   2   1   7.242000   3.704000  23.825000
3181   2   1   6.012000   -2.95000  23.911000
3182   2   1   5.988000   0.009000  24.401000
3183   2   3   6.024000   -4.427000  24.448000
3184   2   1   5.979000   1.478000  23.856000
3185   2   1   5.952000   4.433000  24.337000
3186   2   1   9.839000   -0.577000  30.662000
3187   2   1   9.849000   -2.057000  30.185000
3188   2   3   9.878000   -4.952000  30.843000
3189   2   1   9.816000   2.348000  30.113000
3190   2   1   9.806000   3.82000  30.603000
3191   2   1   8.55000   0.126000  30.144000
3192   2   1   8.541000   1.602000  30.628000
3193   2   3   8.588000   -4.29000  30.265000
3194   2   1   8.574000   -2.796000  30.71000
3195   2   1   8.514000   4.52000  30.089000
3196   2   1   9.843000   -0.691000  22.319000
3197   2   1   9.821000   2.243000  21.776000
3198   2   1   9.812000   3.722000  22.261000
3199   2   1   9.851000   -2.167000  21.825000
3200   2   3   9.882000   -5.088000  22.336000
3201   2   1   8.578000   -2.92000  22.335000
3202   2   1   8.555000   0.015000  21.805000
3203   2   3   8.591000   -4.392000  21.823000
3204   2   1   8.547000   1.493000  22.291000
3205   2   1   8.522000   4.421000  21.743000
3206   2   1   9.849000   -2.088000  28.618000
3207   2   1   9.84000   -0.646000  26.5000
3208   2   1   9.84000   -0.622000  28.066000
3209   2   1   9.816000   2.299000  25.936000
3210   2   1   9.805000   3.781000  26.441000
3211   2   1   9.85000   -2.132000  25.997000
3212   2   1   9.816000   2.332000  28.547000
3213   2   3   9.88000   -5.022000  28.147000
3214   2   1   9.805000   3.799000  28.005000
3215   2   3   9.881000   -5.048000  26.591000
3216   2   1   8.575000   -2.857000  28.111000
3217   2   1   8.576000   -2.883000  26.535000
3218   2   1   8.55000   0.102000  28.578000
3219   2   1   8.551000   0.064000  25.966000
3220   2   3   8.589000   -4.369000  26.028000
3221   2   3   8.588000   -4.324000  28.682000
3222   2   1   8.541000   1.548000  26.468000
3223   2   1   8.541000   1.569000  28.032000
3224   2   1   8.513000   4.487000  25.906000
3225   2   1   8.512000   4.514000  28.522000
3226   2   1   9.851000   -2.151000  24.429000
3227   2   1   9.842000   -0.678000  23.886000
3228   2   1   9.818000   2.279000  24.372000
3229   2   3   9.882000   -5.09000  23.894000
3230   2   1   9.808000   3.746000  23.828000
3231   2   1   8.577000   -2.915000  23.909000
3232   2   1   8.552000   0.044000  24.401000
3233   2   3   8.591000   -4.393000  24.446000
3234   2   1   8.544000   1.513000  23.857000
3235   2   1   8.515000   4.465000  24.341000
3236   2   1   12.402000   -0.532000  30.662000
3237   2   1   12.409000   -2.014000  30.184000
3238   2   3   12.439000   -4.912000  30.843000
3239   2   1   12.381000   2.403000  30.114000
3240   2   1   12.375000   3.88000  30.603000
3241   2   1   11.114000   0.17000  30.145000
3242   2   1   11.107000   1.648000  30.629000
3243   2   3   11.151000   -4.25000  30.264000
3244   2   1   11.137000   -2.757000  30.71000
3245   2   1   11.081000   4.573000  30.09000
3246   2   1   12.403000   -0.644000  22.319000
3247   2   1   12.384000   2.3000  21.778000
3248   2   1   12.378000   3.784000  22.263000
3249   2   1   12.41000   -2.121000  21.824000
3250   2   3   12.441000   -5.045000  22.334000
3251   2   1   11.139000   -2.877000  22.334000
3252   2   1   11.116000   0.062000  21.805000
3253   2   3   11.152000   -4.35000  21.821000
3254   2   1   11.11000   1.542000  22.292000
3255   2   1   11.086000   4.476000  21.746000
3256   2   1   12.41000   -2.045000  28.618000
3257   2   1   12.402000   -0.6000  26.5000
3258   2   1   12.402000   -0.577000  28.066000
3259   2   1   12.381000   2.353000  25.937000
3260   2   1   12.373000   3.84000  26.442000
3261   2   1   12.41000   -2.087000  25.997000
3262   2   1   12.381000   2.386000  28.548000
3263   2   3   12.441000   -4.982000  28.145000
3264   2   1   12.373000   3.858000  28.007000
3265   2   3   12.441000   -5.006000  26.59000
3266   2   1   11.138000   -2.817000  28.11000
3267   2   1   11.139000   -2.842000  26.534000
3268   2   1   11.114000   0.146000  28.578000
3269   2   1   11.114000   0.108000  25.966000
3270   2   3   11.152000   -4.328000  26.026000
3271   2   3   11.151000   -4.284000  28.681000
3272   2   1   11.107000   1.594000  26.469000
3273   2   1   11.107000   1.615000  28.033000
3274   2   1   11.079000   4.538000  25.909000
3275   2   1   11.079000   4.565000  28.524000
3276   2   1   12.41000   -2.106000  24.428000
3277   2   1   12.403000   -0.632000  23.886000
3278   2   1   12.381000   2.334000  24.373000
3279   2   3   12.442000   -5.047000  23.892000
3280   2   1   12.375000   3.806000  23.83000
3281   2   1   11.139000   -2.874000  23.908000
3282   2   1   11.115000   0.089000  24.401000
3283   2   3   11.153000   -4.351000  24.444000
3284   2   1   11.108000   1.561000  23.858000
3285   2   1   11.081000   4.517000  24.343000
3286   2   1   14.959000   -0.486000  30.662000
3287   2   1   14.966000   -1.97000  30.184000
3288   2   3   14.992000   -4.873000  30.842000
3289   2   1   14.942000   2.461000  30.113000
3290   2   1   14.937000   3.946000  30.6000
3291   2   1   13.674000   0.219000  30.145000
3292   2   1   13.67000   1.701000  30.629000
3293   2   3   13.708000   -4.208000  30.263000
3294   2   1   13.696000   -2.714000  30.71000
3295   2   1   13.648000   4.647000  30.09000
3296   2   1   14.959000   -0.597000  22.318000
3297   2   1   14.942000   2.359000  21.779000
3298   2   1   14.938000   3.849000  22.265000
3299   2   1   14.965000   -2.076000  21.823000
3300   2   3   14.992000   -5.004000  22.332000
3301   2   1   13.696000   -2.833000  22.333000
3302   2   1   13.675000   0.113000  21.805000
3303   2   3   13.708000   -4.305000  21.819000
3304   2   1   13.671000   1.597000  22.292000
3305   2   1   13.652000   4.551000  21.75000
3306   2   1   14.966000   -2.001000  28.618000
3307   2   1   14.959000   -0.555000  26.5000
3308   2   1   14.959000   -0.531000  28.065000
3309   2   1   14.94000   2.41000  25.937000
3310   2   1   14.934000   3.902000  26.442000
3311   2   1   14.966000   -2.043000  25.996000
3312   2   1   14.941000   2.442000  28.547000
3313   2   3   14.994000   -4.941000  28.144000
3314   2   1   14.934000   3.921000  28.006000
3315   2   3   14.994000   -4.966000  26.589000
3316   2   1   13.696000   -2.774000  28.11000
3317   2   1   13.697000   -2.799000  26.533000
3318   2   1   13.674000   0.195000  28.578000
3319   2   1   13.674000   0.158000  25.966000
3320   2   3   13.709000   -4.285000  26.025000
3321   2   3   13.709000   -4.241000  28.681000
3322   2   1   13.669000   1.646000  26.469000
3323   2   1   13.669000   1.667000  28.033000
3324   2   1   13.645000   4.609000  25.911000
3325   2   1   13.646000   4.637000  28.523000
3326   2   1   14.966000   -2.062000  24.427000
3327   2   1   14.959000   -0.586000  23.886000
3328   2   1   14.941000   2.391000  24.373000
3329   2   3   14.993000   -5.006000  23.891000
3330   2   1   14.935000   3.87000  23.832000
3331   2   1   13.696000   -2.829000  23.907000
3332   2   1   13.674000   0.139000  24.401000
3333   2   3   13.709000   -4.308000  24.443000
3334   2   1   13.669000   1.614000  23.859000
3335   2   1   13.646000   4.588000  24.345000
3336   2   1   17.513000   -0.448000  30.66000
3337   2   1   17.518000   -1.933000  30.182000
3338   2   3   17.538000   -4.839000  30.84000
3339   2   1   17.497000   2.508000  30.111000
3340   2   1   17.491000   3.998000  30.596000
3341   2   1   16.231000   0.265000  30.144000
3342   2   1   16.226000   1.751000  30.627000
3343   2   3   16.259000   -4.169000  30.262000
3344   2   1   16.249000   -2.674000  30.709000
3345   2   1   16.207000   4.715000  30.087000
3346   2   1   17.51000   -0.558000  22.318000
3347   2   1   17.494000   2.406000  21.779000
3348   2   1   17.488000   3.901000  22.265000
3349   2   1   17.515000   -2.038000  21.822000
3350   2   3   17.535000   -4.969000  22.331000
3351   2   1   16.247000   -2.792000  22.332000
3352   2   1   16.229000   0.16000  21.805000
3353   2   3   16.256000   -4.265000  21.817000
3354   2   1   16.225000   1.646000  22.292000
3355   2   1   16.207000   4.621000  21.753000
3356   2   1   17.519000   -1.964000  28.616000
3357   2   1   17.513000   -0.517000  26.498000
3358   2   1   17.513000   -0.493000  28.064000
3359   2   1   17.496000   2.454000  25.936000
3360   2   1   17.488000   3.951000  26.439000
3361   2   1   17.518000   -2.007000  25.995000
3362   2   1   17.496000   2.488000  28.545000
3363   2   3   17.539000   -4.907000  28.142000
3364   2   1   17.489000   3.969000  28.004000
3365   2   3   17.539000   -4.932000  26.587000
3366   2   1   16.249000   -2.734000  28.109000
3367   2   1   16.249000   -2.759000  26.532000
3368   2   1   16.231000   0.24000  28.577000
3369   2   1   16.23000   0.203000  25.966000
3370   2   3   16.259000   -4.245000  26.023000
3371   2   3   16.259000   -4.202000  28.679000
3372   2   1   16.225000   1.694000  26.468000
3373   2   1   16.225000   1.716000  28.033000
3374   2   1   16.203000   4.673000  25.91000
3375   2   1   16.205000   4.701000  28.52000
3376   2   1   17.517000   -2.025000  24.426000
3377   2   1   17.511000   -0.547000  23.885000
3378   2   1   17.495000   2.436000  24.372000
3379   2   3   17.537000   -4.972000  23.89000
3380   2   1   17.488000   3.92000  23.831000
3381   2   1   16.248000   -2.789000  23.906000
3382   2   1   16.23000   0.184000  24.401000
3383   2   3   16.258000   -4.268000  24.442000
3384   2   1   16.225000   1.663000  23.859000
3385   2   1   16.204000   4.654000  24.345000
3386   2   1   20.063000   -0.423000  30.657000
3387   2   1   20.067000   -1.909000  30.18000
3388   2   3   20.076000   -4.817000  30.838000
3389   2   1   20.049000   2.535000  30.108000
3390   2   1   20.041000   4.029000  30.592000
3391   2   1   18.784000   0.299000  30.141000
3392   2   1   18.778000   1.787000  30.624000
3393   2   3   18.803000   -4.139000  30.26000
3394   2   1   18.797000   -2.644000  30.707000
3395   2   1   18.76000   4.759000  30.081000
3396   2   1   20.058000   -0.535000  22.318000
3397   2   1   20.044000   2.433000  21.779000
3398   2   1   20.036000   3.929000  22.264000
3399   2   1   20.062000   -2.015000  21.822000
3400   2   3   20.071000   -4.948000  22.331000
3401   2   1   18.793000   -2.762000  22.331000
3402   2   1   18.78000   0.193000  21.805000
3403   2   3   18.798000   -4.236000  21.816000
3404   2   1   18.775000   1.682000  22.292000
3405   2   1   18.756000   4.664000  21.753000
3406   2   1   20.07000   -1.941000  28.614000
3407   2   1   20.066000   -0.493000  26.497000
3408   2   1   20.065000   -0.469000  28.062000
3409   2   1   20.051000   2.48000  25.934000
3410   2   1   20.042000   3.978000  26.436000
3411   2   1   20.07000   -1.983000  25.994000
3412   2   1   20.051000   2.514000  28.542000
3413   2   3   20.08000   -4.885000  28.14000
3414   2   1   20.042000   3.997000  28.0000
3415   2   3   20.08000   -4.909000  26.586000
3416   2   1   18.798000   -2.704000  28.107000
3417   2   1   18.799000   -2.729000  26.531000
3418   2   1   18.785000   0.273000  28.575000
3419   2   1   18.785000   0.235000  25.964000
3420   2   3   18.805000   -4.216000  26.022000
3421   2   3   18.805000   -4.173000  28.677000
3422   2   1   18.778000   1.729000  26.467000
3423   2   1   18.778000   1.75000  28.03000
3424   2   1   18.759000   4.713000  25.908000
3425   2   1   18.76000   4.742000  28.515000
3426   2   1   20.067000   -2.002000  24.425000
3427   2   1   20.063000   -0.524000  23.885000
3428   2   1   20.049000   2.462000  24.371000
3429   2   3   20.076000   -4.95000  23.889000
3430   2   1   20.039000   3.948000  23.83000
3431   2   1   18.796000   -2.759000  23.905000
3432   2   1   18.783000   0.217000  24.4000
3433   2   3   18.803000   -4.238000  24.441000
3434   2   1   18.777000   1.698000  23.858000
3435   2   1   18.758000   4.695000  24.344000
3436   2   1   22.612000   -0.417000  30.656000
3437   2   1   22.616000   -1.903000  30.179000
3438   2   3   22.608000   -4.811000  30.836000
3439   2   1   22.6000   2.544000  30.107000
3440   2   1   22.588000   4.038000  30.59000
3441   2   1   21.336000   0.315000  30.139000
3442   2   1   21.328000   1.804000  30.621000
3443   2   3   21.342000   -4.124000  30.257000
3444   2   1   21.342000   -2.629000  30.705000
3445   2   1   21.31000   4.778000  30.077000
3446   2   1   22.607000   -0.53000  22.315000
3447   2   1   22.592000   2.439000  21.776000
3448   2   1   22.584000   3.935000  22.26000
3449   2   1   22.607000   -2.011000  21.82000
3450   2   3   22.601000   -4.944000  22.328000
3451   2   1   21.336000   -2.748000  22.33000
3452   2   1   21.329000   0.208000  21.804000
3453   2   3   21.335000   -4.222000  21.815000
3454   2   1   21.323000   1.697000  22.291000
3455   2   1   21.305000   4.68000  21.751000
3456   2   1   22.623000   -1.936000  28.613000
3457   2   1   22.624000   -0.487000  26.495000
3458   2   1   22.621000   -0.464000  28.061000
3459   2   1   22.611000   2.487000  25.932000
3460   2   1   22.6000   3.985000  26.434000
3461   2   1   22.626000   -1.978000  25.992000
3462   2   1   22.608000   2.521000  28.54000
3463   2   3   22.619000   -4.879000  28.139000
3464   2   1   22.598000   4.004000  27.998000
3465   2   3   22.621000   -4.902000  26.584000
3466   2   1   21.348000   -2.689000  28.105000
3467   2   1   21.349000   -2.714000  26.529000
3468   2   1   21.34000   0.288000  28.573000
3469   2   1   21.341000   0.25000  25.963000
3470   2   3   21.349000   -4.201000  26.02000
3471   2   3   21.347000   -4.158000  28.675000
3472   2   1   21.334000   1.745000  26.464000
3473   2   1   21.333000   1.766000  28.028000
3474   2   1   21.316000   4.728000  25.905000
3475   2   1   21.314000   4.759000  28.511000
3476   2   1   22.621000   -1.997000  24.423000
3477   2   1   22.617000   -0.518000  23.882000
3478   2   1   22.606000   2.469000  24.368000
3479   2   3   22.613000   -4.944000  23.887000
3480   2   1   22.594000   3.955000  23.826000
3481   2   1   21.343000   -2.744000  23.904000
3482   2   1   21.338000   0.232000  24.398000
3483   2   3   21.345000   -4.223000  24.44000
3484   2   1   21.329000   1.714000  23.857000
3485   2   1   21.313000   4.711000  24.341000
3486   2   1   25.157000   -0.427000  30.667000
3487   2   1   25.168000   -1.925000  30.194000
3488   2   3   25.133000   -4.832000  30.848000
3489   2   1   25.149000   2.538000  30.123000
3490   2   1   25.13000   4.037000  30.604000
3491   2   1   23.887000   0.313000  30.141000
3492   2   1   23.874000   1.803000  30.626000
3493   2   3   23.88000   -4.128000  30.259000
3494   2   1   23.885000   -2.635000  30.71000
3495   2   1   23.86000   4.779000  30.08000
3496   2   1   25.156000   -0.543000  22.295000
3497   2   1   25.134000   2.43000  21.758000
3498   2   1   25.132000   3.932000  22.239000
3499   2   1   25.151000   -2.035000  21.805000
3500   2   3   25.126000   -4.964000  22.307000
3501   2   1   23.879000   -2.757000  22.325000
3502   2   1   23.876000   0.204000  21.796000
3503   2   3   23.865000   -4.228000  21.806000
3504   2   1   23.871000   1.694000  22.284000
3505   2   1   23.851000   4.678000  21.74000
3506   2   1   25.185000   -1.96000  28.621000
3507   2   1   25.187000   -0.499000  26.493000
3508   2   1   25.184000   -0.475000  28.07000
3509   2   1   25.173000   2.48000  25.929000
3510   2   1   25.163000   3.984000  26.432000
3511   2   1   25.19000   -2.002000  25.99000
3512   2   1   25.166000   2.513000  28.55000
3513   2   3   25.159000   -4.896000  28.148000
3514   2   1   25.159000   4.003000  28.008000
3515   2   3   25.162000   -4.92000  26.582000
3516   2   1   23.901000   -2.695000  28.106000
3517   2   1   23.904000   -2.72000  26.528000
3518   2   1   23.898000   0.285000  28.574000
3519   2   1   23.903000   0.247000  25.96000
3520   2   3   23.896000   -4.205000  26.017000
3521   2   3   23.891000   -4.162000  28.678000
3522   2   1   23.895000   1.743000  26.463000
3523   2   1   23.892000   1.764000  28.029000
3524   2   1   23.878000   4.727000  25.902000
3525   2   1   23.872000   4.758000  28.514000
3526   2   1   25.184000   -2.02000  24.409000
3527   2   1   25.176000   -0.529000  23.869000
3528   2   1   25.167000   2.462000  24.354000
3529   2   3   25.151000   -4.961000  23.872000
3530   2   1   25.152000   3.954000  23.812000
3531   2   1   23.894000   -2.751000  23.898000
3532   2   1   23.898000   0.229000  24.393000
3533   2   3   23.891000   -4.228000  24.435000
3534   2   1   23.885000   1.712000  23.85000
3535   2   1   23.873000   4.709000  24.335000
3536   2   3   27.669000   -0.471000  30.784000
3537   2   3   27.691000   -1.924000  30.245000
3538   2   3   27.632000   -4.953000  30.995000
3539   2   3   27.671000   2.566000  30.176000
3540   2   3   27.638000   4.01000  30.726000
3541   2   1   26.445000   0.303000  30.179000
3542   2   1   26.419000   1.794000  30.665000
3543   2   3   26.439000   -4.18000  30.305000
3544   2   1   26.432000   -2.674000  30.747000
3545   2   1   26.415000   4.778000  30.12000
3546   2   3   27.68000   -0.591000  22.24000
3547   2   3   27.638000   2.456000  21.632000
3548   2   3   27.654000   3.903000  22.181000
3549   2   3   27.659000   -2.038000  21.685000
3550   2   3   27.628000   -5.107000  22.241000
3551   2   1   26.436000   -2.799000  22.281000
3552   2   1   26.422000   0.191000  21.752000
3553   2   3   26.404000   -4.282000  21.76000
3554   2   1   26.426000   1.683000  22.24000
3555   2   1   26.394000   4.675000  21.694000
3556   2   3   27.711000   -1.957000  28.681000
3557   2   3   27.708000   -0.546000  26.517000
3558   2   3   27.707000   -0.522000  28.076000
3559   2   3   27.694000   2.508000  25.899000
3560   2   3   27.686000   3.954000  26.457000
3561   2   3   27.709000   -1.999000  25.96000
3562   2   3   27.694000   2.542000  28.613000
3563   2   3   27.667000   -5.045000  28.158000
3564   2   3   27.684000   3.973000  28.015000
3565   2   3   27.668000   -5.075000  26.611000
3566   2   1   26.471000   -2.739000  28.125000
3567   2   1   26.472000   -2.764000  26.531000
3568   2   1   26.462000   0.275000  28.6000
3569   2   1   26.468000   0.238000  25.952000
3570   2   3   26.462000   -4.262000  26.01000
3571   2   3   26.455000   -4.218000  28.706000
3572   2   1   26.459000   1.733000  26.466000
3573   2   1   26.458000   1.754000  28.047000
3574   2   1   26.442000   4.726000  25.894000
3575   2   1   26.435000   4.756000  28.542000
3576   2   3   27.704000   -2.016000  24.399000
3577   2   3   27.704000   -0.576000  23.803000
3578   2   3   27.689000   2.49000  24.341000
3579   2   3   27.669000   -5.103000  23.793000
3580   2   3   27.681000   3.924000  23.744000
3581   2   1   26.459000   -2.792000  23.867000
3582   2   1   26.465000   0.22000  24.37000
3583   2   3   26.459000   -4.283000  24.409000
3584   2   1   26.447000   1.703000  23.818000
3585   2   1   26.439000   4.709000  24.312000
3586   2   1   4.654000   6.684000  30.08000
3587   2   1   4.645000   8.148000  30.605000
3588   2   1   3.386000   5.946000  30.592000
3589   2   1   3.365000   8.87000  30.105000
3590   2   1   4.669000   6.575000  21.685000
3591   2   1   4.654000   8.069000  22.134000
3592   2   1   3.394000   5.844000  22.199000
3593   2   1   3.379000   8.744000  21.539000
3594   2   1   4.647000   6.66000  25.871000
3595   2   1   4.636000   8.142000  26.387000
3596   2   1   4.648000   6.685000  28.506000
3597   2   1   4.635000   8.161000  27.976000
3598   2   1   3.372000   5.922000  26.406000
3599   2   1   3.372000   5.939000  27.986000
3600   2   1   3.356000   8.838000  25.816000
3601   2   1   3.355000   8.871000  28.538000
3602   2   1   4.651000   6.637000  24.291000
3603   2   1   4.643000   8.103000  23.721000
3604   2   1   3.378000   5.88000  23.773000
3605   2   1   3.358000   8.816000  24.252000
3606   2   1   7.208000   6.694000  30.082000
3607   2   1   7.19000   8.15000  30.609000
3608   2   1   5.937000   5.957000  30.587000
3609   2   1   5.913000   8.86000  30.094000
3610   2   1   7.22000   6.599000  21.698000
3611   2   1   7.201000   8.087000  22.15000
3612   2   1   5.948000   5.865000  22.219000
3613   2   1   5.926000   8.76000  21.565000
3614   2   1   7.206000   6.676000  25.878000
3615   2   1   7.187000   8.152000  26.395000
3616   2   1   7.206000   6.699000  28.507000
3617   2   1   7.187000   8.17000  27.978000
3618   2   1   5.933000   5.936000  26.411000
3619   2   1   5.933000   5.952000  27.98000
3620   2   1   5.908000   8.841000  25.827000
3621   2   1   5.908000   8.87000  28.536000
3622   2   1   7.209000   6.655000  24.3000
3623   2   1   7.193000   8.117000  23.734000
3624   2   1   5.939000   5.897000  23.786000
3625   2   1   5.911000   8.821000  24.27000
3626   2   1   9.768000   6.732000  30.086000
3627   2   1   9.742000   8.187000  30.613000
3628   2   1   8.497000   5.983000  30.591000
3629   2   1   8.454000   8.878000  30.102000
3630   2   1   9.777000   6.641000  21.703000
3631   2   1   9.751000   8.126000  22.158000
3632   2   1   8.506000   5.898000  22.225000
3633   2   1   8.467000   8.786000  21.576000
3634   2   1   9.766000   6.715000  25.882000
3635   2   1   9.739000   8.189000  26.401000
3636   2   1   9.766000   6.737000  28.511000
3637   2   1   9.739000   8.207000  27.983000
3638   2   1   8.496000   5.965000  26.415000
3639   2   1   8.496000   5.98000  27.984000
3640   2   1   8.453000   8.863000  25.835000
3641   2   1   8.451000   8.891000  28.542000
3642   2   1   9.769000   6.694000  24.305000
3643   2   1   9.744000   8.155000  23.741000
3644   2   1   8.5000   5.928000  23.791000
3645   2   1   8.456000   8.844000  24.279000
3646   2   1   12.336000   6.806000  30.084000
3647   2   1   12.307000   8.267000  30.606000
3648   2   1   11.067000   6.038000  30.592000
3649   2   1   11.0000   8.931000  30.103000
3650   2   1   12.342000   6.712000  21.709000
3651   2   1   12.308000   8.197000  22.165000
3652   2   1   11.071000   5.954000  22.229000
3653   2   1   11.012000   8.837000  21.585000
3654   2   1   12.332000   6.783000  25.885000
3655   2   1   12.298000   8.259000  26.402000
3656   2   1   12.333000   6.808000  28.511000
3657   2   1   12.299000   8.278000  27.982000
3658   2   1   11.063000   6.017000  26.418000
3659   2   1   11.063000   6.034000  27.987000
3660   2   1   10.998000   8.913000  25.84000
3661   2   1   10.997000   8.942000  28.543000
3662   2   1   12.333000   6.762000  24.31000
3663   2   1   12.302000   8.224000  23.747000
3664   2   1   11.066000   5.981000  23.795000
3665   2   1   11.001000   8.893000  24.285000
3666   2   1   14.911000   6.914000  30.078000
3667   2   1   14.894000   8.405000  30.588000
3668   2   1   13.64000   6.126000  30.586000
3669   2   1   13.558000   9.041000  30.087000
3670   2   1   14.916000   6.824000  21.723000
3671   2   1   14.89000   8.333000  22.188000
3672   2   1   13.642000   6.04000  22.233000
3673   2   1   13.565000   8.936000  21.597000
3674   2   1   14.905000   6.884000  25.889000
3675   2   1   14.883000   8.386000  26.402000
3676   2   1   14.907000   6.91000  28.505000
3677   2   1   14.888000   8.405000  27.98000
3678   2   1   13.634000   6.099000  26.419000
3679   2   1   13.635000   6.116000  27.987000
3680   2   1   13.55000   9.011000  25.843000
3681   2   1   13.555000   9.044000  28.532000
3682   2   1   14.906000   6.865000  24.315000
3683   2   1   14.886000   8.354000  23.765000
3684   2   1   13.636000   6.065000  23.801000
3685   2   1   13.553000   8.992000  24.291000
3686   2   1   17.469000   6.981000  30.062000
3687   2   1   17.466000   8.479000  30.558000
3688   2   1   16.202000   6.207000  30.577000
3689   2   1   16.179000   9.209000  30.089000
3690   2   1   17.466000   6.897000  21.725000
3691   2   1   17.454000   8.406000  22.206000
3692   2   1   16.2000   6.12000  22.239000
3693   2   1   16.174000   9.131000  21.688000
3694   2   1   17.463000   6.946000  25.885000
3695   2   1   17.452000   8.452000  26.394000
3696   2   1   17.468000   6.97000  28.496000
3697   2   1   17.457000   8.465000  27.966000
3698   2   1   16.195000   6.172000  26.417000
3699   2   1   16.196000   6.189000  27.983000
3700   2   1   16.169000   9.175000  25.871000
3701   2   1   16.185000   9.195000  28.508000
3702   2   1   17.465000   6.928000  24.319000
3703   2   1   17.455000   8.422000  23.777000
3704   2   1   16.196000   6.141000  23.805000
3705   2   1   16.177000   9.154000  24.293000
3706   2   1   20.018000   7.02000  30.052000
3707   2   1   20.008000   8.526000  30.535000
3708   2   1   18.753000   6.256000  30.567000
3709   2   1   18.72000   9.278000  30.034000
3710   2   1   20.014000   6.929000  21.727000
3711   2   1   20.003000   8.439000  22.208000
3712   2   1   18.747000   6.166000  22.237000
3713   2   1   18.717000   9.193000  21.696000
3714   2   1   20.018000   6.977000  25.88000
3715   2   1   20.005000   8.487000  26.383000
3716   2   1   20.019000   7.003000  28.486000
3717   2   1   20.007000   8.501000  27.949000
3718   2   1   18.748000   6.215000  26.411000
3719   2   1   18.75000   6.231000  27.976000
3720   2   1   18.713000   9.243000  25.858000
3721   2   1   18.719000   9.265000  28.469000
3722   2   1   20.017000   6.96000  24.315000
3723   2   1   20.004000   8.458000  23.777000
3724   2   1   18.747000   6.185000  23.804000
3725   2   1   18.714000   9.226000  24.288000
3726   2   1   22.573000   7.018000  30.05000
3727   2   1   22.566000   8.513000  30.536000
3728   2   1   21.299000   6.276000  30.561000
3729   2   1   21.289000   9.263000  30.024000
3730   2   1   22.568000   6.924000  21.722000
3731   2   1   22.566000   8.424000  22.207000
3732   2   1   21.295000   6.181000  22.235000
3733   2   1   21.287000   9.175000  21.698000
3734   2   1   22.584000   6.972000  25.877000
3735   2   1   22.579000   8.471000  26.381000
3736   2   1   22.581000   7.0000  28.484000
3737   2   1   22.577000   8.487000  27.946000
3738   2   1   21.304000   6.23000  26.407000
3739   2   1   21.304000   6.247000  27.972000
3740   2   1   21.293000   9.221000  25.853000
3741   2   1   21.292000   9.247000  28.459000
3742   2   1   22.581000   6.955000  24.312000
3743   2   1   22.574000   8.443000  23.774000
3744   2   1   21.3000   6.201000  23.802000
3745   2   1   21.291000   9.206000  24.288000
3746   2   1   25.124000   7.01000  30.068000
3747   2   1   25.113000   8.507000  30.553000
3748   2   1   23.847000   6.272000  30.568000
3749   2   1   23.846000   9.252000  30.03000
3750   2   1   25.112000   6.915000  21.703000
3751   2   1   25.12000   8.417000  22.187000
3752   2   1   23.846000   6.175000  22.228000
3753   2   1   23.842000   9.165000  21.69000
3754   2   1   25.15000   6.962000  25.875000
3755   2   1   25.147000   8.464000  26.381000
3756   2   1   25.142000   6.99000  28.496000
3757   2   1   25.143000   8.479000  27.957000
3758   2   1   23.869000   6.224000  26.406000
3759   2   1   23.866000   6.242000  27.973000
3760   2   1   23.865000   9.209000  25.851000
3761   2   1   23.859000   9.235000  28.464000
3762   2   1   25.144000   6.946000  24.299000
3763   2   1   25.138000   8.437000  23.76000
3764   2   1   23.86000   6.195000  23.794000
3765   2   1   23.861000   9.194000  24.285000
3766   2   3   27.648000   7.034000  30.123000
3767   2   3   27.622000   8.475000  30.677000
3768   2   1   26.392000   6.265000  30.611000
3769   2   1   26.404000   9.247000  30.073000
3770   2   3   27.617000   6.939000  21.577000
3771   2   3   27.642000   8.383000  22.13000
3772   2   1   26.402000   6.167000  22.184000
3773   2   1   26.387000   9.161000  21.646000
3774   2   3   27.673000   6.987000  25.846000
3775   2   3   27.672000   8.43000  26.408000
3776   2   3   27.672000   7.015000  28.56000
3777   2   3   27.67000   8.446000  27.966000
3778   2   1   26.434000   6.216000  26.411000
3779   2   1   26.433000   6.234000  27.992000
3780   2   1   26.433000   9.204000  25.845000
3781   2   1   26.424000   9.229000  28.494000
3782   2   3   27.669000   6.971000  24.287000
3783   2   3   27.669000   8.403000  23.693000
3784   2   1   26.424000   6.189000  23.762000
3785   2   1   26.43000   9.189000  24.263000
3786   2   1   17.389000   11.622000  30.063000
3787   2   1   17.522000   13.187000  30.639000
3788   2   1   16.253000   10.688000  30.696000
3789   2   1   17.4000   11.526000  21.632000
3790   2   1   17.543000   13.111000  22.11000
3791   2   1   16.201000   10.636000  22.189000
3792   2   1   17.387000   11.576000  25.824000
3793   2   1   17.523000   13.144000  26.342000
3794   2   1   17.395000   11.599000  28.483000
3795   2   1   17.508000   13.154000  27.878000
3796   2   1   16.207000   10.668000  26.426000
3797   2   1   16.236000   10.67000  27.969000
3798   2   1   17.394000   11.558000  24.253000
3799   2   1   17.515000   13.126000  23.647000
3800   2   1   16.223000   10.635000  23.733000
3801   2   1   20.022000   11.519000  30.005000
3802   2   1   20.075000   13.001000  30.51000
3803   2   1   18.712000   10.811000  30.508000
3804   2   1   18.828000   13.764000  30.012000
3805   2   1   20.026000   11.433000  21.663000
3806   2   1   20.086000   12.924000  22.151000
3807   2   1   18.703000   10.728000  22.159000
3808   2   1   18.872000   13.695000  21.608000
3809   2   1   20.018000   11.478000  25.827000
3810   2   1   20.072000   12.965000  26.336000
3811   2   1   20.02000   11.503000  28.441000
3812   2   1   20.065000   12.979000  27.901000
3813   2   1   18.696000   10.776000  26.355000
3814   2   1   18.699000   10.789000  27.944000
3815   2   1   18.841000   13.73000  25.791000
3816   2   1   18.823000   13.75000  28.43000
3817   2   1   20.018000   11.465000  24.259000
3818   2   1   20.075000   12.944000  23.713000
3819   2   1   18.7000   10.747000  23.747000
3820   2   1   18.836000   13.724000  24.216000
3821   2   1   22.582000   11.493000  30.006000
3822   2   1   22.603000   12.988000  30.497000
3823   2   1   21.294000   10.757000  30.512000
3824   2   1   21.344000   13.74000  29.986000
3825   2   1   22.585000   11.414000  21.675000
3826   2   1   22.614000   12.914000  22.163000
3827   2   1   21.296000   10.674000  22.182000
3828   2   1   21.361000   13.67000  21.648000
3829   2   1   22.594000   11.454000  25.83000
3830   2   1   22.617000   12.952000  26.338000
3831   2   1   22.589000   11.478000  28.438000
3832   2   1   22.613000   12.965000  27.903000
3833   2   1   21.298000   10.719000  26.357000
3834   2   1   21.297000   10.733000  27.923000
3835   2   1   21.352000   13.704000  25.808000
3836   2   1   21.345000   13.726000  28.419000
3837   2   1   22.591000   11.441000  24.264000
3838   2   1   22.616000   12.931000  23.729000
3839   2   1   21.296000   10.693000  23.749000
3840   2   1   21.351000   13.694000  24.241000
3841   2   1   25.132000   11.482000  30.026000
3842   2   1   25.136000   12.98000  30.515000
3843   2   1   23.849000   10.743000  30.522000
3844   2   1   23.879000   13.73000  29.992000
3845   2   1   25.127000   11.404000  21.66000
3846   2   1   25.151000   12.908000  22.148000
3847   2   1   23.855000   10.661000  22.181000
3848   2   1   23.884000   13.661000  21.65000
3849   2   1   25.159000   11.443000  25.831000
3850   2   1   25.173000   12.945000  26.342000
3851   2   1   25.15000   11.466000  28.453000
3852   2   1   25.168000   12.958000  27.918000
3853   2   1   23.872000   10.705000  26.36000
3854   2   1   23.868000   10.719000  27.926000
3855   2   1   23.9000   13.694000  25.812000
3856   2   1   23.891000   13.715000  28.426000
3857   2   1   25.156000   11.43000  24.255000
3858   2   1   25.167000   12.924000  23.721000
3859   2   1   23.866000   10.68000  23.747000
3860   2   1   23.898000   13.683000  24.245000
3861   2   3   27.655000   11.499000  30.083000
3862   2   3   27.641000   12.941000  30.639000
3863   2   1   26.393000   10.733000  30.567000
3864   2   1   26.428000   13.721000  30.037000
3865   2   3   27.632000   11.422000  21.537000
3866   2   3   27.668000   12.867000  22.093000
3867   2   1   26.41000   10.652000  22.14000
3868   2   1   26.42000   13.653000  21.61000
3869   2   3   27.683000   11.461000  25.805000
3870   2   3   27.693000   12.904000  26.371000
3871   2   3   27.68000   11.483000  28.52000
3872   2   3   27.69000   12.917000  27.929000
3873   2   1   26.438000   10.693000  26.367000
3874   2   1   26.436000   10.707000  27.948000
3875   2   1   26.46000   13.686000  25.809000
3876   2   1   26.449000   13.705000  28.458000
3877   2   3   27.68000   11.448000  24.247000
3878   2   3   27.693000   12.883000  23.656000
3879   2   1   26.43000   10.67000  23.718000
3880   2   1   26.459000   13.675000  24.227000
3881   2   1   17.475000   15.816000  29.987000
3882   2   1   17.485000   17.393000  30.509000
3883   2   1   16.562000   14.588000  30.628000
3884   2   1   16.297000   18.288000  30.019000
3885   2   1   17.537000   15.776000  21.557000
3886   2   1   17.479000   17.35000  22.105000
3887   2   1   16.614000   14.498000  22.015000
3888   2   1   16.31000   18.26000  21.557000
3889   2   1   17.495000   15.784000  25.757000
3890   2   1   17.469000   17.362000  26.319000
3891   2   1   17.462000   15.794000  28.416000
3892   2   1   17.453000   17.368000  27.886000
3893   2   1   16.583000   14.525000  26.278000
3894   2   1   16.545000   14.512000  27.846000
3895   2   1   16.304000   18.267000  25.783000
3896   2   1   16.282000   18.278000  28.469000
3897   2   1   17.479000   15.774000  24.187000
3898   2   1   17.466000   17.349000  23.672000
3899   2   1   16.552000   14.489000  23.587000
3900   2   1   16.296000   18.257000  24.242000
3901   2   1   20.088000   15.991000  29.957000
3902   2   1   20.073000   17.468000  30.468000
3903   2   1   18.843000   15.241000  30.465000
3904   2   1   18.775000   18.182000  29.98000
3905   2   1   20.113000   15.94000  21.609000
3906   2   1   20.08000   17.42000  22.131000
3907   2   1   18.867000   15.178000  22.095000
3908   2   1   18.783000   18.145000  21.638000
3909   2   1   20.091000   15.958000  25.784000
3910   2   1   20.07000   17.44000  26.31000
3911   2   1   20.083000   15.977000  28.404000
3912   2   1   20.066000   17.451000  27.875000
3913   2   1   18.838000   15.202000  26.302000
3914   2   1   18.825000   15.215000  27.892000
3915   2   1   18.769000   18.154000  25.792000
3916   2   1   18.764000   18.166000  28.399000
3917   2   1   20.092000   15.95000  24.224000
3918   2   1   20.075000   17.426000  23.697000
3919   2   1   18.843000   15.191000  23.685000
3920   2   1   18.77000   18.143000  24.211000
3921   2   1   22.624000   15.978000  29.971000
3922   2   1   22.623000   17.471000  30.467000
3923   2   1   21.352000   15.237000  30.473000
3924   2   1   21.349000   18.22000  29.96000
3925   2   1   22.636000   15.921000  21.637000
3926   2   1   22.632000   17.418000  22.136000
3927   2   1   21.367000   15.175000  22.137000
3928   2   1   21.355000   18.174000  21.632000
3929   2   1   22.638000   15.947000  25.796000
3930   2   1   22.637000   17.443000  26.311000
3931   2   1   22.631000   15.965000  28.405000
3932   2   1   22.633000   17.454000  27.877000
3933   2   1   21.36000   15.204000  26.318000
3934   2   1   21.355000   15.217000  27.885000
3935   2   1   21.354000   18.192000  25.787000
3936   2   1   21.35000   18.208000  28.394000
3937   2   1   22.638000   15.937000  24.231000
3938   2   1   22.637000   17.428000  23.703000
3939   2   1   21.363000   15.188000  23.708000
3940   2   1   21.356000   18.183000  24.222000
3941   2   1   25.163000   15.963000  29.995000
3942   2   1   25.162000   17.462000  30.487000
3943   2   1   23.884000   15.223000  30.488000
3944   2   1   23.901000   18.214000  29.966000
3945   2   1   25.164000   15.903000  21.629000
3946   2   1   25.176000   17.406000  22.121000
3947   2   1   23.898000   15.16000  22.146000
3948   2   1   23.904000   18.162000  21.626000
3949   2   1   25.193000   15.931000  25.8000
3950   2   1   25.199000   17.433000  26.315000
3951   2   1   25.183000   15.949000  28.422000
3952   2   1   25.194000   17.444000  27.891000
3953   2   1   23.91000   15.192000  26.325000
3954   2   1   23.905000   15.204000  27.892000
3955   2   1   23.922000   18.185000  25.788000
3956   2   1   23.914000   18.201000  28.401000
3957   2   1   25.191000   15.922000  24.224000
3958   2   1   25.194000   17.418000  23.694000
3959   2   1   23.907000   15.174000  23.712000
3960   2   1   23.921000   18.176000  24.221000
3961   2   3   27.683000   15.978000  30.054000
3962   2   3   27.666000   17.42000  30.613000
3963   2   1   26.422000   15.209000  30.535000
3964   2   1   26.454000   18.202000  30.011000
3965   2   3   27.666000   15.919000  21.508000
3966   2   3   27.696000   17.363000  22.067000
3967   2   1   26.445000   15.146000  22.107000
3968   2   1   26.445000   18.149000  21.585000
3969   2   3   27.713000   15.947000  25.776000
3970   2   3   27.72000   17.39000  26.344000
3971   2   3   27.709000   15.964000  28.49000
3972   2   3   27.717000   17.4000  27.903000
3973   2   1   26.469000   15.177000  26.335000
3974   2   1   26.466000   15.188000  27.916000
3975   2   1   26.486000   18.174000  25.784000
3976   2   1   26.476000   18.189000  28.433000
3977   2   3   27.712000   15.938000  24.218000
3978   2   3   27.72000   17.375000  23.63000
3979   2   1   26.464000   15.16000  23.686000
3980   2   1   26.486000   18.165000  24.202000
3981   2   1   4.777000   20.918000  30.053000
3982   2   1   4.801000   22.41000  30.506000
3983   2   1   3.494000   20.253000  30.635000
3984   2   1   3.538000   23.154000  29.984000
3985   2   1   4.818000   20.87000  21.582000
3986   2   1   4.835000   22.334000  22.109000
3987   2   1   3.532000   20.167000  22.068000
3988   2   1   3.589000   23.091000  21.586000
3989   2   1   4.782000   20.862000  25.8000
3990   2   1   4.803000   22.343000  26.319000
3991   2   1   4.775000   20.891000  28.466000
3992   2   1   4.798000   22.359000  27.899000
3993   2   1   3.497000   20.179000  26.357000
3994   2   1   3.491000   20.194000  27.92000
3995   2   1   3.544000   23.097000  25.775000
3996   2   1   3.533000   23.126000  28.409000
3997   2   1   4.79000   20.851000  24.212000
3998   2   1   4.82000   22.329000  23.683000
3999   2   1   3.512000   20.159000  23.634000
4000   2   1   3.555000   23.089000  24.195000
4001   2   1   7.321000   20.877000  30.054000
4002   2   1   7.348000   22.366000  30.508000
4003   2   1   6.037000   20.215000  30.633000
4004   2   1   6.086000   23.111000  29.982000
4005   2   1   7.342000   20.83000  21.599000
4006   2   1   7.369000   22.292000  22.123000
4007   2   1   6.062000   20.134000  22.108000
4008   2   1   6.117000   23.051000  21.611000
4009   2   1   7.322000   20.824000  25.81000
4010   2   1   7.35000   22.301000  26.328000
4011   2   1   7.319000   20.852000  28.471000
4012   2   1   7.348000   22.318000  27.905000
4013   2   1   6.038000   20.144000  26.37000
4014   2   1   6.035000   20.16000  27.927000
4015   2   1   6.091000   23.057000  25.789000
4016   2   1   6.085000   23.087000  28.415000
4017   2   1   7.328000   20.813000  24.228000
4018   2   1   7.36000   22.287000  23.698000
4019   2   1   6.05000   20.123000  23.666000
4020   2   1   6.099000   23.049000  24.22000
4021   2   1   9.868000   20.821000  30.054000
4022   2   1   9.902000   22.307000  30.508000
4023   2   1   8.579000   20.168000  30.633000
4024   2   1   8.639000   23.059000  29.986000
4025   2   1   9.873000   20.775000  21.601000
4026   2   1   9.908000   22.236000  22.126000
4027   2   1   8.589000   20.087000  22.115000
4028   2   1   8.654000   23.0000  21.618000
4029   2   1   9.864000   20.77000  25.811000
4030   2   1   9.899000   22.245000  26.33000
4031   2   1   9.864000   20.798000  28.471000
4032   2   1   9.898000   22.261000  27.906000
4033   2   1   8.576000   20.098000  26.375000
4034   2   1   8.576000   20.113000  27.931000
4035   2   1   8.641000   23.008000  25.795000
4036   2   1   8.638000   23.036000  28.42000
4037   2   1   9.867000   20.758000  24.23000
4038   2   1   9.904000   22.23000  23.7000
4039   2   1   8.583000   20.076000  23.673000
4040   2   1   8.645000   22.999000  24.226000
4041   2   1   12.422000   20.739000  30.044000
4042   2   1   12.464000   22.223000  30.501000
4043   2   1   11.125000   20.104000  30.628000
4044   2   1   11.199000   22.989000  29.984000
4045   2   1   12.419000   20.695000  21.601000
4046   2   1   12.458000   22.156000  22.124000
4047   2   1   11.121000   20.024000  22.114000
4048   2   1   11.2000   22.932000  21.618000
4049   2   1   12.411000   20.691000  25.805000
4050   2   1   12.453000   22.166000  26.324000
4051   2   1   12.414000   20.718000  28.461000
4052   2   1   12.453000   22.181000  27.9000
4053   2   1   11.114000   20.036000  26.372000
4054   2   1   11.115000   20.051000  27.927000
4055   2   1   11.194000   22.94000  25.794000
4056   2   1   11.195000   22.968000  28.417000
4057   2   1   12.413000   20.679000  24.225000
4058   2   1   12.455000   22.151000  23.697000
4059   2   1   11.117000   20.013000  23.672000
4060   2   1   11.196000   22.931000  24.225000
4061   2   1   14.997000   20.594000  30.012000
4062   2   1   15.032000   22.099000  30.48000
4063   2   1   13.676000   19.994000  30.605000
4064   2   1   13.764000   22.89000  29.975000
4065   2   1   14.993000   20.552000  21.61000
4066   2   1   15.018000   22.041000  22.122000
4067   2   1   13.661000   19.918000  22.112000
4068   2   1   13.757000   22.837000  21.619000
4069   2   1   14.984000   20.554000  25.797000
4070   2   1   15.016000   22.054000  26.313000
4071   2   1   14.985000   20.577000  28.435000
4072   2   1   15.016000   22.067000  27.887000
4073   2   1   13.656000   19.932000  26.359000
4074   2   1   13.655000   19.946000  27.911000
4075   2   1   13.754000   22.848000  25.789000
4076   2   1   13.757000   22.872000  28.408000
4077   2   1   14.984000   20.544000  24.22000
4078   2   1   15.015000   22.04000  23.695000
4079   2   1   13.657000   19.908000  23.668000
4080   2   1   13.754000   22.838000  24.22000
4081   2   1   17.552000   20.508000  29.975000
4082   2   1   17.576000   22.012000  30.465000
4083   2   1   16.279000   19.793000  30.509000
4084   2   1   16.316000   22.797000  29.96000
4085   2   1   17.55000   20.468000  21.625000
4086   2   1   17.566000   21.965000  22.126000
4087   2   1   16.268000   19.745000  22.113000
4088   2   1   16.306000   22.748000  21.619000
4089   2   1   17.541000   20.479000  25.79000
4090   2   1   17.565000   21.981000  26.305000
4091   2   1   17.542000   20.494000  28.405000
4092   2   1   17.565000   21.991000  27.871000
4093   2   1   16.262000   19.758000  26.326000
4094   2   1   16.255000   19.766000  27.902000
4095   2   1   16.304000   22.764000  25.782000
4096   2   1   16.308000   22.783000  28.394000
4097   2   1   17.542000   20.47000  24.219000
4098   2   1   17.565000   21.968000  23.693000
4099   2   1   16.261000   19.743000  23.69000
4100   2   1   16.304000   22.755000  24.215000
4101   2   1   20.089000   20.46000  29.956000
4102   2   1   20.114000   21.964000  30.452000
4103   2   1   18.805000   19.709000  30.467000
4104   2   1   18.855000   22.737000  29.95000
4105   2   1   20.088000   20.417000  21.631000
4106   2   1   20.109000   21.919000  22.125000
4107   2   1   18.8000   19.668000  22.132000
4108   2   1   18.849000   22.69000  21.619000
4109   2   1   20.088000   20.433000  25.784000
4110   2   1   20.113000   21.939000  26.297000
4111   2   1   20.087000   20.447000  28.389000
4112   2   1   20.112000   21.947000  27.862000
4113   2   1   18.795000   19.681000  26.308000
4114   2   1   18.793000   19.689000  27.877000
4115   2   1   18.85000   22.71000  25.776000
4116   2   1   18.851000   22.725000  28.384000
4117   2   1   20.088000   20.425000  24.218000
4118   2   1   20.112000   21.925000  23.691000
4119   2   1   18.797000   19.669000  23.699000
4120   2   1   18.85000   22.701000  24.211000
4121   2   1   22.643000   20.458000  29.954000
4122   2   1   22.66000   21.952000  30.451000
4123   2   1   21.361000   19.712000  30.459000
4124   2   1   21.396000   22.706000  29.944000
4125   2   1   22.642000   20.41000  21.625000
4126   2   1   22.661000   21.904000  22.121000
4127   2   1   21.362000   19.667000  22.133000
4128   2   1   21.392000   22.659000  21.618000
4129   2   1   22.655000   20.431000  25.78000
4130   2   1   22.674000   21.928000  26.295000
4131   2   1   22.65000   20.446000  28.388000
4132   2   1   22.671000   21.936000  27.859000
4133   2   1   21.366000   19.687000  26.304000
4134   2   1   21.364000   19.696000  27.868000
4135   2   1   21.401000   22.681000  25.772000
4136   2   1   21.399000   22.695000  28.378000
4137   2   1   22.653000   20.422000  24.216000
4138   2   1   22.67000   21.913000  23.687000
4139   2   1   21.366000   19.673000  23.698000
4140   2   1   21.399000   22.672000  24.208000
4141   2   1   25.191000   20.446000  29.974000
4142   2   1   25.199000   21.945000  30.467000
4143   2   1   23.908000   19.705000  30.467000
4144   2   1   23.941000   22.697000  29.948000
4145   2   1   25.186000   20.395000  21.608000
4146   2   1   25.209000   21.894000  22.101000
4147   2   1   23.914000   19.655000  22.126000
4148   2   1   23.937000   22.647000  21.608000
4149   2   1   25.22000   20.418000  25.779000
4150   2   1   25.236000   21.919000  26.295000
4151   2   1   25.211000   20.433000  28.401000
4152   2   1   25.231000   21.928000  27.871000
4153   2   1   23.932000   19.68000  26.305000
4154   2   1   23.928000   19.689000  27.871000
4155   2   1   23.962000   22.67000  25.769000
4156   2   1   23.955000   22.685000  28.382000
4157   2   1   25.216000   20.41000  24.204000
4158   2   1   25.228000   21.905000  23.674000
4159   2   1   23.927000   19.665000  23.693000
4160   2   1   23.958000   22.661000  24.203000
4161   2   3   27.713000   20.459000  30.032000
4162   2   3   27.702000   21.901000  30.592000
4163   2   1   26.45000   19.69000  30.512000
4164   2   1   26.494000   22.686000  29.991000
4165   2   3   27.692000   20.409000  21.484000
4166   2   3   27.729000   21.85000  22.045000
4167   2   1   26.469000   19.638000  22.085000
4168   2   1   26.48000   22.636000  21.564000
4169   2   3   27.743000   20.432000  25.753000
4170   2   3   27.756000   21.874000  26.323000
4171   2   3   27.739000   20.446000  28.469000
4172   2   3   27.753000   21.882000  27.882000
4173   2   1   26.497000   19.663000  26.312000
4174   2   1   26.494000   19.672000  27.894000
4175   2   1   26.525000   22.66000  25.763000
4176   2   1   26.515000   22.673000  28.412000
4177   2   3   27.74000   20.424000  24.195000
4178   2   3   27.754000   21.86000  23.608000
4179   2   1   26.49000   19.65000  23.663000
4180   2   1   26.523000   22.651000  24.182000
4181   2   1   4.847000   25.339000  29.948000
4182   2   1   4.866000   26.815000  30.439000
4183   2   1   3.563000   24.633000  30.465000
4184   2   1   3.603000   27.568000  29.92000
4185   2   1   4.888000   25.274000  21.597000
4186   2   1   4.904000   26.747000  22.095000
4187   2   1   3.606000   24.56000  22.097000
4188   2   1   3.653000   27.505000  21.572000
4189   2   1   4.855000   25.294000  25.764000
4190   2   1   4.875000   26.775000  26.276000
4191   2   1   4.846000   25.319000  28.381000
4192   2   1   4.87000   26.789000  27.84000
4193   2   1   3.567000   24.578000  26.289000
4194   2   1   3.56000   24.594000  27.858000
4195   2   1   3.615000   27.532000  25.737000
4196   2   1   3.603000   27.554000  28.352000
4197   2   1   4.866000   25.284000  24.198000
4198   2   1   4.892000   26.757000  23.662000
4199   2   1   3.588000   24.563000  23.663000
4200   2   1   3.627000   27.522000  24.172000
4201   2   1   7.399000   25.29000  29.955000
4202   2   1   7.418000   26.765000  30.447000
4203   2   1   6.109000   24.588000  30.468000
4204   2   1   6.154000   27.521000  29.93000
4205   2   1   7.422000   25.226000  21.609000
4206   2   1   7.441000   26.698000  22.106000
4207   2   1   6.139000   24.518000  22.117000
4208   2   1   6.186000   27.456000  21.588000
4209   2   1   7.405000   25.247000  25.774000
4210   2   1   7.425000   26.727000  26.285000
4211   2   1   7.399000   25.272000  28.389000
4212   2   1   7.422000   26.741000  27.849000
4213   2   1   6.115000   24.537000  26.302000
4214   2   1   6.111000   24.553000  27.868000
4215   2   1   6.164000   27.488000  25.751000
4216   2   1   6.156000   27.509000  28.364000
4217   2   1   7.411000   25.237000  24.21000
4218   2   1   7.435000   26.708000  23.672000
4219   2   1   6.128000   24.521000  23.684000
4220   2   1   6.172000   27.476000  24.187000
4221   2   1   9.956000   25.228000  29.958000
4222   2   1   9.974000   26.704000  30.45000
4223   2   1   8.663000   24.534000  30.472000
4224   2   1   8.709000   27.465000  29.937000
4225   2   1   9.966000   25.166000  21.612000
4226   2   1   9.985000   26.639000  22.109000
4227   2   1   8.678000   24.466000  22.124000
4228   2   1   8.726000   27.401000  21.595000
4229   2   1   9.958000   25.188000  25.777000
4230   2   1   9.977000   26.668000  26.289000
4231   2   1   9.955000   25.212000  28.391000
4232   2   1   9.975000   26.682000  27.853000
4233   2   1   8.666000   24.486000  26.308000
4234   2   1   8.664000   24.502000  27.873000
4235   2   1   8.715000   27.434000  25.758000
4236   2   1   8.71000   27.455000  28.37000
4237   2   1   9.961000   25.177000  24.212000
4238   2   1   9.982000   26.649000  23.675000
4239   2   1   8.673000   24.469000  23.691000
4240   2   1   8.719000   27.422000  24.194000
4241   2   1   12.516000   25.152000  29.955000
4242   2   1   12.532000   26.631000  30.448000
4243   2   1   11.223000   24.465000  30.471000
4244   2   1   11.265000   27.4000  29.938000
4245   2   1   12.515000   25.092000  21.612000
4246   2   1   12.532000   26.57000  22.108000
4247   2   1   11.225000   24.399000  22.124000
4248   2   1   11.271000   27.337000  21.596000
4249   2   1   12.512000   25.115000  25.775000
4250   2   1   12.53000   26.599000  26.287000
4251   2   1   12.513000   25.137000  28.388000
4252   2   1   12.529000   26.612000  27.851000
4253   2   1   11.22000   24.419000  26.307000
4254   2   1   11.219000   24.434000  27.873000
4255   2   1   11.267000   27.37000  25.759000
4256   2   1   11.265000   27.39000  28.371000
4257   2   1   12.514000   25.104000  24.21000
4258   2   1   12.531000   26.58000  23.674000
4259   2   1   11.222000   24.402000  23.691000
4260   2   1   11.269000   27.358000  24.194000
4261   2   1   15.07000   25.072000  29.948000
4262   2   1   15.083000   26.558000  30.443000
4263   2   1   13.783000   24.376000  30.463000
4264   2   1   13.819000   27.33000  29.935000
4265   2   1   15.063000   25.016000  21.609000
4266   2   1   15.078000   26.5000  22.105000
4267   2   1   13.777000   24.315000  22.121000
4268   2   1   13.817000   27.27000  21.594000
4269   2   1   15.063000   25.04000  25.77000
4270   2   1   15.079000   26.53000  26.283000
4271   2   1   15.065000   25.06000  28.382000
4272   2   1   15.079000   26.541000  27.847000
4273   2   1   13.775000   24.336000  26.302000
4274   2   1   13.776000   24.35000  27.868000
4275   2   1   13.817000   27.303000  25.756000
4276   2   1   13.817000   27.322000  28.368000
4277   2   1   15.063000   25.03000  24.205000
4278   2   1   15.078000   26.511000  23.671000
4279   2   1   13.775000   24.32000  23.688000
4280   2   1   13.817000   27.291000  24.192000
4281   2   1   17.614000   25.007000  29.941000
4282   2   1   17.629000   26.496000  30.436000
4283   2   1   16.333000   24.292000  30.453000
4284   2   1   16.366000   27.266000  29.93000
4285   2   1   17.606000   24.954000  21.607000
4286   2   1   17.623000   26.443000  22.101000
4287   2   1   16.323000   24.238000  22.117000
4288   2   1   16.361000   27.209000  21.592000
4289   2   1   17.609000   24.979000  25.765000
4290   2   1   17.626000   26.472000  26.278000
4291   2   1   17.611000   24.996000  28.374000
4292   2   1   17.626000   26.482000  27.842000
4293   2   1   16.324000   24.26000  26.295000
4294   2   1   16.325000   24.272000  27.86000
4295   2   1   16.363000   27.242000  25.752000
4296   2   1   16.364000   27.259000  28.363000
4297   2   1   17.608000   24.969000  24.201000
4298   2   1   17.625000   26.454000  23.668000
4299   2   1   16.323000   24.244000  23.684000
4300   2   1   16.363000   27.23000  24.188000
4301   2   1   20.155000   24.964000  29.935000
4302   2   1   20.173000   26.455000  30.431000
4303   2   1   18.875000   24.234000  30.445000
4304   2   1   18.909000   27.217000  29.925000
4305   2   1   20.15000   24.913000  21.605000
4306   2   1   20.169000   26.404000  22.099000
4307   2   1   18.868000   24.184000  22.114000
4308   2   1   18.904000   27.163000  21.59000
4309   2   1   20.157000   24.939000  25.761000
4310   2   1   20.176000   26.434000  26.274000
4311   2   1   20.156000   24.955000  28.369000
4312   2   1   20.174000   26.442000  27.838000
4313   2   1   18.872000   24.208000  26.289000
4314   2   1   18.872000   24.217000  27.853000
4315   2   1   18.909000   27.195000  25.749000
4316   2   1   18.91000   27.211000  28.358000
4317   2   1   20.155000   24.929000  24.198000
4318   2   1   20.173000   26.415000  23.665000
4319   2   1   18.87000   24.192000  23.681000
4320   2   1   18.908000   27.183000  24.185000
4321   2   1   22.698000   24.943000  29.934000
4322   2   1   22.716000   26.435000  30.429000
4323   2   1   21.417000   24.203000  30.44000
4324   2   1   21.452000   27.188000  29.921000
4325   2   1   22.694000   24.892000  21.602000
4326   2   1   22.716000   26.383000  22.096000
4327   2   1   21.414000   24.154000  22.112000
4328   2   1   21.449000   27.134000  21.589000
4329   2   1   22.711000   24.918000  25.759000
4330   2   1   22.73000   26.414000  26.272000
4331   2   1   22.706000   24.933000  28.367000
4332   2   1   22.727000   26.422000  27.836000
4333   2   1   21.424000   24.179000  26.285000
4334   2   1   21.422000   24.188000  27.849000
4335   2   1   21.46000   27.166000  25.746000
4336   2   1   21.457000   27.181000  28.355000
4337   2   1   22.707000   24.909000  24.194000
4338   2   1   22.725000   26.396000  23.663000
4339   2   1   21.42000   24.163000  23.678000
4340   2   1   21.457000   27.155000  24.183000
4341   2   1   25.242000   24.931000  29.952000
4342   2   1   25.253000   26.43000  30.444000
4343   2   1   23.958000   24.19000  30.446000
4344   2   1   23.996000   27.177000  29.924000
4345   2   1   25.233000   24.879000  21.586000
4346   2   1   25.262000   26.376000  22.078000
4347   2   1   23.961000   24.138000  22.106000
4348   2   1   23.991000   27.123000  21.581000
4349   2   1   25.27000   24.905000  25.758000
4350   2   1   25.289000   26.407000  26.272000
4351   2   1   25.261000   24.919000  28.379000
4352   2   1   25.285000   26.415000  27.847000
4353   2   1   23.982000   24.165000  26.284000
4354   2   1   23.978000   24.174000  27.851000
4355   2   1   24.016000   27.155000  25.745000
4356   2   1   24.009000   27.169000  28.358000
4357   2   1   25.265000   24.896000  24.182000
4358   2   1   25.281000   26.39000  23.651000
4359   2   1   23.974000   24.15000  23.672000
4360   2   1   24.012000   27.144000  24.178000
4361   2   3   27.762000   24.944000  30.009000
4362   2   3   27.755000   26.389000  30.567000
4363   2   1   26.498000   24.175000  30.49000
4364   2   1   26.548000   27.174000  29.966000
4365   2   3   27.738000   24.893000  21.462000
4366   2   3   27.781000   26.335000  22.022000
4367   2   1   26.514000   24.124000  22.063000
4368   2   1   26.534000   27.12000  21.54000
4369   2   3   27.791000   24.92000  25.731000
4370   2   3   27.808000   26.364000  26.299000
4371   2   3   27.788000   24.933000  28.445000
4372   2   3   27.804000   26.372000  27.858000
4373   2   1   26.544000   24.15000  26.29000
4374   2   1   26.542000   24.158000  27.872000
4375   2   1   26.578000   27.152000  25.739000
4376   2   1   26.569000   27.164000  28.387000
4377   2   3   27.788000   24.911000  24.173000
4378   2   3   27.806000   26.348000  23.585000
4379   2   1   26.535000   24.136000  23.642000
4380   2   1   26.576000   27.141000  24.158000
4381   2   1   4.904000   29.752000  29.909000
4382   2   1   4.918000   31.223000  30.412000
4383   2   1   3.617000   29.043000  30.414000
4384   2   1   3.652000   31.98000  29.901000
4385   2   1   4.944000   29.689000  21.562000
4386   2   1   4.957000   31.166000  22.052000
4387   2   1   3.663000   28.98000  22.069000
4388   2   1   3.698000   31.917000  21.524000
4389   2   1   4.919000   29.729000  25.727000
4390   2   1   4.934000   31.212000  26.24000
4391   2   1   4.908000   29.747000  28.341000
4392   2   1   4.928000   31.222000  27.808000
4393   2   1   3.63000   29.014000  26.249000
4394   2   1   3.623000   29.026000  27.815000
4395   2   1   3.669000   31.969000  25.701000
4396   2   1   3.657000   31.985000  28.327000
4397   2   1   4.928000   29.716000  24.161000
4398   2   1   4.948000   31.187000  23.618000
4399   2   1   3.649000   28.994000  23.635000
4400   2   1   3.68000   31.957000  24.125000
4401   2   1   7.459000   29.701000  29.918000
4402   2   1   7.476000   31.172000  30.422000
4403   2   1   6.169000   28.996000  30.425000
4404   2   1   6.21000   31.933000  29.913000
4405   2   1   7.484000   29.636000  21.571000
4406   2   1   7.5000   31.114000  22.06000
4407   2   1   6.2000   28.932000  22.083000
4408   2   1   6.241000   31.867000  21.535000
4409   2   1   7.47000   29.679000  25.736000
4410   2   1   7.487000   31.162000  26.249000
4411   2   1   7.463000   29.697000  28.351000
4412   2   1   7.483000   31.172000  27.818000
4413   2   1   6.181000   28.969000  26.262000
4414   2   1   6.176000   28.981000  27.827000
4415   2   1   6.224000   31.924000  25.713000
4416   2   1   6.215000   31.939000  28.339000
4417   2   1   7.476000   29.665000  24.171000
4418   2   1   7.495000   31.135000  23.627000
4419   2   1   6.193000   28.947000  23.649000
4420   2   1   6.231000   31.909000  24.137000
4421   2   1   10.015000   29.642000  29.923000
4422   2   1   10.031000   31.113000  30.427000
4423   2   1   8.725000   28.94000  30.432000
4424   2   1   8.767000   31.879000  29.92000
4425   2   1   10.027000   29.577000  21.575000
4426   2   1   10.044000   31.056000  22.063000
4427   2   1   8.742000   28.877000  22.089000
4428   2   1   8.785000   31.811000  21.541000
4429   2   1   10.021000   29.621000  25.74000
4430   2   1   10.038000   31.104000  26.253000
4431   2   1   10.017000   29.639000  28.355000
4432   2   1   10.035000   31.115000  27.822000
4433   2   1   8.732000   28.915000  26.269000
4434   2   1   8.729000   28.927000  27.834000
4435   2   1   8.777000   31.87000  25.719000
4436   2   1   8.771000   31.885000  28.346000
4437   2   1   10.024000   29.607000  24.174000
4438   2   1   10.042000   31.077000  23.63000
4439   2   1   8.739000   28.892000  23.655000
4440   2   1   8.781000   31.855000  24.143000
4441   2   1   12.568000   29.578000  29.923000
4442   2   1   12.583000   31.051000  30.428000
4443   2   1   11.28000   28.876000  30.434000
4444   2   1   11.321000   31.819000  29.923000
4445   2   1   12.571000   29.515000  21.575000
4446   2   1   12.588000   30.995000  22.063000
4447   2   1   11.287000   28.815000  22.09000
4448   2   1   11.329000   31.752000  21.542000
4449   2   1   12.57000   29.559000  25.74000
4450   2   1   12.586000   31.043000  26.253000
4451   2   1   12.568000   29.576000  28.355000
4452   2   1   12.585000   31.053000  27.822000
4453   2   1   11.283000   28.853000  26.27000
4454   2   1   11.281000   28.865000  27.836000
4455   2   1   11.326000   31.811000  25.721000
4456   2   1   11.323000   31.826000  28.348000
4457   2   1   12.571000   29.545000  24.174000
4458   2   1   12.588000   31.016000  23.63000
4459   2   1   11.286000   28.83000  23.656000
4460   2   1   11.328000   31.795000  24.144000
4461   2   1   15.116000   29.516000  29.92000
4462   2   1   15.13000   30.99000  30.426000
4463   2   1   13.832000   28.81000  30.431000
4464   2   1   13.869000   31.759000  29.922000
4465   2   1   15.114000   29.455000  21.573000
4466   2   1   15.13000   30.936000  22.061000
4467   2   1   13.832000   28.751000  22.088000
4468   2   1   13.87000   31.693000  21.54000
4469   2   1   15.116000   29.499000  25.737000
4470   2   1   15.131000   30.984000  26.251000
4471   2   1   15.116000   29.514000  28.353000
4472   2   1   15.13000   30.993000  27.82000
4473   2   1   13.832000   28.789000  26.269000
4474   2   1   13.831000   28.799000  27.834000
4475   2   1   13.871000   31.751000  25.72000
4476   2   1   13.87000   31.766000  28.348000
4477   2   1   15.116000   29.485000  24.171000
4478   2   1   15.131000   30.958000  23.628000
4479   2   1   13.832000   28.766000  23.655000
4480   2   1   13.872000   31.736000  24.143000
4481   2   1   17.66000   29.463000  29.916000
4482   2   1   17.673000   30.939000  30.423000
4483   2   1   16.379000   28.749000  30.427000
4484   2   1   16.412000   31.704000  29.919000
4485   2   1   17.656000   29.405000  21.571000
4486   2   1   17.67000   30.887000  22.059000
4487   2   1   16.376000   28.693000  22.085000
4488   2   1   16.41000   31.639000  21.538000
4489   2   1   17.66000   29.448000  25.734000
4490   2   1   17.674000   30.934000  26.249000
4491   2   1   17.66000   29.462000  28.349000
4492   2   1   17.673000   30.942000  27.817000
4493   2   1   16.378000   28.731000  26.265000
4494   2   1   16.378000   28.74000  27.83000
4495   2   1   16.413000   31.697000  25.717000
4496   2   1   16.413000   31.711000  28.345000
4497   2   1   17.659000   29.434000  24.169000
4498   2   1   17.672000   30.908000  23.626000
4499   2   1   16.377000   28.708000  23.652000
4500   2   1   16.413000   31.682000  24.141000
4501   2   1   20.202000   29.426000  29.912000
4502   2   1   20.212000   30.902000  30.419000
4503   2   1   18.923000   28.701000  30.423000
4504   2   1   18.95000   31.66000  29.916000
4505   2   1   20.199000   29.369000  21.57000
4506   2   1   20.211000   30.852000  22.059000
4507   2   1   18.92000   28.648000  22.083000
4508   2   1   18.948000   31.597000  21.537000
4509   2   1   20.206000   29.411000  25.732000
4510   2   1   20.218000   30.898000  26.246000
4511   2   1   20.205000   29.425000  28.345000
4512   2   1   20.216000   30.906000  27.814000
4513   2   1   18.924000   28.685000  26.262000
4514   2   1   18.924000   28.694000  27.826000
4515   2   1   18.953000   31.654000  25.715000
4516   2   1   18.952000   31.667000  28.342000
4517   2   1   20.204000   29.397000  24.167000
4518   2   1   20.215000   30.873000  23.625000
4519   2   1   18.922000   28.663000  23.65000
4520   2   1   18.952000   31.639000  24.139000
4521   2   1   22.745000   29.408000  29.911000
4522   2   1   22.752000   30.885000  30.418000
4523   2   1   21.466000   28.673000  30.419000
4524   2   1   21.487000   31.633000  29.914000
4525   2   1   22.742000   29.351000  21.569000
4526   2   1   22.754000   30.835000  22.057000
4527   2   1   21.465000   28.62000  22.082000
4528   2   1   21.486000   31.571000  21.537000
4529   2   1   22.758000   29.393000  25.731000
4530   2   1   22.768000   30.881000  26.245000
4531   2   1   22.753000   29.406000  28.344000
4532   2   1   22.764000   30.888000  27.814000
4533   2   1   21.475000   28.657000  26.259000
4534   2   1   21.473000   28.665000  27.823000
4535   2   1   21.496000   31.626000  25.714000
4536   2   1   21.493000   31.639000  28.34000
4537   2   1   22.755000   29.38000  24.165000
4538   2   1   22.763000   30.856000  23.623000
4539   2   1   21.471000   28.636000  23.648000
4540   2   1   21.494000   31.612000  24.138000
4541   2   1   25.29000   29.408000  29.928000
4542   2   1   25.291000   30.896000  30.431000
4543   2   1   24.009000   28.663000  30.424000
4544   2   1   24.024000   31.628000  29.917000
4545   2   1   25.284000   29.351000  21.556000
4546   2   1   25.302000   30.846000  22.039000
4547   2   1   24.012000   28.61000  22.078000
4548   2   1   24.023000   31.566000  21.53000
4549   2   1   25.318000   29.392000  25.731000
4550   2   1   25.328000   30.893000  26.245000
4551   2   1   25.309000   29.404000  28.355000
4552   2   1   25.323000   30.9000  27.826000
4553   2   1   24.033000   28.648000  26.259000
4554   2   1   24.029000   28.655000  27.826000
4555   2   1   24.047000   31.621000  25.713000
4556   2   1   24.038000   31.633000  28.344000
4557   2   1   25.314000   29.379000  24.153000
4558   2   1   25.321000   30.869000  23.613000
4559   2   1   24.026000   28.627000  23.644000
4560   2   1   24.043000   31.607000  24.135000
4561   2   3   27.812000   29.444000  29.984000
4562   2   3   27.796000   30.888000  30.549000
4563   2   1   26.551000   28.663000  30.465000
4564   2   1   26.578000   31.66000  29.96000
4565   2   3   27.793000   29.386000  21.437000
4566   2   3   27.823000   30.836000  21.987000
4567   2   1   26.568000   28.609000  22.037000
4568   2   1   26.568000   31.596000  21.491000
4569   2   3   27.837000   29.429000  25.705000
4570   2   3   27.845000   30.879000  26.273000
4571   2   3   27.835000   29.44000  28.419000
4572   2   3   27.841000   30.886000  27.835000
4573   2   1   26.596000   28.645000  26.265000
4574   2   1   26.593000   28.652000  27.847000
4575   2   1   26.611000   31.655000  25.709000
4576   2   1   26.6000   31.664000  28.373000
4577   2   3   27.835000   29.417000  24.146000
4578   2   3   27.845000   30.856000  23.551000
4579   2   1   26.588000   28.627000  23.616000
4580   2   1   26.609000   31.641000  24.114000
4581   2   3   4.961000   34.145000  29.922000
4582   2   3   3.666000   33.448000  30.423000
4583   2   3   5.0000   34.071000  21.416000
4584   2   3   3.712000   33.407000  21.984000
4585   2   3   4.978000   34.133000  25.668000
4586   2   3   4.967000   34.157000  28.363000
4587   2   3   3.684000   33.451000  26.22000
4588   2   3   3.677000   33.465000  27.801000
4589   2   3   4.986000   34.12000  24.113000
4590   2   3   3.7000   33.428000  23.566000
4591   2   3   7.524000   34.095000  29.932000
4592   2   3   6.229000   33.401000  30.436000
4593   2   3   7.548000   34.019000  21.422000
4594   2   1   6.261000   33.357000  21.993000
4595   2   3   7.536000   34.083000  25.675000
4596   2   3   7.529000   34.107000  28.373000
4597   2   3   6.243000   33.406000  26.231000
4598   2   3   6.238000   33.42000  27.813000
4599   2   3   7.542000   34.069000  24.12000
4600   2   3   6.254000   33.38000  23.576000
4601   2   3   10.082000   34.039000  29.936000
4602   2   3   8.788000   33.347000  30.443000
4603   2   3   10.094000   33.961000  21.424000
4604   2   1   8.807000   33.302000  21.998000
4605   2   3   10.089000   34.027000  25.679000
4606   2   3   10.084000   34.051000  28.377000
4607   2   3   8.799000   33.352000  26.238000
4608   2   3   8.795000   33.366000  27.819000
4609   2   3   10.092000   34.013000  24.123000
4610   2   1   8.804000   33.325000  23.581000
4611   2   3   12.632000   33.98000  29.937000
4612   2   3   11.343000   33.288000  30.446000
4613   2   3   12.636000   33.903000  21.424000
4614   2   1   11.352000   33.243000  21.999000
4615   2   3   12.636000   33.969000  25.679000
4616   2   3   12.633000   33.992000  28.378000
4617   2   1   11.348000   33.293000  26.24000
4618   2   1   11.346000   33.307000  27.821000
4619   2   3   12.636000   33.954000  24.123000
4620   2   1   11.351000   33.266000  23.582000
4621   2   3   15.174000   33.923000  29.936000
4622   2   1   13.89000   33.228000  30.446000
4623   2   3   15.172000   33.847000  21.422000
4624   2   1   13.892000   33.184000  21.998000
4625   2   3   15.175000   33.913000  25.677000
4626   2   3   15.174000   33.936000  28.377000
4627   2   1   13.892000   33.234000  26.239000
4628   2   1   13.891000   33.247000  27.821000
4629   2   3   15.175000   33.898000  24.122000
4630   2   1   13.893000   33.207000  23.581000
4631   2   3   17.707000   33.875000  29.933000
4632   2   1   16.429000   33.173000  30.445000
4633   2   3   17.704000   33.8000  21.421000
4634   2   1   16.428000   33.131000  21.997000
4635   2   3   17.71000   33.865000  25.676000
4636   2   3   17.709000   33.887000  28.375000
4637   2   1   16.431000   33.18000  26.237000
4638   2   1   16.43000   33.193000  27.819000
4639   2   3   17.709000   33.85000  24.12000
4640   2   1   16.43000   33.154000  23.579000
4641   2   3   20.235000   33.84000  29.931000
4642   2   1   18.963000   33.129000  30.442000
4643   2   3   20.233000   33.766000  21.421000
4644   2   1   18.962000   33.089000  21.996000
4645   2   3   20.241000   33.83000  25.675000
4646   2   3   20.239000   33.852000  28.372000
4647   2   1   18.967000   33.137000  26.235000
4648   2   1   18.966000   33.149000  27.816000
4649   2   3   20.239000   33.816000  24.12000
4650   2   1   18.965000   33.112000  23.578000
4651   2   3   22.758000   33.822000  29.931000
4652   2   1   21.492000   33.102000  30.441000
4653   2   3   22.757000   33.75000  21.422000
4654   2   1   21.493000   33.062000  21.996000
4655   2   3   22.775000   33.811000  25.675000
4656   2   3   22.769000   33.833000  28.372000
4657   2   1   21.503000   33.11000  26.234000
4658   2   1   21.5000   33.122000  27.814000
4659   2   3   22.772000   33.797000  24.119000
4660   2   1   21.499000   33.085000  23.578000
4661   2   3   25.278000   33.831000  29.95000
4662   2   1   24.016000   33.095000  30.448000
4663   2   3   25.276000   33.761000  21.409000
4664   2   1   24.025000   33.056000  21.993000
4665   2   3   25.311000   33.817000  25.675000
4666   2   3   25.302000   33.839000  28.385000
4667   2   1   24.045000   33.102000  26.235000
4668   2   1   24.04000   33.114000  27.818000
4669   2   3   25.306000   33.804000  24.109000
4670   2   1   24.038000   33.078000  23.574000
4671   2   3   27.775000   33.966000  30.018000
4672   2   1   26.551000   33.139000  30.492000
4673   2   3   27.771000   33.878000  21.262000
4674   2   1   26.58000   33.099000  21.946000
4675   2   3   27.814000   33.964000  25.646000
4676   2   3   27.817000   33.973000  28.465000
4677   2   1   26.607000   33.149000  26.241000
4678   2   1   26.605000   33.159000  27.843000
4679   2   3   27.811000   33.947000  24.099000
4680   2   1   26.598000   33.125000  23.545000
4681   2   1   -2.934000   -0.698000  30.776000
4682   2   1   -2.973000   -2.162000  30.242000
4683   2   3   -2.952000   -5.075000  30.873000
4684   2   3   -4.221000   -4.369000  30.315000
4685   2   1   -4.216000   -2.904000  30.834000
4686   2   1   -2.936000   -0.83000  22.265000
4687   2   1   -2.945000   -2.298000  21.771000
4688   2   3   -2.948000   -5.224000  22.301000
4689   2   1   -4.216000   -3.048000  22.265000
4690   2   3   -4.191000   -4.499000  21.709000
4691   2   1   -2.982000   -2.195000  28.656000
4692   2   1   -2.958000   -0.772000  26.522000
4693   2   1   -2.957000   -0.744000  28.078000
4694   2   1   -2.985000   -2.242000  25.99000
4695   2   3   -2.975000   -5.136000  28.164000
4696   2   3   -2.975000   -5.163000  26.597000
4697   2   1   -4.238000   -2.965000  28.127000
4698   2   1   -4.238000   -2.993000  26.559000
4699   2   3   -4.23000   -4.45000  26.002000
4700   2   3   -4.232000   -4.404000  28.742000
4701   2   1   -2.984000   -2.264000  24.4000
4702   2   1   -2.958000   -0.807000  23.823000
4703   2   3   -2.967000   -5.211000  23.871000
4704   2   1   -4.237000   -3.031000  23.834000
4705   2   3   -4.226000   -4.474000  24.432000
4706   2   1   -0.403000   -0.682000  30.677000
4707   2   1   -0.405000   -2.161000  30.193000
4708   2   3   -0.389000   -5.057000  30.85000
4709   2   1   -0.424000   2.257000  30.159000
4710   2   1   -0.395000   3.714000  30.708000
4711   2   1   -1.694000   0.047000  30.194000
4712   2   1   -1.66000   1.506000  30.738000
4713   2   3   -1.678000   -4.384000  30.28000
4714   2   1   -1.678000   -2.889000  30.73000
4715   2   1   -0.398000   -0.811000  22.297000
4716   2   1   -0.4000   2.121000  21.72000
4717   2   1   -0.398000   3.595000  22.201000
4718   2   1   -0.389000   -2.288000  21.812000
4719   2   3   -0.38000   -5.207000  22.338000
4720   2   1   -1.671000   -3.026000  22.312000
4721   2   1   -1.669000   -0.092000  21.752000
4722   2   3   -1.658000   -4.504000  21.809000
4723   2   1   -1.663000   1.381000  22.234000
4724   2   1   -0.413000   -2.191000  28.626000
4725   2   1   -0.423000   -0.749000  26.499000
4726   2   1   -0.421000   -0.723000  28.076000
4727   2   1   -0.436000   2.199000  25.923000
4728   2   1   -0.419000   3.668000  26.455000
4729   2   1   -0.417000   -2.236000  25.996000
4730   2   1   -0.433000   2.237000  28.577000
4731   2   3   -0.401000   -5.124000  28.151000
4732   2   1   -0.419000   3.69000  28.01000
4733   2   3   -0.402000   -5.15000  26.595000
4734   2   1   -1.697000   -2.944000  28.125000
4735   2   1   -1.699000   -2.972000  26.535000
4736   2   1   -1.703000   0.02000  28.611000
4737   2   1   -1.706000   -0.023000  25.956000
4738   2   3   -1.69000   -4.462000  26.027000
4739   2   3   -1.687000   -4.416000  28.694000
4740   2   1   -1.685000   1.448000  26.487000
4741   2   1   -1.685000   1.473000  28.042000
4742   2   1   -0.412000   -2.259000  24.422000
4743   2   1   -0.415000   -0.788000  23.872000
4744   2   1   -0.436000   2.177000  24.343000
4745   2   3   -0.393000   -5.199000  23.896000
4746   2   1   -0.42000   3.63000  23.759000
4747   2   1   -1.69000   -3.01000  23.894000
4748   2   1   -1.706000   -0.044000  24.375000
4749   2   3   -1.686000   -4.49000  24.437000
4750   2   1   -1.686000   1.411000  23.792000
4751   2   1   2.152000   -0.665000  30.663000
4752   2   1   2.157000   -2.145000  30.184000
4753   2   3   2.175000   -5.037000  30.845000
4754   2   1   2.134000   2.265000  30.116000
4755   2   1   2.13000   3.739000  30.611000
4756   2   1   0.867000   0.052000  30.149000
4757   2   1   0.867000   1.528000  30.641000
4758   2   3   0.887000   -4.366000  30.267000
4759   2   1   0.881000   -2.873000  30.712000
4760   2   1   0.838000   4.469000  30.131000
4761   2   1   2.159000   -0.791000  22.316000
4762   2   1   2.149000   2.142000  21.758000
4763   2   1   2.136000   3.624000  22.234000
4764   2   1   2.166000   -2.268000  21.826000
4765   2   3   2.184000   -5.185000  22.342000
4766   2   1   0.889000   -3.009000  22.334000
4767   2   1   0.881000   -0.076000  21.79000
4768   2   3   0.898000   -4.482000  21.826000
4769   2   1   0.872000   1.405000  22.267000
4770   2   1   0.863000   4.338000  21.687000
4771   2   1   2.153000   -2.176000  28.618000
4772   2   1   2.143000   -0.734000  26.499000
4773   2   1   2.144000   -0.71000  28.065000
4774   2   1   2.124000   2.213000  25.929000
4775   2   1   2.112000   3.698000  26.434000
4776   2   1   2.152000   -2.221000  25.998000
4777   2   1   2.127000   2.248000  28.549000
4778   2   3   2.171000   -5.108000  28.149000
4779   2   1   2.113000   3.718000  28.01000
4780   2   3   2.17000   -5.134000  26.594000
4781   2   1   0.873000   -2.933000  28.113000
4782   2   1   0.871000   -2.959000  26.535000
4783   2   1   0.86000   0.029000  28.583000
4784   2   1   0.856000   -0.012000  25.962000
4785   2   3   0.88000   -4.445000  26.03000
4786   2   3   0.882000   -4.4000  28.684000
4787   2   1   0.847000   1.475000  26.465000
4788   2   1   0.849000   1.498000  28.04000
4789   2   1   0.828000   4.422000  25.892000
4790   2   1   0.83000   4.455000  28.548000
4791   2   1   2.155000   -2.243000  24.429000
4792   2   1   2.149000   -0.772000  23.883000
4793   2   1   2.127000   2.19000  24.361000
4794   2   3   2.177000   -5.181000  23.901000
4795   2   1   2.119000   3.657000  23.808000
4796   2   1   0.878000   -2.997000  23.908000
4797   2   1   0.86000   -0.034000  24.393000
4798   2   3   0.885000   -4.473000  24.448000
4799   2   1   0.854000   1.435000  23.84000
4800   2   1   0.828000   4.399000  24.31000
4801   2   1   2.095000   6.683000  30.113000
4802   2   1   2.124000   8.138000  30.677000
4803   2   1   0.863000   5.925000  30.684000
4804   2   1   2.119000   6.555000  21.649000
4805   2   1   2.122000   8.038000  22.114000
4806   2   1   0.86000   5.814000  22.167000
4807   2   1   2.086000   6.647000  25.862000
4808   2   1   2.106000   8.116000  26.402000
4809   2   1   2.088000   6.676000  28.526000
4810   2   1   2.106000   8.135000  27.965000
4811   2   1   0.841000   5.891000  26.426000
4812   2   1   0.842000   5.91000  27.983000
4813   2   1   2.086000   6.625000  24.274000
4814   2   1   2.108000   8.079000  23.68000
4815   2   1   0.84000   5.853000  23.725000
4816   2   1   2.253000   20.972000  30.05000
4817   2   1   2.255000   22.451000  30.521000
4818   2   1   1.011000   23.203000  29.99000
4819   2   1   2.316000   20.915000  21.481000
4820   2   1   2.294000   22.366000  22.051000
4821   2   1   1.088000   23.145000  21.463000
4822   2   1   2.267000   20.917000  25.76000
4823   2   1   2.254000   22.381000  26.305000
4824   2   1   2.251000   20.94000  28.484000
4825   2   1   2.244000   22.395000  27.893000
4826   2   1   1.028000   23.153000  25.727000
4827   2   1   1.005000   23.174000  28.432000
4828   2   1   2.278000   20.908000  24.198000
4829   2   1   2.276000   22.367000  23.638000
4830   2   1   1.042000   23.145000  24.171000
4831   2   1   -0.225000   25.426000  29.952000
4832   2   1   -0.221000   26.894000  30.444000
4833   2   1   -1.467000   27.642000  29.917000
4834   2   1   -0.134000   25.372000  21.43000
4835   2   1   -0.161000   26.823000  21.993000
4836   2   1   -1.366000   27.595000  21.392000
4837   2   1   -0.205000   25.385000  25.692000
4838   2   1   -0.216000   26.847000  26.236000
4839   2   1   -0.23000   25.403000  28.393000
4840   2   1   -0.229000   26.858000  27.817000
4841   2   1   -1.444000   27.612000  25.658000
4842   2   1   -1.472000   27.626000  28.359000
4843   2   1   -0.189000   25.376000  24.136000
4844   2   1   -0.186000   26.831000  23.576000
4845   2   1   -1.426000   27.602000  24.102000
4846   2   1   2.301000   25.381000  29.947000
4847   2   1   2.32000   26.859000  30.433000
4848   2   1   1.02000   24.673000  30.479000
4849   2   1   1.057000   27.606000  29.916000
4850   2   1   2.363000   25.318000  21.564000
4851   2   1   2.373000   26.79000  22.07000
4852   2   1   1.07000   24.596000  22.026000
4853   2   1   1.129000   27.548000  21.534000
4854   2   1   2.309000   25.333000  25.744000
4855   2   1   2.328000   26.814000  26.259000
4856   2   1   2.296000   25.358000  28.373000
4857   2   1   2.32000   26.828000  27.827000
4858   2   1   1.022000   24.616000  26.27000
4859   2   1   1.01000   24.628000  27.852000
4860   2   1   1.069000   27.568000  25.713000
4861   2   1   1.054000   27.589000  28.341000
4862   2   1   2.323000   25.324000  24.168000
4863   2   1   2.352000   26.798000  23.635000
4864   2   1   1.048000   24.601000  23.61000
4865   2   1   1.084000   27.558000  24.137000
4866   2   1   -2.724000   29.85000  29.891000
4867   2   1   -2.737000   31.31000  30.403000
4868   2   1   -3.999000   32.06000  29.902000
4869   2   1   -2.619000   29.807000  21.356000
4870   2   1   -2.676000   31.259000  21.92000
4871   2   1   -3.901000   32.011000  21.315000
4872   2   1   -2.698000   29.831000  25.628000
4873   2   1   -2.733000   31.293000  26.18000
4874   2   1   -2.727000   29.842000  28.334000
4875   2   1   -2.748000   31.302000  27.771000
4876   2   1   -3.976000   32.045000  25.603000
4877   2   1   -4.003000   32.059000  28.332000
4878   2   1   -2.679000   29.82000  24.071000
4879   2   1   -2.701000   31.274000  23.508000
4880   2   1   -3.958000   32.034000  24.034000
4881   2   1   -0.196000   29.826000  29.89000
4882   2   1   -0.188000   31.298000  30.39000
4883   2   1   -1.472000   29.107000  30.415000
4884   2   1   -1.461000   32.042000  29.883000
4885   2   1   -0.118000   29.775000  21.502000
4886   2   1   -0.127000   31.249000  22.004000
4887   2   1   -1.407000   29.046000  21.959000
4888   2   1   -1.384000   31.994000  21.46000
4889   2   1   -0.182000   29.801000  25.684000
4890   2   1   -0.178000   31.283000  26.203000
4891   2   1   -0.198000   29.817000  28.314000
4892   2   1   -0.187000   31.292000  27.777000
4893   2   1   -1.464000   29.074000  26.205000
4894   2   1   -1.479000   29.083000  27.787000
4895   2   1   -1.448000   32.029000  25.657000
4896   2   1   -1.464000   32.043000  28.3000
4897   2   1   -0.165000   29.79000  24.105000
4898   2   1   -0.15000   31.263000  23.57000
4899   2   1   -1.433000   29.057000  23.543000
4900   2   1   -1.431000   32.018000  24.066000
4901   2   1   2.352000   29.794000  29.895000
4902   2   1   2.363000   31.266000  30.399000
4903   2   1   1.07000   29.081000  30.406000
4904   2   1   1.095000   32.018000  29.886000
4905   2   1   2.41000   29.735000  21.543000
4906   2   1   2.414000   31.212000  22.036000
4907   2   1   1.13000   29.021000  22.04000
4908   2   1   1.156000   31.961000  21.503000
4909   2   1   2.368000   29.77000  25.71000
4910   2   1   2.378000   31.253000  26.224000
4911   2   1   2.354000   29.788000  28.327000
4912   2   1   2.371000   31.263000  27.794000
4913   2   1   1.081000   29.05000  26.23000
4914   2   1   1.072000   29.061000  27.799000
4915   2   1   1.111000   32.005000  25.682000
4916   2   1   1.097000   32.02000  28.311000
4917   2   1   2.381000   29.759000  24.143000
4918   2   1   2.399000   31.23000  23.602000
4919   2   1   1.108000   29.032000  23.606000
4920   2   1   1.126000   31.994000  24.105000
4921   2   3   -2.739000   34.238000  29.904000
4922   2   3   -3.987000   33.504000  30.476000
4923   2   3   -2.66000   34.186000  21.334000
4924   2   3   -3.93000   33.465000  21.865000
4925   2   3   -2.726000   34.22000  25.607000
4926   2   3   -2.743000   34.241000  28.334000
4927   2   3   -3.984000   33.495000  26.18000
4928   2   3   -3.995000   33.506000  27.751000
4929   2   3   -2.711000   34.21000  24.04000
4930   2   3   -3.959000   33.478000  23.438000
4931   2   3   -0.168000   34.221000  29.892000
4932   2   3   -1.453000   33.515000  30.402000
4933   2   3   -0.101000   34.16000  21.38000
4934   2   3   -1.393000   33.483000  21.93000
4935   2   3   -0.153000   34.204000  25.634000
4936   2   3   -0.167000   34.228000  28.334000
4937   2   3   -1.447000   33.513000  26.182000
4938   2   3   -1.456000   33.526000  27.773000
4939   2   3   -0.138000   34.194000  24.078000
4940   2   3   -1.418000   33.496000  23.515000
4941   2   3   2.397000   34.187000  29.907000
4942   2   3   1.104000   33.486000  30.408000
4943   2   3   2.451000   34.119000  21.404000
4944   2   3   1.161000   33.45000  21.965000
4945   2   3   2.415000   34.173000  25.654000
4946   2   3   2.402000   34.197000  28.349000
4947   2   3   1.12000   33.487000  26.203000
4948   2   3   1.112000   33.501000  27.785000
4949   2   3   2.427000   34.162000  24.1000
4950   2   3   1.143000   33.467000  23.548000
4951   2   1   10.178000   13.616000  29.76000
4952   2   1   10.166000   15.096000  30.268000
4953   2   1   8.895000   12.908000  30.297000
4954   2   1   8.908000   15.812000  29.76000
4955   2   1   10.153000   13.719000  21.263000
4956   2   1   10.179000   15.2000  21.763000
4957   2   1   8.846000   13.025000  21.769000
4958   2   1   8.914000   15.911000  21.214000
4959   2   1   10.161000   13.678000  25.488000
4960   2   1   10.171000   15.153000  26.041000
4961   2   1   10.166000   13.647000  28.162000
4962   2   1   10.171000   15.138000  27.64000
4963   2   1   8.865000   12.981000  26.034000
4964   2   1   8.875000   12.958000  27.593000
4965   2   1   8.905000   15.862000  25.491000
4966   2   1   8.905000   15.839000  28.205000
4967   2   1   10.152000   13.685000  23.887000
4968   2   1   10.172000   15.175000  23.363000
4969   2   1   8.849000   12.998000  23.325000
4970   2   1   8.907000   15.879000  23.931000
4971   2   1   12.725000   13.664000  29.792000
4972   2   1   12.645000   15.107000  30.302000
4973   2   1   11.475000   12.917000  30.329000
4974   2   1   11.419000   15.843000  29.761000
4975   2   1   12.705000   13.738000  21.233000
4976   2   1   12.708000   15.176000  21.751000
4977   2   1   11.445000   12.994000  21.765000
4978   2   1   11.464000   15.899000  21.184000
4979   2   1   12.702000   13.72000  25.488000
4980   2   1   12.683000   15.155000  26.057000
4981   2   1   12.689000   13.686000  28.19000
4982   2   1   12.679000   15.139000  27.679000
4983   2   1   11.456000   12.974000  26.047000
4984   2   1   11.451000   12.957000  27.602000
4985   2   1   11.441000   15.877000  25.485000
4986   2   1   11.432000   15.863000  28.217000
4987   2   1   12.685000   13.702000  23.886000
4988   2   1   12.683000   15.151000  23.369000
4989   2   1   11.436000   12.972000  23.319000
4990   2   1   11.445000   15.879000  23.93000
4991   2   1   14.131000   13.263000  30.415000
4992   2   1   14.018000   15.632000  29.878000
4993   2   1   14.09000   13.287000  21.753000
4994   2   1   14.104000   15.629000  21.22000
4995   2   1   14.08000   13.308000  26.076000
4996   2   1   14.032000   13.245000  27.593000
4997   2   1   14.048000   15.645000  25.522000
4998   2   1   14.036000   15.604000  28.302000
4999   2   1   14.037000   13.234000  23.285000
5000   2   1   14.04000   15.606000  23.962000
5001   2   1   14.926000   14.589000  30.643000
5002   2   1   14.948000   14.504000  27.726000
5003   2   1   14.984000   14.559000  26.175000
5004   2   1   14.954000   14.491000  23.412000
5005   2   1   15.017000   14.53000  21.863000
5006   2   1   -2.352000   15.748000  30.09000
5007   2   1   -0.918000   16.077000  21.933000
5008   2   1   -2.379000   16.179000  21.391000
5009   2   1   -2.341000   15.946000  25.706000
5010   2   1   -2.332000   15.796000  28.499000
5011   2   1   -0.9000   15.971000  23.483000
5012   2   1   -2.343000   16.013000  24.129000
5013   2   1   -4.199000   19.3000  30.656000
5014   2   1   -4.041000   18.276000  21.516000
5015   2   1   -4.101000   19.708000  22.175000
5016   2   1   -5.335000   20.51000  21.654000
5017   2   1   -4.057000   18.033000  25.806000
5018   2   1   -4.135000   19.487000  26.443000
5019   2   1   -4.16000   19.409000  28.041000
5020   2   1   -4.047000   18.113000  24.25000
5021   2   1   -4.108000   19.621000  23.773000
5022   2   1   -1.597000   17.987000  30.192000
5023   2   1   -1.683000   19.394000  30.802000
5024   2   1   -2.823000   17.153000  30.603000
5025   2   1   -2.925000   20.103000  30.228000
5026   2   1   -1.522000   18.393000  21.579000
5027   2   1   -1.559000   19.785000  22.216000
5028   2   1   -2.756000   17.559000  22.035000
5029   2   1   -2.826000   20.505000  21.736000
5030   2   1   -1.553000   18.174000  25.852000
5031   2   1   -1.612000   19.57000  26.503000
5032   2   1   -1.574000   18.047000  28.575000
5033   2   1   -1.629000   19.498000  28.063000
5034   2   1   -2.764000   17.325000  26.346000
5035   2   1   -2.774000   17.24000  27.973000
5036   2   1   -2.867000   20.287000  25.962000
5037   2   1   -2.902000   20.164000  28.636000
5038   2   1   -1.529000   18.237000  24.239000
5039   2   1   -1.568000   19.699000  23.767000
5040   2   1   -2.753000   17.462000  23.651000
5041   2   1   -2.842000   20.362000  24.365000
5042   2   1   -0.455000   17.18000  30.87000
5043   2   1   -0.354000   17.52000  22.04000
5044   2   1   -0.39000   17.363000  26.419000
5045   2   1   -0.4000   17.283000  27.951000
5046   2   1   -0.359000   17.446000  23.581000
5047   2   1   -6.677000   22.37000  30.271000
5048   2   1   -6.645000   23.818000  30.855000
5049   2   1   -7.858000   24.631000  30.358000
5050   2   1   -6.54000   22.757000  21.75000
5051   2   1   -6.506000   24.178000  22.38000
5052   2   1   -7.685000   24.986000  21.82000
5053   2   1   -6.609000   22.553000  26.011000
5054   2   1   -6.587000   23.99000  26.638000
5055   2   1   -6.664000   22.431000  28.715000
5056   2   1   -6.62000   23.921000  28.229000
5057   2   1   -7.787000   24.8000  26.09000
5058   2   1   -7.847000   24.686000  28.801000
5059   2   1   -6.586000   22.624000  24.454000
5060   2   1   -6.537000   24.107000  23.969000
5061   2   1   -7.757000   24.864000  24.532000
5062   2   1   -4.166000   22.306000  30.317000
5063   2   1   -4.153000   23.733000  30.95000
5064   2   1   -5.455000   21.549000  30.759000
5065   2   1   -5.349000   24.558000  30.41000
5066   2   1   -4.05000   22.693000  21.847000
5067   2   1   -4.008000   24.114000  22.447000
5068   2   1   -5.341000   21.938000  22.29000
5069   2   1   -5.205000   24.92000  21.944000
5070   2   1   -4.11000   22.488000  26.065000
5071   2   1   -4.091000   23.917000  26.697000
5072   2   1   -4.15000   22.368000  28.73000
5073   2   1   -4.117000   23.849000  28.25000
5074   2   1   -5.396000   21.733000  26.546000
5075   2   1   -5.426000   21.66000  28.137000
5076   2   1   -5.292000   24.731000  26.159000
5077   2   1   -5.337000   24.618000  28.822000
5078   2   1   -4.082000   22.561000  24.476000
5079   2   1   -4.035000   24.042000  24.0000
5080   2   1   -5.358000   21.86000  23.88000
5081   2   1   -5.259000   24.799000  24.571000
5082   2   1   -2.958000   21.519000  30.86000
5083   2   1   -2.83000   21.918000  22.341000
5084   2   1   -2.893000   21.707000  26.598000
5085   2   1   -2.915000   21.637000  28.153000
5086   2   1   -2.845000   21.839000  23.894000
5087   2   1   -9.051000   26.836000  30.421000
5088   2   1   -9.062000   28.265000  30.99000
5089   2   1   -8.836000   27.153000  21.858000
5090   2   1   -8.858000   28.555000  22.472000
5091   2   1   -8.972000   26.989000  26.142000
5092   2   1   -8.994000   28.405000  26.751000
5093   2   1   -9.039000   26.885000  28.863000
5094   2   1   -9.034000   28.347000  28.351000
5095   2   1   -8.934000   27.046000  24.582000
5096   2   1   -8.916000   28.497000  24.065000
5097   2   1   -6.541000   26.827000  30.486000
5098   2   1   -6.568000   28.282000  31.096000
5099   2   1   -7.827000   26.071000  30.934000
5100   2   1   -7.8000   29.079000  30.544000
5101   2   1   -6.359000   27.156000  22.02000
5102   2   1   -6.362000   28.599000  22.602000
5103   2   1   -7.652000   26.396000  22.446000
5104   2   1   -7.581000   29.368000  22.063000
5105   2   1   -6.478000   26.984000  26.232000
5106   2   1   -6.501000   28.435000  26.843000
5107   2   1   -6.53000   26.881000  28.896000
5108   2   1   -6.533000   28.377000  28.397000
5109   2   1   -7.764000   26.226000  26.709000
5110   2   1   -7.799000   26.162000  28.301000
5111   2   1   -7.731000   29.219000  26.276000
5112   2   1   -7.788000   29.126000  28.945000
5113   2   1   -6.438000   27.048000  24.644000
5114   2   1   -6.418000   28.542000  24.152000
5115   2   1   -7.699000   26.332000  24.035000
5116   2   1   -7.686000   29.279000  24.68000
5117   2   1   -5.337000   26.0000  31.033000
5118   2   1   -5.163000   26.351000  22.538000
5119   2   1   -5.273000   26.17000  26.782000
5120   2   1   -5.302000   26.106000  28.335000
5121   2   1   -5.204000   26.285000  24.09000
5122   2   1   -4.12000   17.834000  30.073000
5123   2   1   -4.094000   17.893000  28.529000
5124   2   1   -5.448000   20.094000  30.169000
5125   2   1   -5.429000   20.157000  28.614000
5126   2   1   -5.378000   20.287000  25.914000
5127   2   1   -5.361000   20.364000  24.356000
5128   2   1   -0.949000   15.675000  30.866000
5129   2   1   -0.892000   15.794000  27.87000
5130   2   1   -0.899000   15.884000  26.319000
5131   2   1   5.047000   13.678000  29.812000
5132   2   1   5.182000   15.123000  30.337000
5133   2   1   3.64000   13.299000  30.461000
5134   2   1   3.855000   15.709000  29.909000
5135   2   1   5.008000   13.908000  21.236000
5136   2   1   5.104000   15.352000  21.774000
5137   2   1   3.581000   13.528000  21.731000
5138   2   1   3.769000   15.942000  21.243000
5139   2   1   5.007000   13.784000  25.496000
5140   2   1   5.125000   15.224000  26.077000
5141   2   1   5.033000   13.717000  28.209000
5142   2   1   5.131000   15.19000  27.696000
5143   2   1   3.592000   13.407000  26.087000
5144   2   1   3.615000   13.354000  27.631000
5145   2   1   3.814000   15.804000  25.545000
5146   2   1   3.827000   15.741000  28.314000
5147   2   1   4.995000   13.814000  23.89000
5148   2   1   5.114000   15.286000  23.382000
5149   2   1   3.568000   13.46000  23.278000
5150   2   1   3.801000   15.832000  23.958000
5151   2   1   2.872000   14.677000  30.573000
5152   2   1   2.83000   14.712000  27.703000
5153   2   1   2.812000   14.768000  26.147000
5154   2   1   2.779000   14.817000  23.315000
5155   2   1   2.756000   14.879000  21.755000
5156   2   1   7.606000   13.615000  29.761000
5157   2   1   7.651000   15.091000  30.279000
5158   2   1   6.308000   12.915000  30.326000
5159   2   1   6.41000   15.85000  29.788000
5160   2   1   7.566000   13.767000  21.266000
5161   2   1   7.62000   15.245000  21.774000
5162   2   1   6.234000   13.093000  21.759000
5163   2   1   6.383000   16.011000  21.213000
5164   2   1   7.573000   13.696000  25.49000
5165   2   1   7.624000   15.167000  26.049000
5166   2   1   7.592000   13.651000  28.163000
5167   2   1   7.628000   15.145000  27.648000
5168   2   1   6.257000   13.01000  26.043000
5169   2   1   6.274000   12.978000  27.602000
5170   2   1   6.382000   15.922000  25.509000
5171   2   1   6.391000   15.883000  28.241000
5172   2   1   7.565000   13.715000  23.888000
5173   2   1   7.62000   15.209000  23.372000
5174   2   1   6.237000   13.049000  23.313000
5175   2   1   6.381000   15.95000  23.954000
5176   2   1   -10.326000   28.945000  30.468000
5177   2   1   -10.364000   30.347000  31.053000
5178   2   1   -10.076000   29.218000  21.838000
5179   2   1   -10.157000   30.609000  22.427000
5180   2   1   -10.239000   29.078000  26.161000
5181   2   1   -10.293000   30.468000  26.777000
5182   2   1   -10.313000   28.986000  28.912000
5183   2   1   -10.342000   30.419000  28.386000
5184   2   1   -10.194000   29.125000  24.595000
5185   2   1   -10.214000   30.544000  24.043000
5186   2   1   -7.891000   30.546000  31.158000
5187   2   1   -9.179000   31.227000  30.589000
5188   2   1   -7.669000   30.83000  22.621000
5189   2   1   -8.943000   31.463000  22.026000
5190   2   1   -7.825000   30.683000  26.875000
5191   2   1   -7.858000   30.628000  28.427000
5192   2   1   -9.111000   31.351000  26.282000
5193   2   1   -9.169000   31.264000  28.974000
5194   2   1   -7.737000   30.784000  24.16000
5195   2   1   -9.068000   31.406000  24.658000
5196   2   1   -11.554000   31.101000  30.531000
5197   2   1   -11.287000   31.356000  21.711000
5198   2   1   -11.457000   31.196000  26.159000
5199   2   1   -11.546000   31.13000  28.992000
5200   2   1   -11.418000   31.219000  24.626000
5201   2   1   -9.661000   32.618000  31.167000
5202   2   1   -11.11000   32.584000  30.571000
5203   2   1   -9.459000   32.857000  22.483000
5204   2   1   -10.81000   32.843000  21.623000
5205   2   1   -9.603000   32.726000  26.862000
5206   2   1   -9.64000   32.676000  28.432000
5207   2   1   -11.021000   32.682000  26.188000
5208   2   1   -11.096000   32.618000  29.026000
5209   2   1   -9.543000   32.81000  24.071000
5210   2   1   -10.989000   32.705000  24.642000
5211   2   1   -12.184000   33.717000  30.597000
5212   2   1   -11.972000   33.901000  21.745000
5213   2   1   -12.101000   33.784000  26.16000
5214   2   1   -12.165000   33.747000  29.024000
5215   2   1   -12.069000   33.796000  24.605000
5216   2   1   0.124000   14.492000  30.648000
5217   2   1   -0.008000   14.798000  21.79000
5218   2   1   0.076000   14.648000  26.214000
5219   2   1   0.098000   14.56000  27.757000
5220   2   1   0.049000   14.704000  23.341000
5221   2   1   1.469000   14.919000  29.938000
5222   2   1   1.358000   14.922000  20.99000
5223   2   1   1.426000   15.028000  25.523000
5224   2   1   1.461000   14.91000  28.398000
5225   2   1   1.416000   15.024000  23.987000
5226   2   2   -10.995000   28.664000  22.019000
5227   2   2   11.077000   18.977000  23.982000
5228   2   2   -2.021000   22.139000  28.512000
5229   2   2   -3.561000   29.292000  23.73000
5230   2   2   -1.951000   22.341000  24.244000
5231   2   2   -7.584000   21.958000  28.377000
5232   2   4   25.129000   -6.006000  24.182000
5233   2   4   17.548000   -5.909000  30.642000
5234   2   4   17.55000   -5.943000  28.48000
5235   2   4   9.895000   -6.097000  26.3000
5236   2   4   17.55000   -5.981000  26.294000
5237   2   4   17.548000   -6.016000  24.198000
5238   2   4   20.081000   -5.887000  30.639000
5239   2   4   27.612000   -6.07000  28.525000
5240   2   4   20.085000   -5.921000  28.478000
5241   2   4   22.618000   -5.952000  26.291000
5242   2   4   27.627000   -6.139000  24.127000
5243   2   4   12.455000   -5.983000  30.646000
5244   2   2   1.356000   20.409000  28.181000
5245   2   2   -5.145000   -2.446000  28.436000
5246   2   4   4.752000   -6.086000  30.65000
5247   2   4   4.76000   -6.186000  21.973000
5248   2   4   4.751000   -6.162000  26.303000
5249   2   4   4.751000   -6.122000  28.487000
5250   2   4   7.324000   -6.058000  30.649000
5251   2   4   7.33000   -6.154000  21.969000
5252   2   4   9.894000   -6.058000  28.484000
5253   2   4   4.757000   -6.202000  24.208000
5254   2   4   9.897000   -6.134000  24.203000
5255   2   4   12.457000   -6.072000  21.964000
5256   2   4   12.456000   -6.018000  28.483000
5257   2   4   12.457000   -6.056000  26.298000
5258   2   4   12.458000   -6.092000  24.201000
5259   2   4   15.007000   -5.943000  30.644000
5260   2   4   15.007000   -6.03000  21.961000
5261   2   4   15.008000   -5.977000  28.482000
5262   2   4   15.008000   -6.015000  26.296000
5263   2   4   15.008000   -6.051000  24.199000
5264   2   4   17.546000   -5.996000  21.96000
5265   2   4   20.075000   -5.975000  21.96000
5266   2   4   25.134000   -5.97000  26.292000
5267   2   4   20.086000   -5.959000  26.293000
5268   2   4   7.325000   -6.094000  28.486000
5269   2   4   20.081000   -5.994000  24.198000
5270   2   4   22.605000   -5.882000  30.635000
5271   2   4   7.326000   -6.133000  26.302000
5272   2   4   22.596000   -5.971000  21.959000
5273   2   4   22.616000   -5.915000  28.476000
5274   2   4   22.61000   -5.988000  24.197000
5275   2   4   25.111000   -5.901000  30.643000
5276   2   4   25.094000   -5.994000  21.945000
5277   2   4   25.129000   -5.934000  28.48000
5278   2   4   7.329000   -6.171000  24.205000
5279   2   4   27.564000   -6.025000  30.821000
5280   2   4   27.609000   -6.116000  26.3000
5281   2   4   9.893000   -6.023000  30.647000
5282   2   4   9.897000   -6.115000  21.966000
5283   2   4   27.545000   -6.131000  21.875000
5284   2   2   4.711000   -0.624000  31.751000
5285   2   2   4.682000   3.765000  31.69000
5286   2   4   4.741000   -4.926000  31.93000
5287   2   2   3.421000   1.559000  31.718000
5288   2   2   3.443000   -2.811000  31.799000
5289   2   2   4.704000   2.15000  20.681000
5290   2   2   4.726000   -2.25000  20.737000
5291   2   4   3.459000   -4.472000  20.737000
5292   2   2   3.42000   4.337000  20.634000
5293   2   2   3.437000   -0.068000  20.712000
5294   2   2   7.273000   -0.595000  31.752000
5295   2   2   7.238000   3.789000  31.691000
5296   2   4   7.31000   -4.899000  31.93000
5297   2   2   5.976000   1.583000  31.717000
5298   2   2   6.007000   -2.786000  31.799000
5299   2   2   7.26000   2.183000  20.684000
5300   2   2   7.288000   -2.217000  20.736000
5301   2   4   6.024000   -4.442000  20.735000
5302   2   2   5.966000   4.365000  20.648000
5303   2   2   5.994000   -0.037000  20.714000
5304   2   2   9.837000   -0.558000  31.753000
5305   2   2   9.805000   3.829000  31.693000
5306   2   4   9.876000   -4.865000  31.929000
5307   2   2   8.539000   1.616000  31.719000
5308   2   2   8.572000   -2.754000  31.8000
5309   2   2   9.823000   2.227000  20.685000
5310   2   2   9.851000   -2.176000  20.735000
5311   2   4   8.589000   -4.406000  20.733000
5312   2   2   8.524000   4.402000  20.652000
5313   2   2   8.555000   0.001000  20.714000
5314   2   2   12.4000   -0.513000  31.753000
5315   2   2   12.374000   3.889000  31.693000
5316   2   4   12.437000   -4.826000  31.929000
5317   2   2   11.105000   1.662000  31.72000
5318   2   2   11.135000   -2.715000  31.8000
5319   2   2   12.387000   2.284000  20.687000
5320   2   2   12.41000   -2.129000  20.734000
5321   2   4   11.151000   -4.363000  20.73000
5322   2   2   11.089000   4.457000  20.656000
5323   2   2   11.118000   0.048000  20.715000
5324   2   2   14.958000   -0.467000  31.752000
5325   2   2   14.937000   3.957000  31.691000
5326   2   4   14.991000   -4.787000  31.928000
5327   2   2   13.668000   1.715000  31.719000
5328   2   2   13.694000   -2.672000  31.8000
5329   2   2   14.944000   2.344000  20.689000
5330   2   2   14.965000   -2.084000  20.733000
5331   2   4   13.707000   -4.319000  20.728000
5332   2   2   13.656000   4.533000  20.66000
5333   2   2   13.676000   0.099000  20.715000
5334   2   2   17.512000   -0.428000  31.75000
5335   2   2   17.493000   4.011000  31.686000
5336   2   4   17.537000   -4.753000  31.927000
5337   2   2   16.226000   1.765000  31.717000
5338   2   2   16.247000   -2.633000  31.799000
5339   2   2   17.495000   2.391000  20.689000
5340   2   2   17.515000   -2.047000  20.732000
5341   2   4   16.256000   -4.279000  20.727000
5342   2   2   16.209000   4.605000  20.663000
5343   2   2   16.23000   0.145000  20.715000
5344   2   2   20.063000   -0.404000  31.748000
5345   2   2   20.042000   4.042000  31.682000
5346   2   4   20.075000   -4.731000  31.924000
5347   2   2   18.779000   1.802000  31.714000
5348   2   2   18.797000   -2.603000  31.797000
5349   2   2   20.044000   2.417000  20.688000
5350   2   2   20.061000   -2.024000  20.731000
5351   2   4   18.798000   -4.25000  20.725000
5352   2   2   18.757000   4.648000  20.662000
5353   2   2   18.78000   0.178000  20.714000
5354   2   2   22.61000   -0.398000  31.746000
5355   2   2   22.587000   4.051000  31.68000
5356   2   4   22.605000   -4.728000  31.922000
5357   2   2   21.328000   1.819000  31.711000
5358   2   2   21.341000   -2.588000  31.795000
5359   2   2   22.588000   2.422000  20.685000
5360   2   2   22.603000   -2.019000  20.729000
5361   2   4   21.333000   -4.236000  20.724000
5362   2   2   21.302000   4.664000  20.661000
5363   2   2   21.328000   0.193000  20.714000
5364   2   2   25.137000   -0.41000  31.757000
5365   2   2   25.109000   4.047000  31.694000
5366   2   4   25.112000   -4.756000  31.935000
5367   2   2   23.868000   1.816000  31.716000
5368   2   2   23.878000   -2.596000  31.8000
5369   2   2   25.109000   2.415000  20.668000
5370   2   2   25.127000   -2.041000  20.715000
5371   2   4   23.856000   -4.24000  20.715000
5372   2   2   23.841000   4.663000  20.65000
5373   2   2   23.867000   0.19000  20.706000
5374   2   4   27.599000   -0.484000  31.871000
5375   2   4   27.563000   3.988000  31.812000
5376   2   4   27.605000   -4.811000  32.073000
5377   2   2   26.403000   1.803000  31.755000
5378   2   2   26.417000   -2.634000  31.837000
5379   2   4   27.561000   2.472000  20.545000
5380   2   4   27.59000   -2.018000  20.598000
5381   2   4   26.382000   -4.291000  20.67000
5382   2   2   26.375000   4.664000  20.604000
5383   2   2   26.403000   0.179000  20.662000
5384   2   2   -7.947000   30.496000  32.244000
5385   2   2   11.085000   19.039000  30.433000
5386   2   2   11.079000   19.008000  21.738000
5387   2   2   3.465000   19.186000  30.428000
5388   2   2   11.073000   18.996000  26.074000
5389   2   2   11.077000   19.021000  28.266000
5390   2   2   13.581000   18.933000  30.407000
5391   2   2   13.573000   18.904000  21.733000
5392   2   2   -0.733000   20.137000  26.224000
5393   2   2   -2.975000   15.124000  26.028000
5394   2   2   -4.399000   26.51000  30.846000
5395   2   2   -2.033000   22.057000  30.676000
5396   2   2   -1.944000   22.45000  22.01000
5397   2   2   -7.01000   31.196000  28.798000
5398   2   2   -0.696000   20.348000  21.88000
5399   2   2   -0.693000   20.224000  24.125000
5400   2   2   -4.259000   26.852000  22.217000
5401   2   2   -5.645000   28.882000  28.763000
5402   2   2   0.555000   17.563000  28.374000
5403   2   2   -1.254000   15.492000  31.899000
5404   2   2   0.889000   1.532000  31.731000
5405   2   2   4.654000   8.15000  31.696000
5406   2   2   3.405000   5.94000  31.683000
5407   2   2   4.678000   6.533000  20.595000
5408   2   2   3.384000   8.657000  20.453000
5409   2   2   7.189000   8.153000  31.7000
5410   2   2   5.938000   5.957000  31.678000
5411   2   2   7.224000   6.558000  20.607000
5412   2   2   5.934000   8.678000  20.478000
5413   2   2   9.743000   8.189000  31.704000
5414   2   2   8.496000   5.982000  31.682000
5415   2   2   9.781000   6.601000  20.613000
5416   2   2   8.473000   8.705000  20.49000
5417   2   2   12.313000   8.27000  31.696000
5418   2   2   11.067000   6.038000  31.682000
5419   2   2   12.348000   6.673000  20.619000
5420   2   2   11.018000   8.758000  20.498000
5421   2   2   14.89000   8.407000  31.678000
5422   2   2   13.642000   6.128000  31.677000
5423   2   2   14.925000   6.796000  20.633000
5424   2   2   13.584000   8.845000  20.512000
5425   2   2   17.489000   8.473000  31.648000
5426   2   2   16.207000   6.215000  31.668000
5427   2   2   17.467000   6.879000  20.635000
5428   2   2   16.181000   9.129000  20.598000
5429   2   2   20.014000   8.538000  31.625000
5430   2   2   18.757000   6.267000  31.657000
5431   2   2   20.013000   6.912000  20.637000
5432   2   2   18.718000   9.169000  20.606000
5433   2   2   22.563000   8.525000  31.626000
5434   2   2   21.3000   6.289000  31.651000
5435   2   2   22.564000   6.909000  20.632000
5436   2   2   21.286000   9.16000  20.608000
5437   2   2   25.09000   8.516000  31.644000
5438   2   2   23.84000   6.282000  31.658000
5439   2   2   25.088000   6.903000  20.613000
5440   2   2   23.833000   9.155000  20.6000
5441   2   4   27.547000   8.451000  31.764000
5442   2   2   26.375000   6.272000  31.701000
5443   2   4   27.54000   6.959000  20.49000
5444   2   2   26.369000   9.154000  20.555000
5445   2   2   -11.196000   28.451000  28.566000
5446   2   2   -11.451000   30.977000  20.702000
5447   2   2   3.804000   12.891000  31.458000
5448   2   2   3.769000   15.988000  20.155000
5449   2   2   3.105000   12.691000  21.223000
5450   2   2   3.05000   12.579000  23.642000
5451   2   2   3.63000   16.76000  27.994000
5452   2   2   3.063000   12.561000  25.66000
5453   2   2   3.558000   16.943000  21.596000
5454   2   2   10.975000   9.899000  21.794000
5455   2   2   10.958000   9.95000  26.145000
5456   2   2   10.952000   9.977000  28.243000
5457   2   2   6.327000   12.91000  31.415000
5458   2   2   6.377000   15.974000  20.124000
5459   2   2   6.189000   12.005000  23.6000
5460   2   2   10.962000   9.922000  23.953000
5461   2   2   6.25000   11.939000  27.899000
5462   2   2   -7.008000   31.139000  30.945000
5463   2   2   6.425000   17.06000  21.47000
5464   2   2   6.396000   16.926000  27.942000
5465   2   2   13.474000   10.06000  30.455000
5466   2   2   13.471000   9.999000  21.787000
5467   2   2   -6.905000   31.365000  24.54000
5468   2   2   2.382000   20.937000  20.394000
5469   2   2   -9.691000   32.618000  32.255000
5470   2   2   1.159000   23.172000  20.376000
5471   2   2   -12.182000   31.13000  22.249000
5472   2   2   -12.482000   30.797000  28.574000
5473   2   2   -3.867000   -0.281000  24.11000
5474   2   2   -12.217000   34.258000  20.745000
5475   2   2   -9.062000   33.471000  30.862000
5476   2   2   -8.989000   33.652000  24.477000
5477   2   2   -8.998000   33.57000  26.541000
5478   2   2   17.71000   13.018000  31.699000
5479   2   2   16.428000   10.614000  31.768000
5480   2   2   17.373000   11.5000  20.543000
5481   2   2   20.09000   13.006000  31.6000
5482   2   2   18.753000   10.808000  31.598000
5483   2   2   20.034000   11.419000  20.573000
5484   2   2   18.881000   13.667000  20.518000
5485   2   2   22.6000   12.997000  31.587000
5486   2   2   21.294000   10.765000  31.602000
5487   2   2   22.585000   11.402000  20.585000
5488   2   2   21.369000   13.657000  20.557000
5489   2   2   25.113000   12.988000  31.605000
5490   2   2   23.84000   10.751000  31.612000
5491   2   2   25.105000   11.396000  20.57000
5492   2   2   23.879000   13.654000  20.56000
5493   2   4   27.566000   12.917000  31.726000
5494   2   2   26.375000   10.738000  31.657000
5495   2   4   27.557000   11.447000  20.45000
5496   2   2   26.403000   13.65000  20.519000
5497   2   4   4.976000   35.169000  30.299000
5498   2   2   -0.028000   6.311000  21.773000
5499   2   2   -11.769000   34.731000  26.577000
5500   2   4   4.993000   35.179000  25.968000
5501   2   2   -4.923000   17.577000  23.89000
5502   2   4   4.985000   35.203000  28.063000
5503   2   2   1.373000   14.132000  20.242000
5504   2   4   5.005000   35.158000  23.783000
5505   2   4   5.018000   35.14000  21.623000
5506   2   2   -0.35000   13.652000  30.154000
5507   2   2   -0.597000   13.976000  21.384000
5508   2   2   1.455000   16.063000  23.749000
5509   2   4   7.543000   35.119000  30.309000
5510   2   4   7.569000   35.087000  21.628000
5511   2   4   7.556000   35.13000  25.976000
5512   2   2   1.205000   8.66000  28.279000
5513   2   2   -0.401000   13.777000  23.687000
5514   2   4   7.549000   35.154000  28.072000
5515   2   2   1.451000   16.074000  25.732000
5516   2   4   10.103000   35.062000  30.313000
5517   2   2   -1.321000   4.241000  30.485000
5518   2   4   10.114000   35.051000  23.792000
5519   2   4   12.654000   35.003000  30.315000
5520   2   4   12.658000   34.971000  21.63000
5521   2   4   12.655000   35.039000  28.076000
5522   2   4   12.658000   34.992000  23.791000
5523   2   4   15.193000   34.947000  30.314000
5524   2   4   15.192000   34.916000  21.629000
5525   2   4   15.195000   34.96000  25.978000
5526   2   4   15.194000   34.982000  28.074000
5527   2   4   15.194000   34.936000  23.79000
5528   2   4   17.723000   34.899000  30.311000
5529   2   4   7.562000   35.107000  23.789000
5530   2   4   17.72000   34.869000  21.628000
5531   2   4   17.725000   34.912000  25.976000
5532   2   4   17.724000   34.934000  28.072000
5533   2   4   17.723000   34.889000  23.788000
5534   2   4   20.244000   34.864000  30.309000
5535   2   4   20.241000   34.835000  21.629000
5536   2   4   20.251000   34.877000  25.975000
5537   2   4   20.248000   34.898000  28.069000
5538   2   4   20.249000   34.854000  23.788000
5539   2   4   22.757000   34.847000  30.308000
5540   2   2   -1.284000   4.095000  21.807000
5541   2   4   22.757000   34.819000  21.632000
5542   2   4   22.776000   34.858000  25.975000
5543   2   4   22.772000   34.836000  23.789000
5544   2   2   -8.715000   24.301000  26.363000
5545   2   4   25.257000   34.829000  21.624000
5546   2   4   25.283000   34.886000  28.083000
5547   2   4   25.279000   34.845000  23.785000
5548   2   4   27.692000   34.987000  30.391000
5549   2   4   10.106000   35.097000  28.076000
5550   2   4   27.706000   34.948000  21.45000
5551   2   4   27.755000   35.004000  25.966000
5552   2   4   27.775000   35.011000  28.139000
5553   2   2   -1.323000   4.21000  28.324000
5554   2   2   2.246000   22.478000  31.611000
5555   2   2   -1.327000   4.18000  26.139000
5556   2   2   -8.671000   24.395000  24.172000
5557   2   2   17.488000   17.395000  31.599000
5558   2   2   16.684000   14.871000  31.675000
5559   2   2   17.546000   15.803000  20.468000
5560   2   2   16.295000   18.252000  20.468000
5561   2   2   20.08000   17.467000  31.558000
5562   2   2   18.881000   15.272000  31.556000
5563   2   2   20.126000   15.944000  20.519000
5564   2   2   18.799000   18.15000  20.548000
5565   2   2   22.62000   17.477000  31.558000
5566   2   2   21.35000   15.249000  31.564000
5567   2   2   22.639000   15.916000  20.547000
5568   2   2   21.357000   18.175000  20.542000
5569   2   2   25.138000   17.467000  31.577000
5570   2   2   23.874000   15.23000  31.578000
5571   2   2   25.143000   15.899000  20.538000
5572   2   2   23.897000   18.16000  20.536000
5573   2   4   27.59000   17.395000  31.7000
5574   2   2   26.403000   15.212000  31.625000
5575   2   4   27.591000   15.947000  20.421000
5576   2   2   26.428000   18.149000  20.494000
5577   2   2   -9.953000   29.269000  20.755000
5578   2   2   -0.066000   6.402000  26.11000
5579   2   2   -7.486000   22.257000  21.944000
5580   2   4   -2.74000   35.264000  30.274000
5581   2   2   -4.962000   17.342000  28.175000
5582   2   4   -2.741000   35.264000  25.914000
5583   2   2   6.015000   19.127000  28.264000
5584   2   2   6.026000   19.085000  23.977000
5585   2   2   8.554000   19.101000  30.434000
5586   2   2   8.561000   19.07000  21.738000
5587   2   2   8.549000   19.056000  26.076000
5588   2   2   8.55000   19.081000  28.268000
5589   2   2   8.555000   19.038000  23.983000
5590   2   2   13.564000   18.895000  26.06000
5591   2   2   13.562000   18.918000  28.243000
5592   2   2   13.564000   18.872000  23.971000
5593   2   2   3.366000   9.897000  30.473000
5594   2   2   3.36000   9.814000  21.741000
5595   2   2   3.343000   9.885000  26.113000
5596   2   2   3.342000   9.914000  28.227000
5597   2   2   3.35000   9.852000  23.915000
5598   2   4   27.756000   34.975000  23.741000
5599   2   2   5.904000   9.872000  30.484000
5600   2   2   5.916000   9.825000  21.771000
5601   2   2   5.898000   9.881000  26.13000
5602   2   2   5.897000   9.907000  28.232000
5603   2   2   5.904000   9.853000  23.935000
5604   2   2   8.429000   9.888000  30.493000
5605   2   2   8.447000   9.85000  21.785000
5606   2   2   8.43000   9.902000  26.141000
5607   2   2   8.426000   9.928000  28.241000
5608   2   2   8.435000   9.875000  23.946000
5609   2   2   10.956000   9.94000  30.493000
5610   2   2   4.803000   22.45000  31.596000
5611   2   2   3.489000   20.336000  31.722000
5612   2   2   4.838000   20.867000  20.491000
5613   2   2   3.618000   23.1000  20.496000
5614   2   2   7.349000   22.405000  31.598000
5615   2   2   6.039000   20.3000  31.719000
5616   2   2   7.345000   20.824000  20.508000
5617   2   2   6.124000   23.052000  20.52000
5618   2   2   9.905000   22.346000  31.599000
5619   2   2   8.582000   20.255000  31.719000
5620   2   2   9.873000   20.77000  20.51000
5621   2   2   8.655000   23.001000  20.527000
5622   2   2   12.472000   22.259000  31.591000
5623   2   2   11.133000   20.192000  31.714000
5624   2   2   12.418000   20.691000  20.51000
5625   2   2   11.199000   22.933000  20.528000
5626   2   2   15.044000   22.125000  31.57000
5627   2   2   13.697000   20.078000  31.691000
5628   2   2   14.989000   20.55000  20.52000
5629   2   2   13.755000   22.837000  20.528000
5630   2   2   17.582000   22.024000  31.555000
5631   2   2   16.293000   19.803000  31.599000
5632   2   2   17.556000   20.47000  20.534000
5633   2   2   16.306000   22.744000  20.529000
5634   2   2   20.116000   21.972000  31.542000
5635   2   2   18.813000   19.718000  31.557000
5636   2   2   20.089000   20.412000  20.54000
5637   2   2   18.848000   22.684000  20.529000
5638   2   2   22.656000   21.959000  31.541000
5639   2   2   21.36000   19.717000  31.549000
5640   2   2   22.639000   20.406000  20.535000
5641   2   2   21.391000   22.653000  20.527000
5642   2   2   25.175000   21.951000  31.557000
5643   2   2   23.899000   19.71000  31.557000
5644   2   2   25.163000   20.393000  20.518000
5645   2   2   23.929000   22.644000  20.517000
5646   2   4   27.625000   21.876000  31.679000
5647   2   2   26.431000   19.693000  31.602000
5648   2   4   27.615000   20.44000  20.398000
5649   2   2   26.462000   22.636000  20.473000
5650   2   2   13.457000   10.051000  26.136000
5651   2   2   13.468000   10.08000  28.225000
5652   2   2   13.467000   10.02000  23.955000
5653   2   2   3.52000   19.147000  21.694000
5654   2   2   3.472000   19.136000  26.054000
5655   2   2   3.467000   19.158000  28.255000
5656   2   2   3.478000   19.119000  23.945000
5657   2   2   6.018000   19.148000  30.431000
5658   2   2   6.041000   19.118000  21.731000
5659   2   2   6.018000   19.102000  26.071000
5660   2   2   15.324000   11.01000  24.122000
5661   2   2   15.361000   17.853000  28.197000
5662   2   2   15.378000   17.825000  23.965000
5663   2   2   15.41000   17.835000  26.136000
5664   2   2   15.422000   17.849000  30.437000
5665   2   2   15.283000   11.118000  30.655000
5666   2   2   15.406000   17.84000  21.884000
5667   2   2   15.278000   11.043000  21.868000
5668   2   2   15.259000   11.056000  26.188000
5669   2   2   15.348000   11.038000  28.395000
5670   2   2   -4.935000   17.695000  21.727000
5671   2   2   0.607000   17.698000  23.998000
5672   2   4   2.177000   -6.143000  28.487000
5673   2   4   2.183000   -6.224000  24.211000
5674   2   4   -0.395000   -6.16000  28.489000
5675   2   4   -0.397000   -6.199000  26.305000
5676   2   4   -0.39000   -6.241000  24.21000
5677   2   4   2.182000   -6.108000  30.651000
5678   2   4   2.192000   -6.213000  21.976000
5679   2   2   -2.875000   -0.708000  31.864000
5680   2   4   -2.943000   -5.002000  31.96000
5681   2   2   -4.169000   -2.9000  31.923000
5682   2   2   0.162000   22.628000  21.672000
5683   2   2   -2.934000   -2.301000  20.68000
5684   2   4   -4.13000   -4.48000  20.621000
5685   2   2   -0.381000   -0.672000  31.768000
5686   2   2   -0.335000   3.694000  31.796000
5687   2   4   -0.385000   -4.971000  31.937000
5688   2   2   -1.6000   1.49000  31.826000
5689   2   2   -1.655000   -2.856000  31.82000
5690   2   2   -0.395000   2.102000  20.629000
5691   2   2   -0.381000   -2.301000  20.722000
5692   2   4   -1.641000   -4.519000  20.718000
5693   2   2   -1.666000   -0.108000  20.662000
5694   2   2   2.154000   -0.646000  31.753000
5695   2   2   2.151000   3.739000  31.702000
5696   2   4   2.175000   -4.948000  31.931000
5697   2   2   0.884000   -2.831000  31.802000
5698   2   2   2.157000   2.12000  20.667000
5699   2   2   2.168000   -2.277000  20.735000
5700   2   4   0.9000   -4.497000  20.735000
5701   2   2   0.868000   4.318000  20.596000
5702   2   2   0.89000   -0.095000  20.699000
5703   2   2   0.146000   22.635000  23.836000
5704   2   2   1.365000   20.476000  30.431000
5705   2   2   1.404000   20.376000  21.702000
5706   2   2   -8.634000   24.487000  22.006000
5707   2   2   1.371000   20.396000  26.071000
5708   2   2   1.389000   20.385000  23.867000
5709   2   2   -2.354000   27.139000  30.293000
5710   2   2   -2.346000   27.096000  25.957000
5711   2   2   -2.313000   27.083000  23.761000
5712   2   2   2.183000   8.116000  31.765000
5713   2   2   0.921000   5.902000  31.772000
5714   2   2   2.121000   6.524000  20.558000
5715   2   2   -1.114000   24.93000  30.332000
5716   2   2   -1.059000   24.849000  21.627000
5717   2   2   -1.134000   24.888000  28.089000
5718   2   2   -1.082000   24.864000  23.798000
5719   2   2   0.121000   22.646000  26.032000
5720   2   2   -2.592000   1.961000  26.171000
5721   2   2   4.862000   26.828000  31.53000
5722   2   2   3.563000   24.652000  31.556000
5723   2   2   4.897000   25.269000  20.506000
5724   2   2   3.664000   27.498000  20.481000
5725   2   2   7.416000   26.776000  31.538000
5726   2   2   6.108000   24.605000  31.558000
5727   2   2   7.424000   25.22000  20.518000
5728   2   2   6.189000   27.448000  20.497000
5729   2   2   9.975000   26.715000  31.541000
5730   2   2   8.664000   24.55000  31.563000
5731   2   2   9.965000   25.16000  20.522000
5732   2   2   8.725000   27.392000  20.504000
5733   2   2   12.535000   26.642000  31.539000
5734   2   2   11.226000   24.48000  31.562000
5735   2   2   12.512000   25.087000  20.521000
5736   2   2   11.268000   27.329000  20.505000
5737   2   2   15.087000   26.567000  31.533000
5738   2   2   13.789000   24.389000  31.554000
5739   2   2   15.06000   25.01000  20.519000
5740   2   2   13.813000   27.262000  20.504000
5741   2   2   17.632000   26.505000  31.527000
5742   2   2   16.337000   24.303000  31.544000
5743   2   2   17.604000   24.947000  20.517000
5744   2   2   16.358000   27.201000  20.501000
5745   2   2   20.174000   26.464000  31.521000
5746   2   2   18.878000   24.243000  31.536000
5747   2   2   20.148000   24.907000  20.515000
5748   2   2   18.902000   27.155000  20.5000
5749   2   2   22.712000   26.444000  31.519000
5750   2   2   21.416000   24.211000  31.531000
5751   2   2   22.69000   24.886000  20.512000
5752   2   2   21.447000   27.127000  20.498000
5753   2   2   25.229000   26.437000  31.534000
5754   2   2   23.948000   24.196000  31.537000
5755   2   2   25.211000   24.876000  20.496000
5756   2   2   23.983000   27.118000  20.491000
5757   2   4   27.678000   26.366000  31.654000
5758   2   2   26.479000   24.18000  31.58000
5759   2   4   27.661000   24.924000  20.376000
5760   2   2   26.516000   27.12000  20.45000
5761   2   4   2.176000   -6.183000  26.305000
5762   2   4   10.116000   35.03000  21.631000
5763   2   4   10.111000   35.074000  25.979000
5764   2   4   12.658000   35.015000  25.979000
5765   2   4   -2.968000   -6.142000  30.66000
5766   2   4   25.248000   34.858000  30.32000
5767   2   2   -6.347000   19.576000  30.506000
5768   2   4   25.286000   34.865000  25.973000
5769   2   2   -0.23000   26.905000  31.535000
5770   2   2   1.234000   8.537000  21.724000
5771   2   2   -0.054000   25.401000  20.344000
5772   2   2   -1.277000   27.628000  20.307000
5773   2   2   2.319000   26.874000  31.524000
5774   2   2   1.012000   24.688000  31.569000
5775   2   2   2.397000   25.324000  20.473000
5776   2   2   1.166000   27.553000  20.444000
5777   2   4   -2.944000   -6.254000  21.943000
5778   2   4   -2.984000   -6.212000  26.303000
5779   2   2   -6.336000   19.662000  28.273000
5780   2   2   -2.739000   31.3000  31.494000
5781   2   2   -2.527000   29.84000  20.271000
5782   2   2   -3.828000   32.031000  20.229000
5783   2   2   -0.189000   31.301000  31.481000
5784   2   2   -1.481000   29.113000  31.506000
5785   2   2   -0.08000   29.778000  20.412000
5786   2   2   -1.346000   31.977000  20.37000
5787   2   2   2.357000   31.267000  31.489000
5788   2   2   1.069000   29.093000  31.496000
5789   2   2   2.422000   29.725000  20.452000
5790   2   2   1.168000   31.931000  20.413000
5791   2   4   -2.98000   -6.172000  28.501000
5792   2   4   -3.936000   33.472000  31.564000
5793   2   4   -2.638000   34.135000  20.246000
5794   2   4   -1.445000   33.519000  31.493000
5795   2   4   -0.088000   34.09000  20.293000
5796   2   4   1.098000   33.491000  31.499000
5797   2   4   2.456000   34.043000  20.317000
5798   2   4   -0.384000   -6.127000  30.653000
5799   2   4   -2.681000   35.248000  21.568000
5800   2   2   -6.291000   19.762000  26.186000
5801   2   4   -2.756000   35.285000  28.025000
5802   2   4   -2.715000   35.249000  23.716000
5803   2   4   -0.16000   35.246000  30.266000
5804   2   4   -0.093000   35.226000  21.595000
5805   2   4   -0.148000   35.25000  25.936000
5806   2   4   -0.158000   35.273000  28.031000
5807   2   4   -0.125000   35.234000  23.753000
5808   2   4   2.408000   35.211000  30.283000
5809   2   4   2.465000   35.186000  21.613000
5810   2   4   2.425000   35.22000  25.955000
5811   2   4   2.416000   35.243000  28.048000
5812   2   4   2.443000   35.201000  23.772000
5813   2   4   -4.909000   34.034000  30.244000
5814   2   4   -4.887000   34.011000  25.857000
5815   2   4   -4.901000   34.025000  28.063000
5816   2   4   -4.817000   33.97000  21.479000
5817   2   4   -4.871000   33.995000  23.731000
5818   2   2   -5.145000   -2.393000  30.59000
5819   2   4   -5.107000   -4.876000  30.698000
5820   2   2   -5.103000   -2.542000  21.88000
5821   2   4   -5.113000   -5.03000  21.938000
5822   2   4   -0.371000   -6.236000  21.975000
5823   2   2   -5.148000   -2.487000  26.239000
5824   2   4   -5.137000   -4.933000  28.448000
5825   2   4   -5.132000   -4.968000  26.322000
5826   2   2   -5.152000   -2.519000  24.128000
5827   2   4   -5.127000   -5.002000  24.118000
5828   2   2   6.405000   16.953000  25.844000
5829   2   2   -6.267000   19.875000  24.003000
5830   2   2   -4.883000   31.544000  30.27000
5831   2   2   -4.823000   31.483000  21.52000
5832   2   2   -4.877000   31.525000  25.908000
5833   2   2   -4.905000   31.543000  28.019000
5834   2   2   -4.846000   31.508000  23.701000
5835   2   4   -2.982000   -6.252000  24.19000
5836   2   2   -3.606000   29.337000  30.263000
5837   2   2   -4.304000   26.765000  24.454000
5838   2   2   0.12000   22.71000  30.373000
5839   2   2   -3.536000   29.266000  21.537000
5840   2   2   -0.063000   6.451000  30.461000
5841   2   2   -5.539000   29.052000  24.523000
5842   2   2   -2.371000   27.107000  28.051000
5843   2   2   -2.288000   27.063000  21.577000
5844   2   2   4.913000   31.224000  31.503000
5845   2   2   3.612000   29.052000  31.504000
5846   2   2   4.949000   29.676000  20.471000
5847   2   2   3.703000   31.884000  20.434000
5848   2   2   7.472000   31.173000  31.513000
5849   2   2   6.166000   29.004000  31.516000
5850   2   2   7.484000   29.623000  20.481000
5851   2   2   6.242000   31.833000  20.445000
5852   2   2   10.03000   31.115000  31.518000
5853   2   2   8.723000   28.948000  31.522000
5854   2   2   10.025000   29.564000  20.484000
5855   2   2   8.784000   31.777000  20.45000
5856   2   2   12.584000   31.052000  31.518000
5857   2   2   11.281000   28.884000  31.524000
5858   2   2   12.568000   29.502000  20.484000
5859   2   2   11.326000   31.717000  20.451000
5860   2   2   15.131000   30.992000  31.516000
5861   2   2   13.834000   28.817000  31.522000
5862   2   2   15.11000   29.443000  20.482000
5863   2   2   13.867000   31.658000  20.45000
5864   2   2   17.673000   30.94000  31.513000
5865   2   2   16.381000   28.756000  31.518000
5866   2   2   17.653000   29.392000  20.48000
5867   2   2   16.406000   31.605000  20.448000
5868   2   2   20.212000   30.903000  31.51000
5869   2   2   18.924000   28.708000  31.513000
5870   2   2   20.197000   29.357000  20.479000
5871   2   2   18.945000   31.563000  20.447000
5872   2   2   22.748000   30.885000  31.509000
5873   2   2   21.465000   28.679000  31.509000
5874   2   2   22.739000   29.34000  20.478000
5875   2   2   21.483000   31.538000  20.447000
5876   2   2   25.267000   30.895000  31.521000
5877   2   2   23.999000   28.669000  31.514000
5878   2   2   25.263000   29.342000  20.465000
5879   2   2   24.015000   31.536000  20.44000
5880   2   4   27.726000   30.86000  31.636000
5881   2   2   26.532000   28.667000  31.555000
5882   2   4   27.72000   29.409000  20.35000
5883   2   2   26.551000   31.566000  20.401000
5884   2   2   -1.111000   24.875000  25.994000
5885   2   2   10.16000   15.11000  31.36000
5886   2   2   8.895000   12.918000  31.387000
5887   2   2   10.15000   13.701000  20.172000
5888   2   2   8.91000   15.861000  20.126000
5889   2   2   12.568000   15.121000  31.393000
5890   2   2   11.463000   12.929000  31.418000
5891   2   2   12.702000   13.707000  20.142000
5892   2   2   11.465000   15.848000  20.096000
5893   2   2   13.99000   12.73000  31.354000
5894   2   2   14.167000   15.599000  20.133000
5895   2   2   11.422000   16.858000  30.15000
5896   2   2   8.918000   16.898000  25.811000
5897   2   2   11.461000   11.934000  23.621000
5898   2   2   14.556000   12.524000  25.559000
5899   2   2   8.829000   12.01000  21.38000
5900   2   2   8.881000   11.92000  27.89000
5901   2   2   8.905000   11.864000  30.02000
5902   2   2   14.716000   12.665000  29.76000
5903   2   2   14.146000   16.642000  25.862000
5904   2   2   14.219000   16.563000  23.543000
5905   2   2   11.454000   16.9000  27.904000
5906   2   2   14.228000   16.634000  21.51000
5907   2   2   14.325000   12.302000  27.922000
5908   2   2   8.864000   11.95000  25.704000
5909   2   2   14.517000   12.508000  21.152000
5910   2   2   11.454000   16.91000  25.806000
5911   2   2   8.942000   16.967000  21.448000
5912   2   2   8.911000   16.83000  30.146000
5913   2   2   11.484000   11.924000  27.911000
5914   2   2   8.911000   16.884000  27.91000
5915   2   2   11.461000   11.982000  21.372000
5916   2   2   11.523000   11.877000  30.046000
5917   2   2   8.84000   11.955000  23.615000
5918   2   2   14.345000   12.305000  23.638000
5919   2   2   11.494000   11.946000  25.713000
5920   2   2   11.494000   16.952000  21.427000
5921   2   2   11.472000   16.91000  23.598000
5922   2   2   14.204000   16.568000  27.899000
5923   2   2   14.073000   16.625000  30.275000
5924   2   2   8.926000   16.918000  23.62000
5925   2   2   14.716000   14.819000  31.691000
5926   2   2   -2.383000   16.23000  20.303000
5927   2   2   -4.242000   19.236000  31.744000
5928   2   2   -4.002000   18.368000  20.431000
5929   2   2   -5.284000   20.596000  20.569000
5930   2   2   -1.762000   19.333000  31.887000
5931   2   2   -2.913000   17.117000  31.691000
5932   2   2   -1.492000   18.491000  20.492000
5933   2   2   -2.797000   20.588000  20.648000
5934   2   2   -0.328000   17.5000  31.904000
5935   2   2   -2.588000   1.995000  28.354000
5936   2   2   -3.86000   -0.218000  28.388000
5937   2   2   -6.683000   23.762000  31.944000
5938   2   2   -6.474000   22.837000  20.665000
5939   2   2   -7.602000   25.061000  20.736000
5940   2   2   -4.22000   23.657000  32.035000
5941   2   2   -5.491000   21.485000  31.847000
5942   2   2   -4.01000   22.766000  20.759000
5943   2   2   -5.155000   24.989000  20.856000
5944   2   2   -3.03000   21.439000  31.945000
5945   2   2   -3.863000   -0.256000  26.205000
5946   2   2   -6.632000   28.221000  32.182000
5947   2   2   -7.868000   26.022000  32.023000
5948   2   2   -6.295000   27.219000  20.932000
5949   2   2   -7.5000   29.419000  20.976000
5950   2   2   -5.404000   25.932000  32.118000
5951   2   2   -9.103000   28.217000  32.079000
5952   2   2   -8.731000   27.224000  20.775000
5953   2   2   -9.949000   26.32000  30.763000
5954   2   2   -9.772000   26.626000  22.032000
5955   2   2   -9.888000   26.465000  26.413000
5956   2   2   -9.942000   26.379000  28.526000
5957   2   2   -9.829000   26.544000  24.217000
5958   2   2   -3.029000   14.968000  30.437000
5959   2   2   -3.029000   15.359000  21.679000
5960   2   2   -2.596000   1.936000  24.078000
5961   2   2   -2.961000   14.999000  28.111000
5962   2   2   -3.003000   15.24000  23.744000
5963   2   2   -6.266000   19.983000  21.853000
5964   2   2   -4.936000   17.457000  26.085000
5965   2   2   -8.769000   24.139000  30.701000
5966   2   2   -8.766000   24.21000  28.464000
5967   2   2   -7.588000   21.877000  30.612000
5968   2   2   -7.536000   22.052000  26.284000
5969   2   2   -7.503000   22.157000  24.098000
5970   2   2   -4.987000   17.265000  30.41000
5971   2   2   0.475000   17.446000  30.406000
5972   2   2   -3.21000   24.325000  28.611000
5973   2   2   -5.644000   28.816000  30.907000
5974   2   2   -5.471000   29.126000  22.288000
5975   2   2   0.611000   17.709000  21.572000
5976   2   2   -3.106000   24.617000  22.119000
5977   2   2   0.575000   17.684000  26.053000
5978   2   2   -1.991000   22.245000  26.329000
5979   2   2   -5.597000   28.969000  26.582000
5980   2   2   -0.78000   19.959000  30.605000
5981   2   2   -3.214000   24.244000  30.764000
5982   2   2   -4.398000   26.584000  28.699000
5983   2   2   -0.759000   20.034000  28.426000
5984   2   2   -3.175000   24.428000  26.43000
5985   2   2   -3.13000   24.52000  24.355000
5986   2   2   5.24000   15.129000  31.429000
5987   2   2   5.016000   13.895000  20.145000
5988   2   2   3.114000   12.466000  27.998000
5989   2   2   3.069000   12.538000  29.949000
5990   2   2   3.724000   16.708000  30.326000
5991   2   2   3.627000   16.856000  23.645000
5992   2   2   3.647000   16.812000  25.913000
5993   2   2   7.665000   15.099000  31.37000
5994   2   2   7.571000   13.756000  20.175000
5995   2   2   6.216000   11.983000  25.701000
5996   2   2   6.424000   16.864000  30.184000
5997   2   2   6.177000   12.084000  21.356000
5998   2   2   6.408000   16.988000  23.643000
5999   2   2   6.274000   11.877000  30.03000
6000   2   2   -8.811000   31.475000  20.941000
6001   2   2   -10.412000   30.297000  32.143000
6002   2   2   -11.205000   28.399000  30.816000
6003   2   2   -11.136000   28.526000  26.439000
6004   2   2   -11.064000   28.585000  24.221000
6005   2   2   -6.816000   31.419000  22.301000
6006   2   2   -6.957000   31.273000  26.604000
6007   2   2   -10.467000   32.99000  20.596000
6008   2   2   -12.471000   30.775000  31.006000
6009   2   2   -12.397000   30.838000  26.544000
6010   2   2   -12.334000   30.84000  24.202000
6011   2   2   -8.791000   33.654000  22.152000
6012   2   2   -9.053000   33.503000  28.82000
6013   2   2   -11.786000   34.695000  28.654000
6014   2   2   -11.638000   34.789000  22.267000
6015   2   2   -11.711000   34.755000  24.247000
6016   2   2   -11.805000   34.631000  31.051000
6017   2   2   0.393000   14.093000  31.625000
6018   2   2   1.477000   15.953000  28.176000
6019   2   2   1.315000   15.837000  20.405000
6020   2   2   -0.398000   13.765000  25.795000
6021   2   2   -0.328000   13.617000  28.089000
6022   2   2   1.473000   15.961000  30.159000
6023   2   2   -0.064000   6.428000  28.297000
6024   2   2   -1.331000   4.153000  24.043000
6025   2   2   -0.072000   6.375000  24.01000
6026   2   2   1.207000   8.678000  30.449000
6027   2   4   3.66000   33.453000  31.514000
6028   2   4   5.001000   33.994000  20.329000
6029   2   2   1.205000   8.638000  26.082000
6030   2   4   6.224000   33.407000  31.527000
6031   2   4   7.547000   33.94000  20.335000
6032   2   4   8.786000   33.353000  31.534000
6033   2   4   10.091000   33.883000  20.337000
6034   2   4   11.341000   33.294000  31.537000
6035   2   4   12.631000   33.824000  20.337000
6036   2   2   13.889000   33.234000  31.537000
6037   2   4   15.168000   33.769000  20.335000
6038   2   2   16.429000   33.179000  31.536000
6039   2   4   17.701000   33.722000  20.334000
6040   2   2   18.963000   33.136000  31.533000
6041   2   4   20.23000   33.689000  20.334000
6042   2   2   21.49000   33.109000  31.531000
6043   2   4   22.753000   33.676000  20.335000
6044   2   2   24.007000   33.1000  31.539000
6045   2   4   25.253000   33.695000  20.322000
6046   2   2   26.528000   33.14000  31.582000
6047   2   4   27.739000   33.752000  20.181000
6048   2   2   1.205000   8.614000  23.968000
6049   2   2   -2.585000   2.035000  30.514000
6050   2   2   -3.857000   -0.169000  30.549000
6051   2   2   -2.549000   1.884000  21.842000
6052   2   2   -3.821000   -0.323000  21.876000
6053   2   2   -3.594000   29.306000  25.927000
6054   2   4   22.77000   34.879000  28.069000
6055   2   2   -4.356000   26.68000  26.519000
6056   2   2   -3.622000   29.317000  28.022000
6057   2   2   2.786000   14.912000  31.637000
6058   2   2   0.1000   22.659000  28.13000
6059   2   4   28.62000   0.002000  30.565000
6060   2   4   28.576000   2.104000  30.564000
6061   2   4   28.61000   -4.622000  30.663000
6062   2   4   28.588000   -2.404000  30.633000
6063   2   4   28.588000   4.487000  30.514000
6064   2   4   28.601000   -2.533000  21.904000
6065   2   4   28.585000   -0.128000  21.855000
6066   2   4   28.556000   -4.725000  21.823000
6067   2   4   28.59000   1.98000  21.843000
6068   2   4   28.558000   4.366000  21.792000
6069   2   4   28.636000   -2.448000  28.392000
6070   2   4   28.63000   -2.483000  26.274000
6071   2   4   28.631000   -0.045000  28.389000
6072   2   4   28.637000   -0.081000  26.202000
6073   2   4   28.625000   -4.701000  26.259000
6074   2   4   28.617000   -4.649000  28.501000
6075   2   4   28.622000   2.039000  26.212000
6076   2   4   28.628000   2.068000  28.324000
6077   2   4   28.613000   4.422000  26.142000
6078   2   4   28.606000   4.452000  28.332000
6079   2   4   28.619000   -2.51000  24.081000
6080   2   4   28.639000   -0.106000  24.092000
6081   2   4   28.631000   -4.714000  24.112000
6082   2   4   28.61000   2.012000  24.022000
6083   2   4   28.614000   4.398000  24.03000
6084   2   4   28.552000   6.572000  30.511000
6085   2   4   28.574000   8.95000  30.466000
6086   2   4   28.569000   6.461000  21.786000
6087   2   4   28.548000   8.844000  21.742000
6088   2   4   28.601000   6.519000  26.159000
6089   2   4   28.605000   6.543000  28.27000
6090   2   4   28.601000   8.895000  26.093000
6091   2   4   28.593000   8.92000  28.284000
6092   2   4   28.59000   6.493000  23.968000
6093   2   4   28.604000   8.873000  23.981000
6094   2   4   28.557000   11.031000  30.469000
6095   2   4   28.595000   13.413000  30.429000
6096   2   4   28.581000   10.939000  21.745000
6097   2   4   28.576000   13.326000  21.707000
6098   2   4   28.608000   10.988000  26.118000
6099   2   4   28.612000   11.008000  28.23000
6100   2   4   28.624000   13.367000  26.058000
6101   2   4   28.614000   13.388000  28.249000
6102   2   4   28.6000   10.967000  23.928000
6103   2   4   28.629000   13.349000  23.947000
6104   2   4   28.585000   15.508000  30.44000
6105   2   4   28.62000   17.893000  30.405000
6106   2   4   28.615000   15.436000  21.716000
6107   2   4   28.603000   17.824000  21.683000
6108   2   4   28.638000   15.473000  26.089000
6109   2   4   28.641000   15.489000  28.201000
6110   2   4   28.651000   17.855000  26.033000
6111   2   4   28.641000   17.871000  28.224000
6112   2   4   28.632000   15.457000  23.898000
6113   2   4   28.656000   17.842000  23.922000
6114   2   4   28.613000   19.988000  30.418000
6115   2   4   28.657000   22.372000  30.384000
6116   2   4   28.64000   19.924000  21.69000
6117   2   4   28.636000   22.309000  21.661000
6118   2   4   28.667000   19.957000  26.065000
6119   2   4   28.67000   19.969000  28.179000
6120   2   4   28.687000   22.338000  26.012000
6121   2   4   28.678000   22.352000  28.203000
6122   2   4   28.659000   19.943000  23.874000
6123   2   4   28.691000   22.325000  23.9000
6124   2   4   28.662000   24.472000  30.394000
6125   2   4   28.709000   26.861000  30.359000
6126   2   4   28.686000   24.407000  21.668000
6127   2   4   28.687000   26.795000  21.636000
6128   2   4   28.715000   24.443000  26.042000
6129   2   4   28.718000   24.455000  28.155000
6130   2   4   28.738000   26.83000  25.988000
6131   2   4   28.728000   26.844000  28.179000
6132   2   4   28.706000   24.428000  23.852000
6133   2   4   28.742000   26.815000  23.876000
6134   2   4   28.715000   28.975000  30.365000
6135   2   4   28.74000   31.382000  30.335000
6136   2   4   28.742000   28.907000  21.649000
6137   2   4   28.721000   31.316000  21.602000
6138   2   4   28.764000   28.958000  26.016000
6139   2   4   28.768000   28.968000  28.127000
6140   2   4   28.767000   31.363000  25.962000
6141   2   4   28.758000   31.375000  28.155000
6142   2   4   28.756000   28.937000  23.829000
6143   2   4   28.771000   31.343000  23.843000
6144   2   4   28.703000   33.579000  30.433000
6145   2   4   28.75000   33.54000  21.586000
6146   2   4   28.77000   33.586000  25.995000
6147   2   4   28.777000   33.584000  28.143000
6148   2   4   28.76000   33.552000  23.751000
6149   3   1   -16.124000   3.694000  22.845000
6150   3   1   -16.136000   5.187000  22.33000
6151   3   1   -14.91000   2.897000  22.254000
6152   3   1   -14.883000   5.976000  22.803000
6153   3   1   -16.131000   3.757000  31.258000
6154   3   1   -16.118000   5.257000  30.743000
6155   3   1   -14.881000   2.959000  30.784000
6156   3   1   -14.905000   6.055000  31.329000
6157   3   1   -16.103000   3.727000  27.065000
6158   3   1   -16.103000   5.224000  26.524000
6159   3   1   -16.11000   3.703000  24.423000
6160   3   1   -16.103000   5.208000  24.944000
6161   3   1   -14.867000   2.927000  26.516000
6162   3   1   -14.869000   2.915000  24.96000
6163   3   1   -14.865000   6.018000  27.071000
6164   3   1   -14.864000   5.99000  24.365000
6165   3   1   -16.101000   3.741000  28.645000
6166   3   1   -16.106000   5.249000  29.165000
6167   3   1   -14.864000   2.95000  29.222000
6168   3   1   -14.865000   6.034000  28.626000
6169   3   1   -18.67000   3.701000  22.884000
6170   3   1   -18.667000   5.198000  22.367000
6171   3   1   -17.409000   2.936000  22.377000
6172   3   1   -17.396000   5.959000  22.855000
6173   3   1   -18.664000   3.762000  31.224000
6174   3   1   -18.661000   5.265000  30.707000
6175   3   1   -17.396000   2.994000  30.734000
6176   3   1   -17.398000   6.031000  31.21000
6177   3   1   -18.666000   3.731000  27.062000
6178   3   1   -18.663000   5.235000  26.53000
6179   3   1   -18.669000   3.71000  24.449000
6180   3   1   -18.665000   5.22000  24.961000
6181   3   1   -17.387000   2.965000  26.545000
6182   3   1   -17.389000   2.952000  24.969000
6183   3   1   -17.382000   5.996000  27.044000
6184   3   1   -17.386000   5.971000  24.428000
6185   3   1   -18.665000   3.745000  28.63000
6186   3   1   -18.662000   5.258000  29.142000
6187   3   1   -17.388000   2.987000  29.161000
6188   3   1   -17.382000   6.013000  28.62000
6189   3   1   -21.217000   3.706000  22.85000
6190   3   1   -21.199000   5.202000  22.335000
6191   3   1   -19.935000   2.941000  22.38000
6192   3   1   -19.932000   5.968000  22.857000
6193   3   1   -21.196000   3.768000  31.261000
6194   3   1   -21.203000   5.271000  30.745000
6195   3   1   -19.934000   2.998000  30.736000
6196   3   1   -19.919000   6.039000  31.21000
6197   3   1   -21.229000   3.738000  27.069000
6198   3   1   -21.224000   5.238000  26.527000
6199   3   1   -21.228000   3.715000  24.427000
6200   3   1   -21.226000   5.223000  24.947000
6201   3   1   -19.949000   2.97000  26.547000
6202   3   1   -19.95000   2.957000  24.971000
6203   3   1   -19.94000   6.005000  27.046000
6204   3   1   -19.939000   5.979000  24.43000
6205   3   1   -21.229000   3.752000  28.649000
6206   3   1   -21.217000   5.263000  29.168000
6207   3   1   -19.944000   2.991000  29.163000
6208   3   1   -19.938000   6.021000  28.621000
6209   3   1   -22.434000   2.909000  22.262000
6210   3   1   -22.444000   6.003000  22.809000
6211   3   1   -22.448000   2.97000  30.789000
6212   3   1   -22.411000   6.079000  31.332000
6213   3   1   -22.468000   2.939000  26.522000
6214   3   1   -22.469000   2.927000  24.967000
6215   3   1   -22.455000   6.044000  27.075000
6216   3   1   -22.46000   6.017000  24.371000
6217   3   1   -22.467000   2.961000  29.227000
6218   3   1   -22.453000   6.06000  28.631000
6219   3   1   -16.11000   8.227000  22.811000
6220   3   1   -16.116000   9.724000  22.292000
6221   3   1   -14.901000   7.418000  22.224000
6222   3   1   -14.862000   10.517000  22.762000
6223   3   1   -16.122000   8.316000  31.222000
6224   3   1   -16.104000   9.825000  30.701000
6225   3   1   -14.877000   7.504000  30.753000
6226   3   1   -14.892000   10.631000  31.285000
6227   3   1   -16.091000   8.274000  27.03000
6228   3   1   -16.086000   9.777000  26.483000
6229   3   1   -16.096000   8.242000  24.389000
6230   3   1   -16.085000   9.756000  24.903000
6231   3   1   -14.86000   7.463000  26.485000
6232   3   1   -14.861000   7.446000  24.929000
6233   3   1   -14.848000   10.577000  27.027000
6234   3   1   -14.845000   10.538000  24.324000
6235   3   1   -16.09000   8.293000  28.61000
6236   3   1   -16.09000   9.811000  29.124000
6237   3   1   -14.858000   7.492000  29.19000
6238   3   1   -14.849000   10.599000  28.583000
6239   3   1   -18.655000   8.241000  22.848000
6240   3   1   -18.646000   9.742000  22.327000
6241   3   1   -17.397000   7.466000  22.346000
6242   3   1   -17.374000   10.506000  22.811000
6243   3   1   -18.65000   8.327000  31.186000
6244   3   1   -18.644000   9.838000  30.664000
6245   3   1   -17.387000   7.547000  30.7000
6246   3   1   -17.381000   10.61000  31.162000
6247   3   1   -18.652000   8.285000  27.025000
6248   3   1   -18.644000   9.794000  26.488000
6249   3   1   -18.653000   8.255000  24.414000
6250   3   1   -18.645000   9.773000  24.919000
6251   3   1   -17.376000   7.509000  26.512000
6252   3   1   -17.378000   7.492000  24.936000
6253   3   1   -17.362000   10.56000  26.999000
6254   3   1   -17.365000   10.524000  24.384000
6255   3   1   -18.651000   8.304000  28.594000
6256   3   1   -18.644000   9.826000  29.098000
6257   3   1   -17.378000   7.537000  29.127000
6258   3   1   -17.362000   10.582000  28.574000
6259   3   1   -21.199000   8.251000  22.814000
6260   3   1   -21.177000   9.751000  22.294000
6261   3   1   -19.92000   7.477000  22.348000
6262   3   1   -19.909000   10.52000  22.812000
6263   3   1   -21.179000   8.338000  31.223000
6264   3   1   -21.183000   9.849000  30.701000
6265   3   1   -19.92000   7.557000  30.701000
6266   3   1   -19.899000   10.624000  31.161000
6267   3   1   -21.212000   8.297000  27.032000
6268   3   1   -21.203000   9.803000  26.484000
6269   3   1   -21.21000   8.266000  24.391000
6270   3   1   -21.205000   9.783000  24.904000
6271   3   1   -19.935000   7.52000  26.513000
6272   3   1   -19.935000   7.502000  24.937000
6273   3   1   -19.918000   10.574000  26.999000
6274   3   1   -19.916000   10.539000  24.384000
6275   3   1   -21.212000   8.316000  28.612000
6276   3   1   -21.198000   9.837000  29.124000
6277   3   1   -19.93000   7.547000  29.128000
6278   3   1   -19.917000   10.596000  28.574000
6279   3   1   -22.416000   7.448000  22.23000
6280   3   1   -22.419000   10.563000  22.763000
6281   3   1   -22.429000   7.531000  30.756000
6282   3   1   -22.386000   10.672000  31.284000
6283   3   1   -22.45000   7.492000  26.489000
6284   3   1   -22.452000   7.476000  24.933000
6285   3   1   -22.43000   10.62000  27.027000
6286   3   1   -22.435000   10.583000  24.325000
6287   3   1   -22.45000   7.521000  29.193000
6288   3   1   -22.429000   10.641000  28.583000
6289   3   1   -16.08000   12.782000  22.757000
6290   3   1   -16.082000   14.283000  22.229000
6291   3   1   -14.875000   11.961000  22.177000
6292   3   1   -14.829000   15.083000  22.695000
6293   3   1   -16.1000   12.91000  31.163000
6294   3   1   -16.079000   14.424000  30.634000
6295   3   1   -14.859000   12.083000  30.702000
6296   3   1   -14.869000   15.239000  31.213000
6297   3   1   -16.066000   12.848000  26.974000
6298   3   1   -16.056000   14.356000  26.418000
6299   3   1   -16.068000   12.805000  24.334000
6300   3   1   -16.053000   14.328000  24.839000
6301   3   1   -14.838000   12.024000  26.435000
6302   3   1   -14.837000   12.001000  24.879000
6303   3   1   -14.82000   15.164000  26.958000
6304   3   1   -14.813000   15.112000  24.256000
6305   3   1   -16.066000   12.874000  28.554000
6306   3   1   -16.063000   14.403000  29.057000
6307   3   1   -14.838000   12.065000  29.139000
6308   3   1   -14.822000   15.194000  28.513000
6309   3   1   -18.624000   12.802000  22.791000
6310   3   1   -18.611000   14.306000  22.261000
6311   3   1   -17.369000   12.017000  22.296000
6312   3   1   -17.338000   15.076000  22.741000
6313   3   1   -18.627000   12.925000  31.124000
6314   3   1   -18.617000   14.441000  30.593000
6315   3   1   -17.366000   12.134000  30.646000
6316   3   1   -17.354000   15.22000  31.086000
6317   3   1   -18.625000   12.864000  26.966000
6318   3   1   -18.614000   14.378000  26.419000
6319   3   1   -18.624000   12.824000  24.357000
6320   3   1   -18.612000   14.351000  24.851000
6321   3   1   -17.352000   12.078000  26.459000
6322   3   1   -17.352000   12.055000  24.883000
6323   3   1   -17.331000   15.149000  26.926000
6324   3   1   -17.33000   15.102000  24.313000
6325   3   1   -18.625000   12.889000  28.535000
6326   3   1   -18.615000   14.422000  29.028000
6327   3   1   -17.356000   12.118000  29.073000
6328   3   1   -17.333000   15.178000  28.502000
6329   3   1   -21.168000   12.816000  22.755000
6330   3   1   -21.14000   14.32000  22.225000
6331   3   1   -19.892000   12.033000  22.296000
6332   3   1   -19.871000   15.094000  22.738000
6333   3   1   -21.153000   12.941000  31.16000
6334   3   1   -21.155000   14.457000  30.629000
6335   3   1   -19.897000   12.149000  30.645000
6336   3   1   -19.87000   15.237000  31.083000
6337   3   1   -21.184000   12.881000  26.971000
6338   3   1   -21.171000   14.392000  26.413000
6339   3   1   -21.181000   12.839000  24.332000
6340   3   1   -21.172000   14.366000  24.834000
6341   3   1   -19.908000   12.094000  26.459000
6342   3   1   -19.908000   12.071000  24.883000
6343   3   1   -19.886000   15.167000  26.922000
6344   3   1   -19.881000   15.121000  24.31000
6345   3   1   -21.185000   12.906000  28.551000
6346   3   1   -21.168000   14.437000  29.052000
6347   3   1   -19.905000   12.133000  29.072000
6348   3   1   -19.886000   15.196000  28.498000
6349   3   1   -22.387000   12.009000  22.178000
6350   3   1   -22.378000   15.144000  22.685000
6351   3   1   -22.402000   12.126000  30.7000
6352   3   1   -22.355000   15.291000  31.204000
6353   3   1   -22.421000   12.071000  26.434000
6354   3   1   -22.422000   12.049000  24.879000
6355   3   1   -22.395000   15.22000  26.947000
6356   3   1   -22.397000   15.172000  24.247000
6357   3   1   -22.422000   12.109000  29.138000
6358   3   1   -22.396000   15.247000  28.503000
6359   3   1   -16.039000   17.364000  22.673000
6360   3   1   -16.036000   18.872000  22.137000
6361   3   1   -14.836000   16.529000  22.102000
6362   3   1   -14.786000   19.682000  22.599000
6363   3   1   -16.072000   17.53000  31.075000
6364   3   1   -16.049000   19.048000  30.537000
6365   3   1   -14.834000   16.693000  30.622000
6366   3   1   -14.841000   19.871000  31.113000
6367   3   1   -16.032000   17.449000  26.888000
6368   3   1   -16.019000   18.963000  26.323000
6369   3   1   -16.03000   17.394000  24.25000
6370   3   1   -16.013000   18.929000  24.744000
6371   3   1   -14.807000   16.614000  26.358000
6372   3   1   -14.803000   16.583000  24.802000
6373   3   1   -14.786000   19.78000  26.86000
6374   3   1   -14.773000   19.718000  24.16000
6375   3   1   -16.034000   17.481000  28.467000
6376   3   1   -16.031000   19.02000  28.96000
6377   3   1   -14.81000   16.667000  29.06000
6378   3   1   -14.791000   19.815000  28.415000
6379   3   1   -18.582000   17.387000  22.703000
6380   3   1   -18.564000   18.897000  22.164000
6381   3   1   -17.328000   16.592000  22.217000
6382   3   1   -17.291000   19.674000  22.64000
6383   3   1   -18.598000   17.548000  31.032000
6384   3   1   -18.588000   19.066000  30.491000
6385   3   1   -17.337000   16.748000  30.562000
6386   3   1   -17.326000   19.849000  30.982000
6387   3   1   -18.59000   17.468000  26.876000
6388   3   1   -18.576000   18.986000  26.319000
6389   3   1   -18.584000   17.417000  24.268000
6390   3   1   -18.571000   18.954000  24.751000
6391   3   1   -17.318000   16.673000  26.377000
6392   3   1   -17.315000   16.643000  24.801000
6393   3   1   -17.294000   19.764000  26.823000
6394   3   1   -17.287000   19.707000  24.213000
6395   3   1   -18.593000   17.499000  28.444000
6396   3   1   -18.583000   19.039000  28.926000
6397   3   1   -17.325000   16.724000  28.988000
6398   3   1   -17.299000   19.797000  28.399000
6399   3   1   -21.125000   17.406000  22.662000
6400   3   1   -21.091000   18.915000  22.121000
6401   3   1   -19.849000   16.611000  22.212000
6402   3   1   -19.823000   19.696000  22.631000
6403   3   1   -21.122000   17.567000  31.064000
6404   3   1   -21.126000   19.084000  30.521000
6405   3   1   -19.867000   16.766000  30.557000
6406   3   1   -19.843000   19.868000  30.972000
6407   3   1   -21.147000   17.489000  26.876000
6408   3   1   -21.132000   19.004000  26.306000
6409   3   1   -21.14000   17.436000  24.239000
6410   3   1   -21.129000   18.973000  24.727000
6411   3   1   -19.873000   16.692000  26.372000
6412   3   1   -19.87000   16.663000  24.796000
6413   3   1   -19.848000   19.784000  26.814000
6414   3   1   -19.836000   19.729000  24.203000
6415   3   1   -21.152000   17.518000  28.456000
6416   3   1   -21.136000   19.057000  28.944000
6417   3   1   -19.873000   16.742000  28.983000
6418   3   1   -19.852000   19.816000  28.389000
6419   3   1   -22.342000   16.591000  22.091000
6420   3   1   -22.326000   19.753000  22.57000
6421   3   1   -22.369000   16.745000  30.61000
6422   3   1   -22.327000   19.924000  31.086000
6423   3   1   -22.383000   16.672000  26.346000
6424   3   1   -22.382000   16.645000  24.79000
6425   3   1   -22.354000   19.841000  26.83000
6426   3   1   -22.349000   19.786000  24.131000
6427   3   1   -22.388000   16.72000  29.048000
6428   3   1   -22.36000   19.87000  28.386000
6429   3   1   -15.991000   21.98000  22.565000
6430   3   1   -15.986000   23.498000  22.025000
6431   3   1   -14.791000   21.132000  21.999000
6432   3   1   -14.739000   24.32000  22.488000
6433   3   1   -16.047000   22.166000  30.964000
6434   3   1   -16.026000   23.685000  30.424000
6435   3   1   -14.807000   21.326000  30.516000
6436   3   1   -14.82000   24.514000  31.002000
6437   3   1   -15.995000   22.076000  26.778000
6438   3   1   -15.983000   23.597000  26.211000
6439   3   1   -15.985000   22.014000  24.141000
6440   3   1   -15.971000   23.56000  24.631000
6441   3   1   -14.771000   21.233000  26.254000
6442   3   1   -14.763000   21.197000  24.699000
6443   3   1   -14.753000   24.425000  26.749000
6444   3   1   -14.732000   24.359000  24.049000
6445   3   1   -16.001000   22.111000  28.358000
6446   3   1   -16.003000   23.655000  28.847000
6447   3   1   -14.78000   21.294000  28.955000
6448   3   1   -14.763000   24.459000  28.305000
6449   3   1   -18.531000   22.003000  22.588000
6450   3   1   -18.508000   23.521000  22.042000
6451   3   1   -17.278000   21.199000  22.11000
6452   3   1   -17.243000   24.309000  22.52000
6453   3   1   -18.573000   22.18000  30.914000
6454   3   1   -18.564000   23.697000  30.37000
6455   3   1   -17.31000   21.379000  30.451000
6456   3   1   -17.31000   24.483000  30.865000
6457   3   1   -18.552000   22.093000  26.759000
6458   3   1   -18.536000   23.616000  26.198000
6459   3   1   -18.538000   22.037000  24.152000
6460   3   1   -18.525000   23.582000  24.629000
6461   3   1   -17.279000   21.293000  26.268000
6462   3   1   -17.272000   21.258000  24.692000
6463   3   1   -17.262000   24.399000  26.705000
6464   3   1   -17.245000   24.342000  24.094000
6465   3   1   -18.559000   22.126000  28.327000
6466   3   1   -18.553000   23.669000  28.805000
6467   3   1   -17.293000   21.35000  28.877000
6468   3   1   -17.274000   24.431000  28.282000
6469   3   1   -21.07000   22.027000  22.538000
6470   3   1   -21.029000   23.545000  21.99000
6471   3   1   -19.796000   21.221000  22.098000
6472   3   1   -19.761000   24.333000  22.501000
6473   3   1   -21.097000   22.203000  30.937000
6474   3   1   -21.102000   23.72000  30.389000
6475   3   1   -19.839000   21.397000  30.438000
6476   3   1   -19.818000   24.502000  30.846000
6477   3   1   -21.107000   22.118000  26.751000
6478   3   1   -21.088000   23.64000  26.174000
6479   3   1   -21.091000   22.061000  24.114000
6480   3   1   -21.079000   23.608000  24.594000
6481   3   1   -19.833000   21.314000  26.255000
6482   3   1   -19.825000   21.281000  24.679000
6483   3   1   -19.804000   24.421000  26.686000
6484   3   1   -19.781000   24.366000  24.074000
6485   3   1   -21.118000   22.148000  28.33000
6486   3   1   -21.104000   23.692000  28.811000
6487   3   1   -19.841000   21.369000  28.865000
6488   3   1   -19.816000   24.45000  28.262000
6489   3   1   -22.284000   21.203000  21.967000
6490   3   1   -22.261000   24.399000  22.427000
6491   3   1   -22.341000   21.377000  30.485000
6492   3   1   -22.309000   24.562000  30.945000
6493   3   1   -22.34000   21.296000  26.221000
6494   3   1   -22.334000   21.266000  24.666000
6495   3   1   -22.311000   24.487000  26.688000
6496   3   1   -22.292000   24.434000  23.988000
6497   3   1   -22.355000   21.348000  28.922000
6498   3   1   -22.326000   24.512000  28.245000
6499   3   1   -15.955000   26.619000  22.44000
6500   3   1   -15.951000   28.119000  21.86000
6501   3   1   -14.75000   25.774000  21.885000
6502   3   1   -16.055000   26.786000  30.862000
6503   3   1   -16.041000   28.284000  30.324000
6504   3   1   -14.801000   25.971000  30.411000
6505   3   1   -15.984000   26.706000  26.669000
6506   3   1   -15.979000   28.205000  26.092000
6507   3   1   -15.961000   26.651000  24.023000
6508   3   1   -15.958000   28.173000  24.54000
6509   3   1   -14.749000   25.881000  26.144000
6510   3   1   -14.735000   25.844000  24.586000
6511   3   1   -15.996000   26.739000  28.251000
6512   3   1   -16.007000   28.259000  28.769000
6513   3   1   -14.768000   25.941000  28.848000
6514   3   1   -18.472000   26.682000  22.462000
6515   3   1   -18.442000   28.247000  21.936000
6516   3   1   -17.233000   25.845000  21.986000
6517   3   1   -17.145000   29.032000  22.405000
6518   3   1   -18.559000   26.832000  30.799000
6519   3   1   -18.555000   28.379000  30.274000
6520   3   1   -17.303000   26.013000  30.337000
6521   3   1   -17.283000   29.154000  30.782000
6522   3   1   -18.515000   26.759000  26.638000
6523   3   1   -18.496000   28.317000  26.086000
6524   3   1   -18.487000   26.709000  24.028000
6525   3   1   -18.474000   28.291000  24.502000
6526   3   1   -17.253000   25.934000  26.149000
6527   3   1   -17.238000   25.901000  24.572000
6528   3   1   -17.206000   29.096000  26.607000
6529   3   1   -17.164000   29.053000  23.979000
6530   3   1   -18.531000   26.787000  28.21000
6531   3   1   -18.531000   28.358000  28.693000
6532   3   1   -17.279000   25.987000  28.764000
6533   3   1   -17.227000   29.12000  28.184000
6534   3   1   -20.988000   26.674000  22.392000
6535   3   1   -20.936000   28.176000  21.805000
6536   3   1   -19.723000   25.87000  21.964000
6537   3   1   -19.726000   29.062000  22.37000
6538   3   1   -21.06000   26.822000  30.813000
6539   3   1   -21.063000   28.319000  30.265000
6540   3   1   -19.809000   26.031000  30.314000
6541   3   1   -19.836000   29.183000  30.745000
6542   3   1   -21.045000   26.751000  26.62000
6543   3   1   -21.012000   28.253000  26.034000
6544   3   1   -21.014000   26.703000  23.975000
6545   3   1   -20.992000   28.227000  24.483000
6546   3   1   -19.78000   25.957000  26.127000
6547   3   1   -19.763000   25.926000  24.549000
6548   3   1   -19.787000   29.123000  26.57000
6549   3   1   -19.75000   29.083000  23.944000
6550   3   1   -21.067000   26.776000  28.202000
6551   3   1   -21.055000   28.297000  28.71000
6552   3   1   -19.803000   26.005000  28.741000
6553   3   1   -19.812000   29.144000  28.147000
6554   3   1   -22.204000   25.853000  21.821000
6555   3   1   -22.31000   26.018000  30.347000
6556   3   1   -22.281000   25.946000  26.08000
6557   3   1   -22.267000   25.918000  24.521000
6558   3   1   -22.314000   25.991000  28.783000
6559   3   1   -15.89000   31.487000  22.382000
6560   3   1   -15.854000   33.024000  21.853000
6561   3   1   -14.645000   33.916000  22.354000
6562   3   1   -16.081000   31.548000  30.858000
6563   3   1   -16.008000   33.059000  30.316000
6564   3   1   -14.849000   33.923000  30.991000
6565   3   1   -15.978000   31.523000  26.621000
6566   3   1   -15.913000   33.041000  26.061000
6567   3   1   -15.913000   31.493000  23.936000
6568   3   1   -15.877000   33.03000  24.476000
6569   3   1   -14.72000   33.904000  26.659000
6570   3   1   -14.663000   33.902000  23.913000
6571   3   1   -16.007000   31.535000  28.172000
6572   3   1   -15.974000   33.058000  28.73000
6573   3   1   -14.76000   33.912000  28.22000
6574   3   1   -18.393000   31.421000  22.351000
6575   3   1   -18.355000   32.993000  21.845000
6576   3   1   -17.119000   30.612000  21.882000
6577   3   1   -17.109000   33.798000  22.356000
6578   3   1   -18.557000   31.505000  30.701000
6579   3   1   -18.531000   33.051000  30.188000
6580   3   1   -17.275000   30.705000  30.262000
6581   3   1   -17.291000   33.837000  30.723000
6582   3   1   -18.472000   31.464000  26.542000
6583   3   1   -18.438000   33.025000  26.01000
6584   3   1   -18.421000   31.434000  23.932000
6585   3   1   -18.407000   33.009000  24.437000
6586   3   1   -17.19000   30.662000  26.057000
6587   3   1   -17.155000   30.641000  24.479000
6588   3   1   -17.18000   33.818000  26.555000
6589   3   1   -17.13000   33.801000  23.935000
6590   3   1   -18.502000   31.479000  28.125000
6591   3   1   -18.494000   33.043000  28.624000
6592   3   1   -17.239000   30.692000  28.688000
6593   3   1   -17.213000   33.827000  28.14000
6594   3   1   -20.888000   31.554000  22.282000
6595   3   1   -20.846000   33.085000  21.746000
6596   3   1   -19.674000   30.64000  21.837000
6597   3   1   -19.595000   33.834000  22.305000
6598   3   1   -21.042000   31.622000  30.735000
6599   3   1   -21.049000   33.138000  30.165000
6600   3   1   -19.832000   30.737000  30.209000
6601   3   1   -19.774000   33.876000  30.662000
6602   3   1   -20.967000   31.59000  26.509000
6603   3   1   -20.964000   33.116000  25.94000
6604   3   1   -20.923000   31.564000  23.834000
6605   3   1   -20.935000   33.104000  24.353000
6606   3   1   -19.754000   30.693000  26.009000
6607   3   1   -19.729000   30.674000  24.432000
6608   3   1   -19.694000   33.856000  26.495000
6609   3   1   -19.636000   33.837000  23.878000
6610   3   1   -20.998000   31.6000  28.057000
6611   3   1   -21.019000   33.129000  28.583000
6612   3   1   -19.803000   30.722000  28.636000
6613   3   1   -19.727000   33.864000  28.072000
6614   3   1   -22.096000   33.968000  22.145000
6615   3   1   -22.283000   34.003000  30.665000
6616   3   1   -22.207000   33.978000  26.431000
6617   3   1   -22.145000   33.975000  23.74000
6618   3   1   -22.242000   33.986000  28.023000
6619   3   1   -15.818000   36.144000  22.347000
6620   3   1   -15.796000   37.662000  21.841000
6621   3   1   -14.625000   35.35000  21.761000
6622   3   1   -14.546000   38.454000  22.333000
6623   3   1   -15.978000   36.157000  30.772000
6624   3   1   -15.904000   37.656000  30.253000
6625   3   1   -14.74000   35.342000  30.348000
6626   3   1   -14.678000   38.432000  30.855000
6627   3   1   -15.867000   36.141000  26.578000
6628   3   1   -15.823000   37.653000  26.036000
6629   3   1   -15.828000   36.137000  23.931000
6630   3   1   -15.799000   37.653000  24.456000
6631   3   1   -14.647000   35.339000  26.054000
6632   3   1   -14.622000   35.339000  24.498000
6633   3   1   -14.585000   38.44000  26.601000
6634   3   1   -14.546000   38.446000  23.896000
6635   3   1   -15.896000   36.143000  28.164000
6636   3   1   -15.869000   37.656000  28.679000
6637   3   1   -14.702000   35.342000  28.788000
6638   3   1   -14.607000   38.435000  28.157000
6639   3   1   -18.318000   36.153000  22.345000
6640   3   1   -18.298000   37.685000  21.841000
6641   3   1   -17.082000   35.351000  21.858000
6642   3   1   -17.043000   38.452000  22.355000
6643   3   1   -18.478000   36.164000  30.684000
6644   3   1   -18.431000   37.682000  30.178000
6645   3   1   -17.231000   35.372000  30.219000
6646   3   1   -17.169000   38.442000  30.707000
6647   3   1   -18.394000   36.156000  26.521000
6648   3   1   -18.362000   37.683000  26.002000
6649   3   1   -18.347000   36.149000  23.91000
6650   3   1   -18.339000   37.679000  24.433000
6651   3   1   -17.136000   35.36000  26.028000
6652   3   1   -17.109000   35.353000  24.45000
6653   3   1   -17.09000   38.443000  26.543000
6654   3   1   -17.056000   38.443000  23.928000
6655   3   1   -18.425000   36.16000  28.09000
6656   3   1   -18.406000   37.684000  28.613000
6657   3   1   -17.192000   35.37000  28.648000
6658   3   1   -17.116000   38.443000  28.119000
6659   3   1   -20.807000   36.204000  22.259000
6660   3   1   -20.798000   37.724000  21.765000
6661   3   1   -19.552000   35.384000  21.81000
6662   3   1   -19.553000   38.484000  22.318000
6663   3   1   -20.977000   36.209000  30.664000
6664   3   1   -20.956000   37.72000  30.171000
6665   3   1   -19.733000   35.405000  30.161000
6666   3   1   -19.677000   38.47000  30.67000
6667   3   1   -20.916000   36.204000  26.471000
6668   3   1   -20.901000   37.719000  25.953000
6669   3   1   -20.858000   36.198000  23.83000
6670   3   1   -20.876000   37.715000  24.374000
6671   3   1   -19.654000   35.394000  25.973000
6672   3   1   -19.624000   35.385000  24.398000
6673   3   1   -19.629000   38.475000  26.504000
6674   3   1   -19.587000   38.475000  23.891000
6675   3   1   -20.948000   36.21000  28.047000
6676   3   1   -20.942000   37.724000  28.593000
6677   3   1   -19.708000   35.403000  28.589000
6678   3   1   -19.654000   38.477000  28.08000
6679   3   1   -21.981000   35.436000  21.618000
6680   3   1   -22.051000   38.538000  22.229000
6681   3   1   -22.216000   35.459000  30.135000
6682   3   1   -22.164000   38.54000  30.751000
6683   3   1   -22.134000   35.434000  25.878000
6684   3   1   -22.101000   35.431000  24.32000
6685   3   1   -22.136000   38.539000  26.494000
6686   3   1   -22.095000   38.534000  23.791000
6687   3   1   -22.195000   35.451000  28.578000
6688   3   1   -22.159000   38.545000  28.05000
6689   3   1   -15.745000   40.74000  22.352000
6690   3   1   -15.739000   42.258000  21.853000
6691   3   1   -14.543000   39.916000  21.77000
6692   3   1   -14.49000   43.05000  22.341000
6693   3   1   -15.849000   40.714000  30.758000
6694   3   1   -15.8000   42.23000  30.259000
6695   3   1   -14.615000   39.888000  30.294000
6696   3   1   -14.581000   43.018000  30.862000
6697   3   1   -15.773000   40.725000  26.569000
6698   3   1   -15.746000   42.243000  26.043000
6699   3   1   -15.749000   40.73000  23.929000
6700   3   1   -15.731000   42.247000  24.463000
6701   3   1   -14.55000   39.899000  26.03000
6702   3   1   -14.532000   39.904000  24.474000
6703   3   1   -14.508000   43.033000  26.607000
6704   3   1   -14.484000   43.042000  23.904000
6705   3   1   -15.79000   40.722000  28.149000
6706   3   1   -15.774000   42.238000  28.683000
6707   3   1   -14.579000   39.893000  28.732000
6708   3   1   -14.521000   43.029000  28.163000
6709   3   1   -18.28000   40.773000  22.361000
6710   3   1   -18.266000   42.292000  21.866000
6711   3   1   -17.027000   39.984000  21.864000
6712   3   1   -16.997000   43.045000  22.374000
6713   3   1   -18.376000   40.748000  30.697000
6714   3   1   -18.34000   42.265000  30.201000
6715   3   1   -17.12000   39.964000  30.214000
6716   3   1   -17.071000   43.019000  30.723000
6717   3   1   -18.328000   40.758000  26.537000
6718   3   1   -18.303000   42.279000  26.026000
6719   3   1   -18.299000   40.763000  23.927000
6720   3   1   -18.289000   42.28000  24.457000
6721   3   1   -17.058000   39.972000  26.028000
6722   3   1   -17.041000   39.973000  24.452000
6723   3   1   -17.02000   43.031000  26.561000
6724   3   1   -17.002000   43.036000  23.947000
6725   3   1   -18.347000   40.757000  28.105000
6726   3   1   -18.327000   42.274000  28.636000
6727   3   1   -17.093000   39.969000  28.642000
6728   3   1   -17.034000   43.029000  28.137000
6729   3   1   -20.816000   40.798000  22.294000
6730   3   1   -20.794000   42.318000  21.808000
6731   3   1   -19.535000   40.016000  21.833000
6732   3   1   -19.53000   43.074000  22.353000
6733   3   1   -20.902000   40.78000  30.702000
6734   3   1   -20.88000   42.298000  30.216000
6735   3   1   -19.647000   39.996000  30.183000
6736   3   1   -19.59000   43.05000  30.704000
6737   3   1   -20.883000   40.79000  26.511000
6738   3   1   -20.86000   42.306000  25.998000
6739   3   1   -20.848000   40.79000  23.871000
6740   3   1   -20.847000   42.305000  24.419000
6741   3   1   -19.606000   40.005000  25.996000
6742   3   1   -19.586000   40.003000  24.42000
6743   3   1   -19.575000   43.061000  26.541000
6744   3   1   -19.552000   43.065000  23.927000
6745   3   1   -20.902000   40.792000  28.091000
6746   3   1   -20.879000   42.306000  28.639000
6747   3   1   -19.637000   40.002000  28.61000
6748   3   1   -19.588000   43.062000  28.117000
6749   3   1   -22.018000   40.0000  21.676000
6750   3   1   -22.039000   43.128000  22.287000
6751   3   1   -22.155000   39.999000  30.197000
6752   3   1   -22.077000   43.12000  30.811000
6753   3   1   -22.115000   39.996000  25.932000
6754   3   1   -22.094000   39.992000  24.376000
6755   3   1   -22.088000   43.125000  26.552000
6756   3   1   -22.068000   43.123000  23.848000
6757   3   1   -22.152000   40.002000  28.635000
6758   3   1   -22.099000   43.129000  28.108000
6759   3   2   -15.174000   30.998000  30.653000
6760   3   2   -15.088000   30.975000  26.34000
6761   3   2   -15.031000   30.951000  24.251000
6762   3   2   -14.989000   28.588000  22.05000
6763   3   2   -15.135000   30.986000  28.5000
6764   3   2   -15.131000   28.751000  30.698000
6765   3   2   -15.047000   28.676000  26.392000
6766   3   2   -15.019000   28.626000  24.229000
6767   3   2   -15.065000   28.721000  28.483000
6768   3   2   -15.0000   30.968000  22.037000
6769   3   2   -16.151000   5.173000  21.24000
6770   3   2   -14.989000   2.852000  21.168000
6771   3   2   -16.146000   3.763000  32.348000
6772   3   2   -14.98000   6.091000  32.416000
6773   3   2   -18.668000   5.185000  21.277000
6774   3   2   -17.429000   2.925000  21.287000
6775   3   2   -18.663000   3.766000  32.314000
6776   3   2   -17.417000   6.035000  32.3000
6777   3   2   -21.186000   5.188000  21.245000
6778   3   2   -19.917000   2.93000  21.29000
6779   3   2   -21.18000   3.773000  32.351000
6780   3   2   -19.899000   6.043000  32.301000
6781   3   2   -22.358000   2.864000  21.176000
6782   3   2   -22.335000   6.115000  32.418000
6783   3   2   -16.13000   9.707000  21.202000
6784   3   2   -14.979000   7.371000  21.138000
6785   3   2   -16.137000   8.325000  32.312000
6786   3   2   -14.97000   10.672000  32.371000
6787   3   2   -18.647000   9.724000  21.237000
6788   3   2   -17.417000   7.453000  21.256000
6789   3   2   -18.65000   8.335000  32.276000
6790   3   2   -17.401000   10.619000  32.252000
6791   3   2   -21.164000   9.732000  21.204000
6792   3   2   -19.902000   7.463000  21.258000
6793   3   2   -21.163000   8.348000  32.313000
6794   3   2   -19.878000   10.632000  32.251000
6795   3   2   -22.342000   7.401000  21.144000
6796   3   2   -22.307000   10.713000  32.37000
6797   3   2   -16.094000   14.259000  21.139000
6798   3   2   -14.951000   11.909000  21.091000
6799   3   2   -16.116000   12.925000  32.253000
6800   3   2   -14.949000   15.288000  32.299000
6801   3   2   -18.61000   14.282000  21.171000
6802   3   2   -17.388000   11.999000  21.206000
6803   3   2   -18.627000   12.94000  32.214000
6804   3   2   -17.376000   15.236000  32.176000
6805   3   2   -21.126000   14.294000  21.135000
6806   3   2   -19.873000   12.014000  21.206000
6807   3   2   -21.137000   12.958000  32.25000
6808   3   2   -19.85000   15.254000  32.173000
6809   3   2   -22.313000   11.956000  21.092000
6810   3   2   -22.275000   15.341000  32.29000
6811   3   2   -16.047000   18.842000  21.047000
6812   3   2   -14.912000   16.471000  21.016000
6813   3   2   -16.09000   17.553000  32.165000
6814   3   2   -14.922000   19.925000  32.198000
6815   3   2   -18.56000   18.866000  21.074000
6816   3   2   -17.346000   16.567000  21.127000
6817   3   2   -18.599000   17.57000  32.122000
6818   3   2   -17.35000   19.871000  32.071000
6819   3   2   -21.073000   18.881000  21.032000
6820   3   2   -19.828000   16.585000  21.123000
6821   3   2   -21.107000   17.593000  32.154000
6822   3   2   -19.825000   19.891000  32.062000
6823   3   2   -22.267000   16.531000  21.006000
6824   3   2   -22.25000   19.981000  32.172000
6825   3   2   -15.992000   23.465000  20.936000
6826   3   2   -14.866000   21.069000  20.915000
6827   3   2   -16.066000   22.191000  32.053000
6828   3   2   -14.899000   24.564000  32.087000
6829   3   2   -18.501000   23.487000  20.953000
6830   3   2   -17.293000   21.17000  21.02000
6831   3   2   -18.577000   22.206000  32.004000
6832   3   2   -17.337000   24.503000  31.955000
6833   3   2   -21.007000   23.507000  20.901000
6834   3   2   -19.771000   21.189000  21.009000
6835   3   2   -21.085000   22.234000  32.027000
6836   3   2   -19.805000   24.525000  31.936000
6837   3   2   -22.204000   21.136000  20.883000
6838   3   2   -22.244000   24.616000  32.031000
6839   3   2   -16.016000   28.07000  20.774000
6840   3   2   -14.821000   25.705000  20.8000
6841   3   2   -16.078000   26.811000  31.951000
6842   3   2   -18.429000   28.219000  20.846000
6843   3   2   -17.247000   25.814000  20.896000
6844   3   2   -18.569000   26.848000  31.888000
6845   3   2   -17.297000   29.167000  31.872000
6846   3   2   -20.85000   28.12000  20.721000
6847   3   2   -19.69000   25.837000  20.875000
6848   3   2   -21.054000   26.854000  31.903000
6849   3   2   -19.849000   29.205000  31.834000
6850   3   2   -22.119000   25.781000  20.738000
6851   3   2   -15.844000   33.009000  20.763000
6852   3   2   -16.159000   31.564000  31.944000
6853   3   2   -15.194000   34.105000  32.009000
6854   3   2   -18.331000   32.988000  20.755000
6855   3   2   -17.098000   30.597000  20.793000
6856   3   2   -18.58000   31.517000  31.791000
6857   3   2   -17.366000   33.844000  31.811000
6858   3   2   -20.782000   33.055000  20.658000
6859   3   2   -19.654000   30.618000  20.748000
6860   3   2   -21.011000   31.657000  31.822000
6861   3   2   -19.787000   33.878000  31.752000
6862   3   2   -22.299000   34.01000  31.755000
6863   3   2   -15.798000   37.661000  20.75000
6864   3   2   -14.693000   35.301000  20.675000
6865   3   2   -16.028000   36.185000  31.861000
6866   3   2   -14.76000   38.462000  31.941000
6867   3   2   -18.282000   37.688000  20.751000
6868   3   2   -17.087000   35.352000  20.767000
6869   3   2   -18.502000   36.163000  31.774000
6870   3   2   -17.204000   38.439000  31.796000
6871   3   2   -20.765000   37.732000  20.675000
6872   3   2   -19.505000   35.387000  20.72000
6873   3   2   -20.997000   36.196000  31.754000
6874   3   2   -19.675000   38.461000  31.76000
6875   3   2   -21.845000   35.433000  20.536000
6876   3   2   -22.103000   38.562000  31.838000
6877   3   2   -15.746000   42.261000  20.763000
6878   3   2   -14.611000   39.887000  20.683000
6879   3   2   -15.875000   40.713000  31.848000
6880   3   2   -14.664000   43.047000  31.948000
6881   3   2   -18.257000   42.299000  20.776000
6882   3   2   -17.036000   39.99000  20.774000
6883   3   2   -18.388000   40.742000  31.787000
6884   3   2   -17.099000   43.012000  31.813000
6885   3   2   -20.772000   42.329000  20.719000
6886   3   2   -19.501000   40.025000  20.743000
6887   3   2   -20.903000   40.769000  31.792000
6888   3   2   -19.578000   43.039000  31.794000
6889   3   2   -21.924000   39.976000  20.591000
6890   3   2   -22.002000   43.143000  31.897000
6891   3   2   -22.919000   35.955000  21.778000
6892   3   2   -23.142000   26.378000  21.993000
6893   3   2   -23.206000   26.528000  30.703000
6894   3   2   -23.196000   26.463000  26.365000
6895   3   2   -23.173000   26.423000  24.186000
6896   3   2   -23.232000   26.489000  28.474000
6897   3   2   -23.067000   38.079000  26.175000
6898   3   2   -22.992000   35.947000  23.977000
6899   3   2   -23.037000   38.071000  24.068000
6900   3   2   -23.095000   35.962000  28.257000
6901   3   2   -23.094000   38.083000  28.355000
6902   3   2   -22.972000   40.484000  21.864000
6903   3   2   -22.946000   42.665000  21.904000
6904   3   2   -23.037000   42.654000  30.606000
6905   3   2   -23.044000   40.479000  26.223000
6906   3   2   -23.02000   42.662000  26.241000
6907   3   2   -23.006000   42.656000  24.135000
6908   3   2   -23.029000   42.663000  28.422000
6909   3   2   -23.29000   17.085000  22.281000
6910   3   2   -23.235000   19.279000  22.204000
6911   3   2   -23.273000   17.227000  30.978000
6912   3   2   -23.28000   19.438000  30.9000
6913   3   2   -23.308000   17.158000  26.643000
6914   3   2   -23.284000   19.363000  26.533000
6915   3   2   -23.303000   17.122000  24.464000
6916   3   2   -23.288000   19.327000  24.43000
6917   3   2   -23.32000   17.192000  28.75000
6918   3   2   -23.287000   19.403000  28.711000
6919   3   2   -23.336000   12.498000  22.373000
6920   3   2   -23.288000   14.67000  22.32000
6921   3   2   -23.306000   12.605000  31.072000
6922   3   2   -23.309000   14.806000  31.017000
6923   3   2   -23.347000   12.553000  26.735000
6924   3   2   -23.325000   14.743000  26.652000
6925   3   2   -23.122000   38.081000  30.532000
6926   3   2   -23.344000   12.526000  24.555000
6927   3   2   -23.333000   14.71000  24.548000
6928   3   2   -23.073000   40.489000  28.329000
6929   3   2   -23.354000   12.581000  28.842000
6930   3   2   -23.008000   40.477000  24.043000
6931   3   2   -23.321000   14.778000  28.83000
6932   3   2   -23.059000   40.482000  30.561000
6933   3   2   -23.367000   7.933000  22.428000
6934   3   2   -23.327000   10.089000  22.395000
6935   3   2   -23.334000   8.006000  31.13000
6936   3   2   -23.339000   10.188000  31.092000
6937   3   2   -23.377000   7.97000  26.792000
6938   3   2   -23.36000   10.143000  26.729000
6939   3   2   -23.374000   7.951000  24.61000
6940   3   2   -23.369000   10.117000  24.626000
6941   3   2   -23.382000   7.992000  28.898000
6942   3   2   -23.353000   10.17000  28.909000
6943   3   2   -23.111000   35.968000  30.483000
6944   3   2   -23.048000   35.945000  26.158000
6945   3   2   -22.956000   38.078000  21.838000
6946   3   2   -23.232000   21.701000  22.149000
6947   3   2   -23.171000   23.929000  22.057000
6948   3   2   -23.246000   21.861000  30.848000
6949   3   2   -23.262000   24.08000  30.746000
6950   3   2   -23.265000   21.785000  26.514000
6951   3   2   -23.241000   24.014000  26.384000
6952   3   2   -23.253000   21.744000  24.336000
6953   3   2   -23.235000   23.981000  24.282000
6954   3   2   -23.286000   21.819000  28.62000
6955   3   2   -23.257000   24.048000  28.562000
6956   3   2   -23.386000   3.39000  22.461000
6957   3   2   -23.352000   5.53000  22.438000
6958   3   2   -23.353000   3.442000  31.164000
6959   3   2   -23.363000   5.596000  31.134000
6960   3   2   -23.396000   3.413000  26.827000
6961   3   2   -23.383000   5.567000  26.774000
6962   3   2   -23.392000   3.4000  24.643000
6963   3   2   -23.393000   5.547000  24.671000
6964   3   2   -23.4000   3.43000  28.931000
6965   3   2   -23.375000   5.585000  28.956000
6966   3   2   -13.927000   14.594000  22.331000
6967   3   2   -13.844000   35.813000  30.74000
6968   3   2   -13.559000   42.556000  24.201000
6969   3   2   -13.956000   5.566000  31.13000
6970   3   2   -13.846000   19.24000  24.466000
6971   3   2   -13.766000   35.803000  28.497000
6972   3   2   -13.608000   42.535000  28.487000
6973   3   2   -13.906000   12.494000  26.736000
6974   3   2   -13.735000   37.932000  30.658000
6975   3   2   -13.879000   17.003000  22.293000
6976   3   2   -13.968000   7.971000  31.126000
6977   3   2   -13.835000   23.829000  22.132000
6978   3   2   -13.733000   35.817000  26.383000
6979   3   2   -13.924000   17.163000  30.992000
6980   3   2   -13.899000   21.799000  30.885000
6981   3   2   -13.825000   23.937000  26.461000
6982   3   2   -13.945000   3.384000  24.635000
6983   3   2   -13.905000   14.712000  28.843000
6984   3   2   -13.83000   26.382000  26.444000
6985   3   2   -13.901000   12.525000  28.843000
6986   3   2   -13.618000   40.358000  26.346000
6987   3   2   -13.956000   3.374000  22.451000
6988   3   2   -13.96000   10.033000  22.393000
6989   3   2   -13.935000   7.912000  24.603000
6990   3   2   -13.92000   14.743000  31.027000
6991   3   2   -13.639000   37.978000  21.964000
6992   3   2   -13.945000   7.894000  22.419000
6993   3   2   -13.886000   14.634000  24.56000
6994   3   2   -13.66000   37.953000  26.304000
6995   3   2   -13.873000   19.335000  28.747000
6996   3   2   -13.946000   5.555000  28.951000
6997   3   2   -13.896000   14.673000  26.664000
6998   3   2   -13.875000   17.085000  26.657000
6999   3   2   -13.934000   5.515000  24.664000
7000   3   2   -13.702000   35.817000  24.183000
7001   3   2   -13.974000   3.428000  31.158000
7002   3   2   -13.803000   26.275000  22.072000
7003   3   2   -13.95000   12.551000  31.073000
7004   3   2   -13.874000   17.044000  24.477000
7005   3   2   -13.634000   40.348000  28.45000
7006   3   2   -13.584000   42.547000  26.307000
7007   3   2   -13.917000   10.061000  24.625000
7008   3   2   -13.892000   19.375000  30.93000
7009   3   2   -13.931000   10.118000  28.91000
7010   3   2   -13.871000   17.125000  28.763000
7011   3   2   -13.686000   35.845000  21.976000
7012   3   2   -13.833000   21.657000  24.374000
7013   3   2   -13.906000   26.475000  30.78000
7014   3   2   -13.586000   42.572000  21.97000
7015   3   2   -13.803000   23.886000  24.359000
7016   3   2   -13.814000   26.33000  24.265000
7017   3   2   -13.703000   40.339000  30.681000
7018   3   2   -13.868000   24.026000  30.814000
7019   3   2   -13.94000   5.536000  26.769000
7020   3   2   -13.843000   23.984000  28.639000
7021   3   2   -13.929000   7.933000  26.787000
7022   3   2   -13.93000   3.416000  28.923000
7023   3   2   -13.918000   12.435000  22.371000
7024   3   2   -13.944000   10.138000  31.092000
7025   3   2   -13.922000   7.956000  28.893000
7026   3   2   -13.636000   42.52000  30.667000
7027   3   2   -13.622000   37.961000  24.196000
7028   3   2   -13.884000   19.19000  22.239000
7029   3   2   -13.91000   12.464000  24.554000
7030   3   2   -13.696000   37.941000  28.484000
7031   3   2   -13.861000   19.287000  26.57000
7032   3   2   -13.839000   21.706000  26.552000
7033   3   2   -13.833000   21.608000  22.188000
7034   3   2   -13.599000   40.369000  24.165000
7035   3   2   -13.841000   26.43000  28.554000
7036   3   2   -13.841000   21.753000  28.659000
7037   3   2   -13.938000   3.398000  26.819000
7038   3   2   -13.586000   40.386000  21.979000
7039   3   2   -13.98000   5.498000  22.431000
7040   3   2   -13.924000   10.09000  26.729000
7041   3   2   -21.906000   31.089000  28.353000
7042   3   2   -21.888000   28.673000  21.973000
7043   3   2   -21.979000   28.793000  30.617000
7044   3   2   -21.943000   28.743000  26.312000
7045   3   2   -21.913000   28.702000  24.15000
7046   3   2   -21.985000   28.769000  28.401000
7047   3   2   -21.785000   31.07000  21.909000
7048   3   2   -21.96000   31.097000  30.509000
7049   3   2   -21.865000   31.073000  26.196000
7050   3   2   -21.84000   31.06000  24.113000
7051   3   1   -16.117000   -0.818000  22.87000
7052   3   1   -16.137000   0.671000  22.357000
7053   3   1   -14.895000   -1.609000  22.279000
7054   3   1   -14.886000   1.457000  22.831000
7055   3   1   -16.124000   -0.765000  31.286000
7056   3   1   -16.117000   0.725000  30.77000
7057   3   1   -14.869000   -1.558000  30.811000
7058   3   1   -14.903000   1.515000  31.358000
7059   3   1   -16.099000   -0.799000  27.091000
7060   3   1   -16.104000   0.693000  26.551000
7061   3   1   -16.105000   -0.815000  24.447000
7062   3   1   -16.104000   0.683000  24.971000
7063   3   1   -14.86000   -1.598000  26.541000
7064   3   1   -14.861000   -1.605000  24.984000
7065   3   1   -14.867000   1.484000  27.099000
7066   3   1   -14.867000   1.464000  24.393000
7067   3   1   -16.096000   -0.786000  28.671000
7068   3   1   -16.106000   0.715000  29.193000
7069   3   1   -14.854000   -1.574000  29.248000
7070   3   1   -14.867000   1.497000  28.654000
7071   3   1   -18.673000   -0.812000  22.907000
7072   3   1   -18.674000   0.678000  22.393000
7073   3   1   -17.404000   -1.565000  22.397000
7074   3   1   -17.402000   1.434000  22.884000
7075   3   1   -18.666000   -0.761000  31.254000
7076   3   1   -18.667000   0.729000  30.736000
7077   3   1   -17.391000   -1.517000  30.763000
7078   3   1   -17.402000   1.487000  31.241000
7079   3   1   -18.669000   -0.797000  27.089000
7080   3   1   -18.67000   0.701000  26.558000
7081   3   1   -18.672000   -0.81000  24.473000
7082   3   1   -18.671000   0.69000  24.989000
7083   3   1   -17.384000   -1.553000  26.569000
7084   3   1   -17.386000   -1.561000  24.992000
7085   3   1   -17.387000   1.458000  27.074000
7086   3   1   -17.392000   1.439000  24.457000
7087   3   1   -18.668000   -0.783000  28.658000
7088   3   1   -18.668000   0.72000  29.171000
7089   3   1   -17.384000   -1.532000  29.19000
7090   3   1   -17.387000   1.471000  28.649000
7091   3   1   -21.23000   -0.815000  22.874000
7092   3   1   -21.211000   0.675000  22.362000
7093   3   1   -19.943000   -1.564000  22.4000
7094   3   1   -19.944000   1.437000  22.886000
7095   3   1   -21.208000   -0.763000  31.29000
7096   3   1   -21.216000   0.729000  30.774000
7097   3   1   -19.941000   -1.516000  30.765000
7098   3   1   -19.93000   1.491000  31.242000
7099   3   1   -21.24000   -0.797000  27.096000
7100   3   1   -21.235000   0.698000  26.555000
7101   3   1   -21.239000   -0.813000  24.452000
7102   3   1   -21.238000   0.687000  24.975000
7103   3   1   -19.956000   -1.552000  26.571000
7104   3   1   -19.956000   -1.56000  24.994000
7105   3   1   -19.951000   1.461000  27.076000
7106   3   1   -19.95000   1.443000  24.459000
7107   3   1   -21.24000   -0.784000  28.676000
7108   3   1   -21.229000   0.719000  29.197000
7109   3   1   -19.951000   -1.531000  29.192000
7110   3   1   -19.949000   1.474000  28.651000
7111   3   1   -22.451000   -1.609000  22.287000
7112   3   1   -22.459000   1.466000  22.838000
7113   3   1   -22.462000   -1.559000  30.817000
7114   3   1   -22.428000   1.524000  31.363000
7115   3   1   -22.479000   -1.597000  26.548000
7116   3   1   -22.481000   -1.605000  24.991000
7117   3   1   -22.47000   1.494000  27.105000
7118   3   1   -22.475000   1.474000  24.4000
7119   3   1   -22.48000   -1.574000  29.254000
7120   3   1   -22.468000   1.507000  28.66000
7121   3   2   -16.153000   0.658000  21.266000
7122   3   2   -14.967000   -1.646000  21.193000
7123   3   2   -16.138000   -0.758000  32.376000
7124   3   2   -14.976000   1.549000  32.445000
7125   3   2   -18.675000   0.667000  21.303000
7126   3   2   -17.423000   -1.571000  21.307000
7127   3   2   -18.665000   -0.754000  32.344000
7128   3   2   -17.421000   1.49000  32.331000
7129   3   2   -21.198000   0.662000  21.271000
7130   3   2   -19.926000   -1.57000  21.309000
7131   3   2   -21.192000   -0.756000  32.38000
7132   3   2   -19.91000   1.493000  32.332000
7133   3   2   -22.382000   -1.647000  21.2000
7134   3   2   -22.353000   1.557000  32.449000
7135   3   2   -23.404000   -1.132000  22.494000
7136   3   2   -23.365000   0.993000  22.464000
7137   3   2   -23.369000   -1.088000  31.189000
7138   3   2   -23.379000   1.04000  31.161000
7139   3   2   -23.408000   -1.127000  26.853000
7140   3   2   -23.397000   1.015000  26.802000
7141   3   2   -23.405000   -1.134000  24.671000
7142   3   2   -23.407000   1.002000  24.699000
7143   3   2   -23.414000   -1.11000  28.955000
7144   3   2   -23.389000   1.029000  28.985000
7145   3   2   -13.953000   1.031000  31.154000
7146   3   2   -13.937000   -1.134000  24.662000
7147   3   2   -13.943000   -1.132000  22.485000
7148   3   2   -13.946000   1.02000  28.978000
7149   3   2   -13.936000   0.991000  24.69000
7150   3   2   -13.962000   -1.088000  31.181000
7151   3   2   -13.941000   1.005000  26.794000
7152   3   2   -13.921000   -1.11000  28.946000
7153   3   2   -13.93000   -1.127000  26.845000
7154   3   2   -13.982000   0.982000  22.455000
7155   3   5   -16.112000   -5.315000  22.834000
7156   3   5   -16.127000   -3.817000  22.36000
7157   3   5   -14.915000   -6.1000  22.161000
7158   3   5   -14.872000   -3.052000  22.847000
7159   3   5   -16.128000   -5.248000  31.367000
7160   3   5   -16.107000   -3.774000  30.818000
7161   3   5   -14.903000   -6.078000  30.899000
7162   3   5   -14.885000   -2.996000  31.393000
7163   3   5   -16.095000   -5.31000  27.122000
7164   3   5   -16.094000   -3.822000  26.573000
7165   3   5   -16.102000   -5.321000  24.431000
7166   3   5   -16.094000   -3.828000  24.981000
7167   3   5   -14.886000   -6.133000  26.538000
7168   3   5   -14.888000   -6.135000  24.994000
7169   3   5   -14.857000   -3.041000  27.124000
7170   3   5   -14.855000   -3.053000  24.41000
7171   3   5   -16.091000   -5.3000  28.721000
7172   3   5   -16.096000   -3.798000  29.232000
7173   3   5   -14.873000   -6.105000  29.347000
7174   3   5   -14.856000   -3.028000  28.683000
7175   3   5   -18.67000   -5.273000  22.876000
7176   3   5   -18.672000   -3.79000  22.393000
7177   3   5   -17.413000   -5.986000  22.306000
7178   3   5   -17.395000   -3.059000  22.897000
7179   3   5   -18.663000   -5.208000  31.335000
7180   3   5   -18.664000   -3.747000  30.783000
7181   3   5   -17.404000   -5.948000  30.839000
7182   3   5   -17.393000   -3.004000  31.282000
7183   3   5   -18.666000   -5.264000  27.12000
7184   3   5   -18.668000   -3.79000  26.579000
7185   3   5   -18.669000   -5.275000  24.457000
7186   3   5   -18.67000   -3.797000  24.999000
7187   3   5   -17.395000   -5.985000  26.568000
7188   3   5   -17.397000   -5.992000  25.002000
7189   3   5   -17.38000   -3.052000  27.1000
7190   3   5   -17.385000   -3.062000  24.471000
7191   3   5   -18.665000   -5.257000  28.704000
7192   3   5   -18.666000   -3.77000  29.211000
7193   3   5   -17.393000   -5.973000  29.275000
7194   3   5   -17.379000   -3.039000  28.68000
7195   3   5   -21.228000   -5.317000  22.838000
7196   3   5   -21.217000   -3.818000  22.365000
7197   3   5   -19.927000   -5.986000  22.308000
7198   3   5   -19.949000   -3.059000  22.899000
7199   3   5   -21.197000   -5.25000  31.372000
7200   3   5   -21.221000   -3.775000  30.822000
7201   3   5   -19.921000   -5.949000  30.841000
7202   3   5   -19.936000   -3.004000  31.284000
7203   3   5   -21.238000   -5.312000  27.127000
7204   3   5   -21.242000   -3.823000  26.578000
7205   3   5   -21.236000   -5.323000  24.435000
7206   3   5   -21.245000   -3.83000  24.985000
7207   3   5   -19.938000   -5.985000  26.57000
7208   3   5   -19.939000   -5.993000  25.004000
7209   3   5   -19.957000   -3.052000  27.102000
7210   3   5   -19.957000   -3.062000  24.473000
7211   3   5   -21.239000   -5.302000  28.726000
7212   3   5   -21.235000   -3.799000  29.237000
7213   3   5   -19.934000   -5.974000  29.277000
7214   3   5   -19.954000   -3.039000  28.683000
7215   3   5   -22.424000   -6.106000  22.168000
7216   3   5   -22.472000   -3.053000  22.854000
7217   3   5   -22.421000   -6.083000  30.906000
7218   3   5   -22.443000   -2.998000  31.399000
7219   3   5   -22.446000   -6.138000  26.545000
7220   3   5   -22.447000   -6.14000  25.0000
7221   3   5   -22.479000   -3.042000  27.131000
7222   3   5   -22.486000   -3.054000  24.417000
7223   3   5   -22.454000   -6.11000  29.354000
7224   3   5   -22.477000   -3.029000  28.69000
7225   3   6   -16.141000   -3.802000  21.27000
7226   3   6   -14.941000   -5.985000  21.079000
7227   3   6   -16.144000   -5.237000  32.458000
7228   3   6   -14.949000   -2.956000  32.48000
7229   3   6   -18.673000   -3.778000  21.303000
7230   3   6   -17.431000   -5.937000  21.217000
7231   3   6   -18.661000   -5.197000  32.426000
7232   3   6   -17.411000   -2.99000  32.372000
7233   3   6   -21.205000   -3.803000  21.274000
7234   3   6   -19.91000   -5.938000  21.219000
7235   3   6   -21.178000   -5.239000  32.462000
7236   3   6   -19.916000   -2.991000  32.374000
7237   3   6   -22.398000   -5.993000  21.086000
7238   3   6   -22.377000   -2.958000  32.486000
7239   3   6   -23.402000   -5.765000  22.492000
7240   3   6   -23.371000   -3.542000  22.479000
7241   3   6   -23.35000   -5.69000  31.311000
7242   3   6   -23.385000   -3.497000  31.189000
7243   3   6   -23.402000   -5.757000  26.889000
7244   3   6   -23.4000   -3.534000  26.827000
7245   3   6   -23.398000   -5.751000  24.651000
7246   3   6   -23.41000   -3.541000  24.717000
7247   3   6   -23.414000   -5.728000  29.024000
7248   3   6   -23.393000   -3.518000  29.014000
7249   3   6   -13.943000   -3.494000  31.181000
7250   3   6   -13.938000   -5.744000  24.643000
7251   3   6   -13.937000   -5.758000  22.485000
7252   3   6   -13.939000   -3.515000  29.006000
7253   3   6   -13.929000   -3.538000  24.708000
7254   3   6   -13.974000   -5.683000  31.302000
7255   3   6   -13.936000   -3.531000  26.818000
7256   3   6   -13.914000   -5.721000  29.016000
7257   3   6   -13.93000   -5.751000  26.88000
7258   3   6   -13.973000   -3.539000  22.47000
7259   3   6   -14.978000   -7.095000  31.286000
7260   3   6   -14.943000   -7.169000  26.87000
7261   3   6   -14.94000   -7.167000  24.648000
7262   3   6   -14.913000   -7.148000  29.036000
7263   3   6   -17.427000   -7.05000  22.535000
7264   3   6   -17.427000   -6.971000  31.221000
7265   3   6   -17.416000   -7.029000  26.878000
7266   3   6   -17.421000   -7.038000  24.693000
7267   3   6   -17.41000   -7.024000  28.986000
7268   3   6   -19.911000   -7.051000  22.537000
7269   3   6   -19.896000   -6.972000  31.223000
7270   3   6   -19.915000   -7.03000  26.88000
7271   3   6   -19.914000   -7.039000  24.696000
7272   3   6   -19.917000   -7.025000  28.988000
7273   3   6   -22.359000   -7.174000  22.368000
7274   3   6   -22.342000   -7.099000  31.293000
7275   3   6   -22.386000   -7.173000  26.877000
7276   3   6   -22.392000   -7.172000  24.655000
7277   3   6   -22.411000   -7.153000  29.043000
7278   3   6   -14.977000   -7.169000  22.36000
7279   3   1   -15.703000   45.326000  22.369000
7280   3   1   -15.702000   46.838000  21.868000
7281   3   1   -14.497000   44.51000  21.782000
7282   3   1   -14.45000   47.628000  22.351000
7283   3   1   -15.764000   45.308000  30.775000
7284   3   1   -15.725000   46.83000  30.275000
7285   3   1   -14.529000   44.481000  30.304000
7286   3   1   -14.511000   47.63000  30.874000
7287   3   1   -15.711000   45.316000  26.586000
7288   3   1   -15.69000   46.833000  26.059000
7289   3   1   -15.7000   45.319000  23.946000
7290   3   1   -15.683000   46.833000  24.479000
7291   3   1   -14.485000   44.494000  26.04000
7292   3   1   -14.476000   44.499000  24.484000
7293   3   1   -14.452000   47.628000  26.616000
7294   3   1   -14.439000   47.626000  23.913000
7295   3   1   -15.719000   45.315000  28.166000
7296   3   1   -15.706000   46.835000  28.698000
7297   3   1   -14.501000   44.488000  28.743000
7298   3   1   -14.459000   47.63000  28.172000
7299   3   1   -18.246000   45.353000  22.39000
7300   3   1   -18.233000   46.866000  21.891000
7301   3   1   -16.989000   44.572000  21.887000
7302   3   1   -16.961000   47.619000  22.392000
7303   3   1   -18.292000   45.337000  30.725000
7304   3   1   -18.265000   46.859000  30.227000
7305   3   1   -17.034000   44.55000  30.237000
7306   3   1   -16.998000   47.62000  30.741000
7307   3   1   -18.269000   45.343000  26.566000
7308   3   1   -18.25000   46.863000  26.052000
7309   3   1   -18.255000   45.346000  23.956000
7310   3   1   -18.244000   46.861000  24.483000
7311   3   1   -16.997000   44.56000  26.05000
7312   3   1   -16.988000   44.562000  24.474000
7313   3   1   -16.965000   47.618000  26.579000
7314   3   1   -16.958000   47.616000  23.965000
7315   3   1   -18.278000   45.345000  28.135000
7316   3   1   -18.26000   46.865000  28.662000
7317   3   1   -17.017000   44.557000  28.664000
7318   3   1   -16.972000   47.622000  28.155000
7319   3   1   -20.789000   45.378000  22.34000
7320   3   1   -20.765000   46.89000  21.848000
7321   3   1   -19.51000   44.6000  21.87000
7322   3   1   -19.497000   47.644000  22.383000
7323   3   1   -20.819000   45.368000  30.748000
7324   3   1   -20.805000   46.889000  30.256000
7325   3   1   -19.566000   44.58000  30.221000
7326   3   1   -19.515000   47.647000  30.733000
7327   3   1   -20.828000   45.374000  26.557000
7328   3   1   -20.809000   46.888000  26.038000
7329   3   1   -20.81000   45.372000  23.917000
7330   3   1   -20.804000   46.885000  24.458000
7331   3   1   -19.553000   44.59000  26.034000
7332   3   1   -19.543000   44.589000  24.458000
7333   3   1   -19.522000   47.644000  26.57000
7334   3   1   -19.511000   47.641000  23.955000
7335   3   1   -20.837000   45.377000  28.137000
7336   3   1   -20.814000   46.894000  28.679000
7337   3   1   -19.567000   44.589000  28.648000
7338   3   1   -19.526000   47.65000  28.146000
7339   3   1   -22.003000   44.588000  21.735000
7340   3   1   -22.009000   47.698000  22.328000
7341   3   1   -22.074000   44.581000  30.257000
7342   3   1   -22.0000   47.715000  30.854000
7343   3   1   -22.067000   44.582000  25.99000
7344   3   1   -22.056000   44.58000  24.434000
7345   3   1   -22.035000   47.706000  26.594000
7346   3   1   -22.03000   47.698000  23.89000
7347   3   1   -22.084000   44.586000  28.694000
7348   3   1   -22.038000   47.714000  28.15000
7349   3   2   -15.712000   46.839000  20.778000
7350   3   2   -14.567000   44.484000  20.696000
7351   3   2   -15.785000   45.307000  31.865000
7352   3   2   -14.595000   47.665000  31.959000
7353   3   2   -18.229000   46.87000  20.801000
7354   3   2   -17.002000   44.579000  20.797000
7355   3   2   -18.297000   45.332000  31.815000
7356   3   2   -17.022000   47.618000  31.831000
7357   3   2   -20.749000   46.896000  20.758000
7358   3   2   -19.484000   44.61000  20.78000
7359   3   2   -20.81000   45.362000  31.838000
7360   3   2   -19.497000   47.643000  31.823000
7361   3   2   -21.921000   44.565000  20.649000
7362   3   2   -21.917000   47.747000  31.94000
7363   3   2   -22.952000   45.075000  21.935000
7364   3   2   -22.919000   47.235000  21.952000
7365   3   2   -22.96000   47.245000  30.661000
7366   3   2   -22.992000   45.067000  26.29000
7367   3   2   -22.969000   47.242000  26.29000
7368   3   2   -22.967000   47.234000  24.184000
7369   3   2   -22.966000   47.248000  28.472000
7370   3   2   -23.007000   45.074000  28.398000
7371   3   2   -22.972000   45.068000  24.11000
7372   3   2   -22.976000   45.064000  30.629000
7373   3   2   -13.511000   47.145000  24.211000
7374   3   2   -13.543000   47.142000  28.496000
7375   3   2   -13.554000   44.957000  26.353000
7376   3   2   -13.56000   44.95000  28.458000
7377   3   2   -13.528000   47.143000  26.316000
7378   3   2   -13.546000   47.15000  21.979000
7379   3   2   -13.618000   44.937000  30.688000
7380   3   2   -13.563000   47.135000  30.682000
7381   3   2   -13.546000   44.968000  24.173000
7382   3   2   -13.542000   44.983000  21.991000
7383   3   1   -15.667000   49.893000  22.37000
7384   3   1   -15.668000   51.397000  21.857000
7385   3   1   -14.459000   49.082000  21.786000
7386   3   1   -14.415000   52.188000  22.331000
7387   3   1   -15.702000   49.92000  30.777000
7388   3   1   -15.67000   51.439000  30.266000
7389   3   1   -14.466000   49.091000  30.308000
7390   3   1   -14.456000   52.247000  30.856000
7391   3   1   -15.661000   49.905000  26.587000
7392   3   1   -15.646000   51.417000  26.048000
7393   3   1   -15.659000   49.895000  23.947000
7394   3   1   -15.642000   51.409000  24.469000
7395   3   1   -14.436000   49.085000  26.043000
7396   3   1   -14.431000   49.083000  24.487000
7397   3   1   -14.407000   52.215000  26.597000
7398   3   1   -14.399000   52.197000  23.893000
7399   3   1   -15.664000   49.912000  28.167000
7400   3   1   -15.654000   51.434000  28.689000
7401   3   1   -14.442000   49.092000  28.746000
7402   3   1   -14.41000   52.228000  28.153000
7403   3   1   -18.211000   49.915000  22.399000
7404   3   1   -18.2000   51.42000  21.887000
7405   3   1   -16.954000   49.137000  21.896000
7406   3   1   -16.927000   52.176000  22.378000
7407   3   1   -18.227000   49.942000  30.735000
7408   3   1   -18.209000   51.462000  30.224000
7409   3   1   -16.97000   49.153000  30.247000
7410   3   1   -16.943000   52.23000  30.728000
7411   3   1   -18.22000   49.926000  26.575000
7412   3   1   -18.205000   51.441000  26.048000
7413   3   1   -18.215000   49.917000  23.964000
7414   3   1   -18.204000   51.433000  24.48000
7415   3   1   -16.948000   49.144000  26.06000
7416   3   1   -16.945000   49.14000  24.484000
7417   3   1   -16.921000   52.201000  26.566000
7418   3   1   -16.92000   52.183000  23.951000
7419   3   1   -18.223000   49.935000  28.144000
7420   3   1   -18.208000   51.458000  28.659000
7421   3   1   -16.958000   49.153000  28.674000
7422   3   1   -16.923000   52.214000  28.142000
7423   3   1   -20.756000   49.939000  22.359000
7424   3   1   -20.733000   51.441000  21.851000
7425   3   1   -19.479000   49.162000  21.889000
7426   3   1   -19.464000   52.197000  22.375000
7427   3   1   -20.753000   49.97000  30.767000
7428   3   1   -20.749000   51.487000  30.261000
7429   3   1   -19.501000   49.179000  30.241000
7430   3   1   -19.461000   52.252000  30.726000
7431   3   1   -20.779000   49.954000  26.576000
7432   3   1   -20.765000   51.463000  26.042000
7433   3   1   -20.771000   49.941000  23.936000
7434   3   1   -20.765000   51.453000  24.462000
7435   3   1   -19.505000   49.17000  26.053000
7436   3   1   -19.501000   49.164000  24.478000
7437   3   1   -19.478000   52.223000  26.563000
7438   3   1   -19.474000   52.205000  23.948000
7439   3   1   -20.782000   49.964000  28.157000
7440   3   1   -20.762000   51.483000  28.683000
7441   3   1   -19.507000   49.18000  28.668000
7442   3   1   -19.478000   52.237000  28.139000
7443   3   1   -21.975000   49.151000  21.767000
7444   3   1   -21.977000   52.249000  22.326000
7445   3   1   -22.006000   49.174000  30.29000
7446   3   1   -21.947000   52.316000  30.852000
7447   3   1   -22.019000   49.161000  26.023000
7448   3   1   -22.016000   49.154000  24.467000
7449   3   1   -21.992000   52.281000  26.592000
7450   3   1   -21.995000   52.259000  23.887000
7451   3   1   -22.024000   49.173000  28.727000
7452   3   1   -21.991000   52.296000  28.148000
7453   3   2   -15.681000   51.389000  20.767000
7454   3   2   -14.529000   49.051000  20.699000
7455   3   2   -15.719000   49.927000  31.867000
7456   3   2   -14.539000   52.293000  31.941000
7457   3   2   -18.199000   51.415000  20.797000
7458   3   2   -16.971000   49.139000  20.806000
7459   3   2   -18.229000   49.947000  31.825000
7460   3   2   -16.965000   52.239000  31.818000
7461   3   2   -20.719000   51.436000  20.761000
7462   3   2   -19.457000   49.164000  20.799000
7463   3   2   -20.739000   49.975000  31.858000
7464   3   2   -19.44000   52.26000  31.816000
7465   3   2   -21.902000   49.122000  20.68000
7466   3   2   -21.862000   52.359000  31.937000
7467   3   2   -22.923000   49.639000  21.972000
7468   3   2   -22.887000   51.783000  21.954000
7469   3   2   -22.905000   51.841000  30.664000
7470   3   2   -22.942000   49.645000  26.327000
7471   3   2   -22.925000   51.813000  26.292000
7472   3   2   -22.931000   51.797000  24.187000
7473   3   2   -22.918000   51.831000  28.474000
7474   3   2   -22.95000   49.658000  28.434000
7475   3   2   -22.933000   49.64000  24.147000
7476   3   2   -22.907000   49.656000  30.665000
7477   3   2   -13.47000   51.721000  24.193000
7478   3   2   -13.492000   51.745000  28.479000
7479   3   2   -13.505000   49.552000  26.352000
7480   3   2   -13.503000   49.556000  28.457000
7481   3   2   -13.482000   51.731000  26.297000
7482   3   2   -13.511000   51.709000  21.96000
7483   3   2   -13.556000   49.553000  30.687000
7484   3   2   -13.507000   51.754000  30.667000
7485   3   2   -13.503000   49.554000  24.172000
7486   3   2   -13.505000   49.557000  21.993000
7487   3   1   -15.635000   54.445000  22.333000
7488   3   1   -15.638000   55.941000  21.807000
7489   3   1   -14.425000   53.635000  21.754000
7490   3   1   -14.383000   56.734000  22.272000
7491   3   1   -15.654000   54.529000  30.742000
7492   3   1   -15.626000   56.039000  30.217000
7493   3   1   -14.417000   53.703000  30.278000
7494   3   1   -14.412000   56.849000  30.798000
7495   3   1   -15.622000   54.485000  26.552000
7496   3   1   -15.609000   55.989000  25.999000
7497   3   1   -15.623000   54.457000  23.911000
7498   3   1   -15.607000   55.971000  24.419000
7499   3   1   -14.395000   53.667000  26.012000
7500   3   1   -14.392000   53.656000  24.456000
7501   3   1   -14.369000   56.789000  26.539000
7502   3   1   -14.365000   56.753000  23.834000
7503   3   1   -15.621000   54.502000  28.132000
7504   3   1   -15.613000   56.023000  28.64000
7505   3   1   -14.396000   53.692000  28.715000
7506   3   1   -14.37000   56.811000  28.095000
7507   3   1   -18.18000   54.464000  22.367000
7508   3   1   -18.17000   55.961000  21.841000
7509   3   1   -16.922000   53.686000  21.868000
7510   3   1   -16.897000   56.72000  22.324000
7511   3   1   -18.181000   54.546000  30.704000
7512   3   1   -18.168000   56.058000  30.18000
7513   3   1   -16.922000   53.757000  30.221000
7514   3   1   -16.902000   56.828000  30.676000
7515   3   1   -18.18000   54.502000  26.544000
7516   3   1   -18.169000   56.01000  26.003000
7517   3   1   -18.18000   54.476000  23.932000
7518   3   1   -18.17000   55.992000  24.434000
7519   3   1   -16.908000   53.721000  26.033000
7520   3   1   -16.908000   53.707000  24.457000
7521   3   1   -16.885000   56.771000  26.512000
7522   3   1   -16.888000   56.737000  23.897000
7523   3   1   -18.181000   54.52000  28.113000
7524   3   1   -18.169000   56.043000  28.614000
7525   3   1   -16.912000   53.747000  28.648000
7526   3   1   -16.885000   56.794000  28.088000
7527   3   1   -20.725000   54.484000  22.332000
7528   3   1   -20.702000   55.979000  21.807000
7529   3   1   -19.447000   53.707000  21.866000
7530   3   1   -19.433000   56.739000  22.324000
7531   3   1   -20.707000   54.571000  30.741000
7532   3   1   -20.709000   56.08000  30.218000
7533   3   1   -19.453000   53.778000  30.22000
7534   3   1   -19.421000   56.847000  30.677000
7535   3   1   -20.739000   54.526000  26.55000
7536   3   1   -20.73000   56.028000  25.999000
7537   3   1   -20.737000   54.497000  23.909000
7538   3   1   -20.732000   56.009000  24.419000
7539   3   1   -19.465000   53.742000  26.032000
7540   3   1   -19.464000   53.728000  24.456000
7541   3   1   -19.442000   56.791000  26.513000
7542   3   1   -19.441000   56.756000  23.897000
7543   3   1   -20.74000   54.545000  28.13000
7544   3   1   -20.724000   56.064000  28.641000
7545   3   1   -19.462000   53.768000  28.647000
7546   3   1   -19.441000   56.813000  28.089000
7547   3   1   -21.946000   53.694000  21.75000
7548   3   1   -21.947000   56.788000  22.275000
7549   3   1   -21.959000   53.769000  30.275000
7550   3   1   -21.911000   56.906000  30.802000
7551   3   1   -21.98000   53.73000  26.008000
7552   3   1   -21.981000   53.716000  24.452000
7553   3   1   -21.958000   56.845000  26.542000
7554   3   1   -21.964000   56.808000  23.837000
7555   3   1   -21.979000   53.758000  28.712000
7556   3   1   -21.956000   56.868000  28.098000
7557   3   2   -15.653000   55.924000  20.717000
7558   3   2   -14.496000   53.596000  20.667000
7559   3   2   -15.67000   54.547000  31.832000
7560   3   2   -14.491000   56.904000  31.884000
7561   3   2   -18.17000   55.947000  20.751000
7562   3   2   -16.941000   53.678000  20.778000
7563   3   2   -18.181000   54.563000  31.794000
7564   3   2   -16.922000   56.847000  31.766000
7565   3   2   -20.688000   55.964000  20.717000
7566   3   2   -19.428000   53.699000  20.776000
7567   3   2   -20.69000   54.588000  31.831000
7568   3   2   -19.4000   56.866000  31.767000
7569   3   2   -21.876000   53.656000  20.664000
7570   3   2   -21.828000   56.96000  31.887000
7571   3   2   -22.892000   54.185000  21.954000
7572   3   2   -22.857000   56.321000  21.905000
7573   3   2   -22.868000   56.429000  30.615000
7574   3   2   -22.903000   54.216000  26.312000
7575   3   2   -22.89000   56.375000  26.244000
7576   3   2   -22.901000   56.349000  24.139000
7577   3   2   -22.882000   56.405000  28.427000
7578   3   2   -22.908000   54.238000  28.418000
7579   3   2   -22.9000   54.199000  24.13000
7580   3   2   -22.86000   54.253000  30.648000
7581   3   2   -13.435000   56.281000  24.135000
7582   3   2   -13.45000   56.333000  28.423000
7583   3   2   -13.464000   54.139000  26.317000
7584   3   2   -13.459000   54.156000  28.422000
7585   3   2   -13.444000   56.305000  26.24000
7586   3   2   -13.48000   56.254000  21.902000
7587   3   2   -13.508000   54.171000  30.651000
7588   3   2   -13.463000   56.357000  30.61000
7589   3   2   -13.466000   54.125000  24.136000
7590   3   2   -13.472000   54.113000  21.958000
7591   3   1   -15.606000   58.985000  22.26000
7592   3   1   -15.61000   60.474000  21.724000
7593   3   1   -14.396000   58.175000  21.684000
7594   3   1   -14.354000   61.267000  22.184000
7595   3   1   -15.617000   59.117000  30.67000
7596   3   1   -15.591000   60.616000  30.136000
7597   3   1   -14.377000   58.297000  30.209000
7598   3   1   -14.373000   61.421000  30.712000
7599   3   1   -15.588000   59.048000  26.479000
7600   3   1   -15.577000   60.544000  25.917000
7601   3   1   -15.592000   59.006000  23.837000
7602   3   1   -15.576000   60.518000  24.337000
7603   3   1   -14.36000   58.234000  25.943000
7604   3   1   -14.359000   58.213000  24.387000
7605   3   1   -14.336000   61.342000  26.452000
7606   3   1   -14.334000   61.293000  23.746000
7607   3   1   -15.586000   59.074000  28.059000
7608   3   1   -15.579000   60.591000  28.559000
7609   3   1   -14.357000   58.275000  28.647000
7610   3   1   -14.334000   61.37000  28.008000
7611   3   1   -18.15000   59.002000  22.296000
7612   3   1   -18.142000   60.493000  21.76000
7613   3   1   -16.893000   58.224000  21.801000
7614   3   1   -16.868000   61.253000  22.239000
7615   3   1   -18.145000   59.131000  30.636000
7616   3   1   -18.135000   60.632000  30.101000
7617   3   1   -16.884000   58.345000  30.156000
7618   3   1   -16.868000   61.4000  30.593000
7619   3   1   -18.148000   59.063000  26.475000
7620   3   1   -18.138000   60.563000  25.923000
7621   3   1   -18.149000   59.022000  23.862000
7622   3   1   -18.14000   60.537000  24.355000
7623   3   1   -16.874000   58.283000  25.967000
7624   3   1   -16.876000   58.261000  24.392000
7625   3   1   -16.853000   61.324000  26.428000
7626   3   1   -16.858000   61.277000  23.811000
7627   3   1   -18.147000   59.089000  28.043000
7628   3   1   -18.136000   60.609000  28.535000
7629   3   1   -16.876000   58.324000  28.583000
7630   3   1   -16.853000   61.353000  28.004000
7631   3   1   -20.695000   59.02000  22.262000
7632   3   1   -20.674000   60.509000  21.727000
7633   3   1   -19.418000   58.242000  21.802000
7634   3   1   -19.405000   61.271000  22.24000
7635   3   1   -20.673000   59.153000  30.673000
7636   3   1   -20.679000   60.652000  30.139000
7637   3   1   -19.417000   58.363000  30.157000
7638   3   1   -19.391000   61.417000  30.595000
7639   3   1   -20.708000   59.084000  26.482000
7640   3   1   -20.7000   60.579000  25.92000
7641   3   1   -20.707000   59.042000  23.84000
7642   3   1   -20.703000   60.553000  24.34000
7643   3   1   -19.432000   58.302000  25.968000
7644   3   1   -19.433000   58.279000  24.393000
7645   3   1   -19.412000   61.342000  26.43000
7646   3   1   -19.412000   61.295000  23.813000
7647   3   1   -20.707000   59.111000  28.062000
7648   3   1   -20.693000   60.627000  28.562000
7649   3   1   -19.427000   58.343000  28.584000
7650   3   1   -19.41000   61.371000  28.005000
7651   3   1   -21.916000   58.228000  21.687000
7652   3   1   -21.919000   61.318000  22.19000
7653   3   1   -21.925000   58.353000  30.213000
7654   3   1   -21.885000   61.473000  30.718000
7655   3   1   -21.948000   58.289000  25.946000
7656   3   1   -21.951000   58.267000  24.39000
7657   3   1   -21.93000   61.393000  26.458000
7658   3   1   -21.937000   61.344000  23.752000
7659   3   1   -21.947000   58.331000  28.65000
7660   3   1   -21.928000   61.422000  28.013000
7661   3   2   -15.626000   60.452000  20.634000
7662   3   2   -14.469000   58.129000  20.597000
7663   3   2   -15.632000   59.144000  31.76000
7664   3   2   -14.45000   61.482000  31.797000
7665   3   2   -18.142000   60.473000  20.67000
7666   3   2   -16.913000   58.207000  20.711000
7667   3   2   -18.144000   59.156000  31.725000
7668   3   2   -16.887000   61.426000  31.682000
7669   3   2   -20.66000   60.487000  20.637000
7670   3   2   -19.4000   58.226000  20.712000
7671   3   2   -20.656000   59.179000  31.763000
7672   3   2   -19.37000   61.443000  31.684000
7673   3   2   -21.846000   58.181000  20.601000
7674   3   2   -21.805000   61.532000  31.803000
7675   3   2   -22.863000   58.72000  21.887000
7676   3   2   -22.829000   60.849000  21.821000
7677   3   2   -22.841000   60.995000  30.529000
7678   3   2   -22.871000   58.776000  26.248000
7679   3   2   -22.862000   60.922000  26.16000
7680   3   2   -22.873000   60.887000  24.056000
7681   3   2   -22.855000   60.96000  28.344000
7682   3   2   -22.876000   58.807000  28.352000
7683   3   2   -22.87000   58.747000  24.065000
7684   3   2   -22.827000   58.838000  30.583000
7685   3   2   -13.402000   60.824000  24.048000
7686   3   2   -13.414000   60.896000  28.336000
7687   3   2   -13.43000   58.709000  26.244000
7688   3   2   -13.422000   58.738000  28.348000
7689   3   2   -13.411000   60.858000  26.153000
7690   3   2   -13.451000   60.787000  21.814000
7691   3   2   -13.468000   58.769000  30.579000
7692   3   2   -13.424000   60.93000  30.522000
7693   3   2   -13.433000   58.681000  24.062000
7694   3   2   -13.443000   58.655000  21.883000
7695   3   1   -15.576000   63.511000  22.165000
7696   3   1   -15.578000   64.995000  21.625000
7697   3   1   -14.367000   62.703000  21.589000
7698   3   1   -14.318000   65.784000  22.084000
7699   3   1   -15.583000   63.673000  30.576000
7700   3   1   -15.556000   65.16000  30.037000
7701   3   1   -14.34000   62.86000  30.115000
7702   3   1   -14.333000   65.957000  30.611000
7703   3   1   -15.556000   63.591000  26.384000
7704   3   1   -15.544000   65.079000  25.818000
7705   3   1   -15.562000   63.538000  23.742000
7706   3   1   -15.544000   65.047000  24.238000
7707   3   1   -14.326000   62.781000  25.849000
7708   3   1   -14.327000   62.752000  24.293000
7709   3   1   -14.299000   65.873000  26.351000
7710   3   1   -14.299000   65.816000  23.646000
7711   3   1   -15.553000   63.621000  27.964000
7712   3   1   -15.545000   65.132000  28.46000
7713   3   1   -14.322000   62.832000  28.554000
7714   3   1   -14.297000   65.904000  27.907000
7715   3   1   -18.122000   63.528000  22.203000
7716   3   1   -18.113000   65.013000  21.662000
7717   3   1   -16.865000   62.751000  21.708000
7718   3   1   -16.837000   65.77000  22.139000
7719   3   1   -18.114000   63.686000  30.543000
7720   3   1   -18.105000   65.176000  30.004000
7721   3   1   -16.852000   62.905000  30.064000
7722   3   1   -16.834000   65.937000  30.495000
7723   3   1   -18.118000   63.605000  26.381000
7724   3   1   -18.109000   65.098000  25.825000
7725   3   1   -18.121000   63.554000  23.768000
7726   3   1   -18.111000   65.066000  24.257000
7727   3   1   -16.844000   62.828000  25.876000
7728   3   1   -16.846000   62.799000  24.3000
7729   3   1   -16.821000   65.855000  26.329000
7730   3   1   -16.826000   65.801000  23.711000
7731   3   1   -18.117000   63.635000  27.95000
7732   3   1   -18.107000   65.149000  28.439000
7733   3   1   -16.844000   62.878000  28.492000
7734   3   1   -16.82000   65.886000  27.904000
7735   3   1   -20.669000   63.545000  22.169000
7736   3   1   -20.649000   65.028000  21.629000
7737   3   1   -19.39000   62.768000  21.71000
7738   3   1   -19.38000   65.787000  22.141000
7739   3   1   -20.646000   63.707000  30.58000
7740   3   1   -20.654000   65.194000  30.042000
7741   3   1   -19.388000   62.922000  30.066000
7742   3   1   -19.365000   65.954000  30.498000
7743   3   1   -20.68000   63.625000  26.389000
7744   3   1   -20.674000   65.113000  25.823000
7745   3   1   -20.68000   63.572000  23.746000
7746   3   1   -20.678000   65.081000  24.243000
7747   3   1   -19.404000   62.845000  25.878000
7748   3   1   -19.405000   62.816000  24.302000
7749   3   1   -19.386000   65.872000  26.331000
7750   3   1   -19.387000   65.817000  23.714000
7751   3   1   -20.68000   63.656000  27.968000
7752   3   1   -20.668000   65.167000  28.465000
7753   3   1   -19.398000   62.896000  28.494000
7754   3   1   -19.384000   65.904000  27.907000
7755   3   1   -21.889000   62.753000  21.595000
7756   3   1   -21.898000   65.834000  22.091000
7757   3   1   -21.9000   62.911000  30.121000
7758   3   1   -21.866000   66.007000  30.618000
7759   3   1   -21.922000   62.832000  25.855000
7760   3   1   -21.924000   62.803000  24.299000
7761   3   1   -21.908000   65.924000  26.358000
7762   3   1   -21.914000   65.866000  23.653000
7763   3   1   -21.921000   62.883000  28.56000
7764   3   1   -21.907000   65.954000  27.913000
7765   3   2   -15.595000   64.971000  20.535000
7766   3   2   -14.441000   62.653000  20.503000
7767   3   2   -15.597000   63.704000  31.666000
7768   3   2   -14.406000   66.019000  31.696000
7769   3   2   -18.115000   64.99000  20.571000
7770   3   2   -16.885000   62.731000  20.618000
7771   3   2   -18.113000   63.715000  31.633000
7772   3   2   -16.852000   65.965000  31.585000
7773   3   2   -20.635000   65.004000  20.539000
7774   3   2   -19.372000   62.748000  20.62000
7775   3   2   -20.63000   63.737000  31.67000
7776   3   2   -19.345000   65.982000  31.588000
7777   3   2   -21.818000   62.702000  20.509000
7778   3   2   -21.789000   66.068000  31.703000
7779   3   2   -22.836000   63.246000  21.793000
7780   3   2   -22.807000   65.364000  21.723000
7781   3   2   -22.821000   65.529000  30.426000
7782   3   2   -22.845000   63.32000  26.155000
7783   3   2   -22.839000   65.452000  26.06000
7784   3   2   -22.851000   65.41000  23.958000
7785   3   2   -22.833000   65.493000  28.244000
7786   3   2   -22.85000   63.357000  28.258000
7787   3   2   -22.843000   63.281000  23.971000
7788   3   2   -22.801000   63.397000  30.49000
7789   3   2   -13.368000   65.348000  23.949000
7790   3   2   -13.377000   65.431000  28.235000
7791   3   2   -13.397000   63.257000  26.147000
7792   3   2   -13.387000   63.294000  28.25000
7793   3   2   -13.375000   65.39000  26.052000
7794   3   2   -13.416000   65.303000  21.715000
7795   3   2   -13.432000   63.333000  30.483000
7796   3   2   -13.384000   65.466000  30.418000
7797   3   2   -13.402000   63.219000  23.964000
7798   3   2   -13.413000   63.184000  21.785000
7799   3   1   -15.538000   68.019000  22.059000
7800   3   5   -15.533000   69.493000  21.512000
7801   3   1   -14.328000   67.215000  21.485000
7802   3   5   -14.271000   70.299000  21.968000
7803   3   1   -15.541000   68.192000  30.478000
7804   3   5   -15.508000   69.672000  29.943000
7805   3   1   -14.297000   67.39000  30.013000
7806   3   5   -14.274000   70.471000  30.514000
7807   3   1   -15.518000   68.113000  26.282000
7808   3   5   -15.502000   69.596000  25.715000
7809   3   1   -15.524000   68.054000  23.637000
7810   3   5   -15.502000   69.561000  24.131000
7811   3   1   -14.288000   67.308000  25.746000
7812   3   1   -14.289000   67.275000  24.19000
7813   3   5   -14.255000   70.405000  26.249000
7814   3   5   -14.254000   70.341000  23.535000
7815   3   1   -15.514000   68.144000  27.863000
7816   3   5   -15.501000   69.648000  28.365000
7817   3   1   -14.282000   67.362000  28.452000
7818   3   5   -14.253000   70.436000  27.812000
7819   3   1   -18.094000   68.026000  22.097000
7820   3   5   -18.085000   69.494000  21.545000
7821   3   1   -16.831000   67.259000  21.604000
7822   3   5   -16.804000   70.249000  22.017000
7823   3   1   -18.085000   68.197000  30.449000
7824   3   5   -18.076000   69.673000  29.914000
7825   3   1   -16.816000   67.43000  29.966000
7826   3   5   -16.798000   70.42000  30.415000
7827   3   1   -18.089000   68.118000  26.281000
7828   3   5   -18.08000   69.598000  25.722000
7829   3   1   -18.092000   68.062000  23.663000
7830   3   5   -18.082000   69.564000  24.149000
7831   3   1   -16.81000   67.351000  25.774000
7832   3   1   -16.812000   67.318000  24.198000
7833   3   5   -16.79000   70.35000  26.229000
7834   3   5   -16.795000   70.291000  23.597000
7835   3   1   -18.088000   68.149000  27.851000
7836   3   5   -18.077000   69.649000  28.348000
7837   3   1   -16.809000   67.404000  28.393000
7838   3   5   -16.789000   70.381000  27.816000
7839   3   1   -20.65000   68.052000  22.064000
7840   3   5   -20.637000   69.527000  21.517000
7841   3   1   -19.367000   67.276000  21.607000
7842   3   5   -19.354000   70.265000  22.02000
7843   3   1   -20.629000   68.225000  30.482000
7844   3   5   -20.643000   69.706000  29.948000
7845   3   1   -19.365000   67.447000  29.968000
7846   3   5   -19.343000   70.436000  30.417000
7847   3   1   -20.661000   68.147000  26.287000
7848   3   5   -20.659000   69.63000  25.72000
7849   3   1   -20.66000   68.088000  23.642000
7850   3   5   -20.662000   69.595000  24.135000
7851   3   1   -19.379000   67.368000  25.776000
7852   3   1   -19.381000   67.334000  24.2000
7853   3   5   -19.36000   70.367000  26.232000
7854   3   5   -19.361000   70.308000  23.599000
7855   3   1   -20.661000   68.178000  27.868000
7856   3   5   -20.653000   69.682000  28.37000
7857   3   1   -19.374000   67.421000  28.395000
7858   3   5   -19.357000   70.398000  27.818000
7859   3   1   -21.871000   67.265000  21.492000
7860   3   5   -21.887000   70.349000  21.975000
7861   3   1   -21.884000   67.44000  30.02000
7862   3   5   -21.866000   70.521000  30.521000
7863   3   1   -21.902000   67.358000  25.753000
7864   3   1   -21.904000   67.325000  24.197000
7865   3   5   -21.894000   70.455000  26.257000
7866   3   5   -21.901000   70.392000  23.542000
7867   3   1   -21.903000   67.412000  28.459000
7868   3   5   -21.892000   70.486000  27.819000
7869   3   6   -15.548000   69.462000  20.422000
7870   3   2   -14.402000   67.163000  20.399000
7871   3   2   -15.553000   68.221000  31.568000
7872   3   6   -14.328000   70.507000  31.601000
7873   3   6   -18.086000   69.462000  20.455000
7874   3   2   -16.851000   67.236000  20.514000
7875   3   2   -18.084000   68.223000  31.539000
7876   3   6   -16.811000   70.426000  31.505000
7877   3   6   -20.624000   69.495000  20.427000
7878   3   2   -19.349000   67.253000  20.517000
7879   3   2   -20.615000   68.254000  31.572000
7880   3   6   -19.327000   70.443000  31.508000
7881   3   2   -21.8000   67.211000  20.406000
7882   3   6   -21.809000   70.557000  31.608000
7883   3   2   -22.817000   67.759000  21.69000
7884   3   6   -22.8000   69.885000  21.611000
7885   3   6   -22.823000   70.059000  30.303000
7886   3   2   -22.824000   67.849000  26.052000
7887   3   6   -22.83000   69.994000  25.957000
7888   3   6   -22.841000   69.948000  23.854000
7889   3   6   -22.824000   70.035000  28.146000
7890   3   2   -22.83000   67.889000  28.154000
7891   3   2   -22.822000   67.805000  23.867000
7892   3   2   -22.784000   67.927000  30.389000
7893   3   6   -13.319000   69.885000  23.844000
7894   3   6   -13.326000   69.972000  28.137000
7895   3   2   -13.359000   67.787000  26.043000
7896   3   2   -13.348000   67.826000  28.146000
7897   3   6   -13.325000   69.931000  25.948000
7898   3   6   -13.364000   69.823000  21.602000
7899   3   2   -13.39000   67.865000  30.381000
7900   3   6   -13.323000   69.997000  30.294000
7901   3   2   -13.365000   67.743000  23.858000
7902   3   2   -13.376000   67.697000  21.681000
7903   3   5   -15.534000   72.468000  21.919000
7904   3   5   -14.298000   71.728000  21.353000
7905   3   5   -15.529000   72.639000  30.477000
7906   3   5   -14.269000   71.918000  29.944000
7907   3   5   -15.518000   72.567000  26.207000
7908   3   5   -15.521000   72.514000  23.486000
7909   3   5   -14.267000   71.841000  25.64000
7910   3   5   -14.267000   71.807000  24.073000
7911   3   5   -15.516000   72.599000  27.772000
7912   3   5   -14.261000   71.897000  28.373000
7913   3   5   -18.065000   72.458000  21.954000
7914   3   5   -16.808000   71.715000  21.454000
7915   3   5   -18.056000   72.623000  30.464000
7916   3   5   -16.791000   71.908000  29.915000
7917   3   5   -18.06000   72.553000  26.208000
7918   3   5   -18.063000   72.504000  23.51000
7919   3   5   -16.789000   71.829000  25.667000
7920   3   5   -16.79000   71.798000  24.079000
7921   3   5   -18.059000   72.586000  27.764000
7922   3   5   -16.789000   71.882000  28.329000
7923   3   5   -20.596000   72.502000  21.924000
7924   3   5   -19.333000   71.732000  21.457000
7925   3   5   -20.582000   72.672000  30.482000
7926   3   5   -19.331000   71.925000  29.917000
7927   3   5   -20.602000   72.6000  26.212000
7928   3   5   -20.605000   72.547000  23.491000
7929   3   5   -19.342000   71.846000  25.669000
7930   3   5   -19.344000   71.815000  24.081000
7931   3   5   -20.601000   72.632000  27.776000
7932   3   5   -19.337000   71.899000  28.331000
7933   3   5   -21.842000   71.778000  21.361000
7934   3   5   -21.852000   71.968000  29.951000
7935   3   5   -21.864000   71.891000  25.647000
7936   3   5   -21.867000   71.857000  24.081000
7937   3   5   -21.863000   71.947000  28.38000
7938   3   6   -14.364000   71.671000  20.267000
7939   3   6   -15.536000   72.617000  31.566000
7940   3   6   -16.825000   71.693000  20.364000
7941   3   6   -18.055000   72.586000  31.553000
7942   3   6   -19.318000   71.709000  20.366000
7943   3   6   -20.574000   72.65000  31.571000
7944   3   6   -21.78000   71.72000  20.274000
7945   3   6   -22.753000   72.337000  21.568000
7946   3   6   -22.754000   72.441000  25.949000
7947   3   6   -22.757000   72.486000  28.068000
7948   3   6   -22.757000   72.392000  23.749000
7949   3   6   -22.729000   72.506000  30.315000
7950   3   6   -13.369000   72.379000  25.94000
7951   3   6   -13.361000   72.424000  28.059000
7952   3   6   -13.384000   72.444000  30.307000
7953   3   6   -13.371000   72.33000  23.74000
7954   3   6   -13.38000   72.275000  21.559000
7955   3   6   -15.546000   73.485000  21.521000
7956   3   6   -15.522000   73.697000  30.217000
7957   3   6   -15.519000   73.604000  25.873000
7958   3   6   -15.515000   73.567000  23.766000
7959   3   6   -15.519000   73.648000  28.068000
7960   3   6   -18.059000   73.475000  21.554000
7961   3   6   -18.049000   73.685000  30.219000
7962   3   6   -18.054000   73.592000  25.879000
7963   3   6   -18.056000   73.558000  23.786000
7964   3   6   -18.051000   73.635000  28.061000
7965   3   6   -20.571000   73.518000  21.526000
7966   3   6   -20.576000   73.73000  30.221000
7967   3   6   -20.588000   73.638000  25.878000
7968   3   6   -20.597000   73.6000  23.771000
7969   3   6   -20.583000   73.681000  28.073000
