
# Start from the minimized and heatedup restart file
read_restart TEMP_XYZ.init.restart

# set groups
group free type 1 2
group anchor type 3 4   
group moveme type 5 6

# Pair Coefficients
pair_style	airebo 3.0 1 0
pair_coeff * * CH.airebo C H C H C H  

#freeze the sleeve anchor atoms
fix anchorfix anchor setforce 0.0 0.0 0.0 #first is ID = user-assigned name for the fix,  ID of the group of atoms
velocity anchor set 0.0 0.0 0.0

# Equilibrate to 300K
fix nve all nve
timestep 0.00025
# bring the temp of free atoms to 90
fix lonsfree_fix free temp/berendsen 90. 90. 0.25

#apply linear movement in Y
fix move_posx moveme move linear 0.0 1.5 0.0


#VMD IMD connection. The VMd command is imd connect localhost 5678
#fix comm all imd 5678 unwrap off fscale 100.0 trate 10 nowait off

dump mydmp1 all atom 1000 XYZ_move_Y.lammpstrj
thermo 500
run 140000
unfix move_posx
run 1000 #easing a little before returning
fix move_negx moveme move linear 0.0 -1.5 0.0
run 140000
write_restart XYZ.init.restart 
