1216
GENERATED BY SAMSON 2025 R1
C -1.88 5.359 48.496
C -3.825 5.359 46.552
C -0.439 5.359 48.497
C -3.825 5.358 45.112
C 1.505 5.359 46.553
C -1.881 5.358 43.167
C 1.505 5.358 45.112
C -0.44 5.358 43.167
C -2.517 4.137 48.178
C -3.506 4.137 47.19
C 0.198 4.137 48.179
C -3.507 4.136 44.474
C 1.186 4.137 47.19
C -2.518 4.136 43.486
C 1.186 4.136 44.475
C 0.197 4.136 43.486
C -1.865 2.901 48.547
C -3.875 2.901 46.537
C -0.456 2.901 48.547
C -3.875 2.901 45.129
C 1.554 2.901 46.537
C -1.865 2.9 43.119
C 1.554 2.9 45.129
C -0.457 2.9 43.119
C -2.609 1.779 49.053
C -4.381 1.779 47.282
C 0.288 1.78 49.054
C -4.382 1.779 44.385
C 2.058 1.778 47.282
C -2.61 1.777 42.615
C 2.058 1.777 44.385
C 0.287 1.777 42.615
C -3.882 1.279 48.554
C -1.865 1.276 50.177
C -5.504 1.276 46.538
C -0.456 1.276 50.177
C -5.505 1.275 45.129
C 1.559 1.28 48.555
C -3.882 1.279 43.114
C -2.518 0.907 51.412
C -6.74 0.907 47.191
C 3.18 1.274 46.538
C -1.865 1.273 41.492
C 3.18 1.273 45.129
C -0.457 1.273 41.492
C 0.198 0.907 51.412
C 1.559 1.278 43.114
C -6.74 0.906 44.475
C -1.881 1.305 38.823
C -0.394 1.304 38.822
C 4.417 0.907 47.191
C -2.514 0.979 40.16
C 4.416 0.905 44.475
C 0.21 0.977 40.167
C -4.382 0.009 49.054
C -3.507 -0.082 51.412
C -6.74 -0.081 48.18
C 1.186 -0.082 51.412
C -6.74 -0.083 43.486
C 2.059 0.008 49.054
C -4.382 0.007 42.614
C 4.417 -0.082 48.18
C -3.563 -0.07 40.164
C 2.058 0.006 42.614
C 4.416 -0.084 43.487
C 1.258 -0.072 40.166
C -3.876 -0.736 50.177
C -5.504 -0.736 48.549
C 1.555 -0.736 50.177
C -5.505 -0.737 43.117
C 3.181 -0.736 48.547
C -3.875 -0.736 41.491
C -3.865 -0.678 38.815
C 3.18 -0.738 43.119
C 1.553 -0.737 41.492
C 1.587 -0.679 38.823
C -3.876 -2.145 50.176
C -5.504 -2.144 48.548
C 1.555 -2.145 50.176
C -5.504 -2.146 43.116
C 3.18 -2.144 48.547
C -3.874 -2.145 41.492
C -3.865 -2.166 38.815
C 3.18 -2.146 43.118
C 1.553 -2.146 41.491
C -3.507 -2.798 51.412
C -6.74 -2.797 48.178
C 1.588 -2.166 38.823
C -4.381 -2.889 49.053
C 1.187 -2.798 51.411
C -6.74 -2.799 43.484
C 2.058 -2.889 49.052
C -4.381 -2.89 42.613
C 4.416 -2.797 48.177
C -3.563 -2.795 40.159
C 4.417 -2.799 43.485
C 1.26 -2.796 40.16
C 2.058 -2.89 42.614
C -2.518 -3.786 51.411
C -6.74 -3.786 47.189
C 0.198 -3.787 51.411
C -6.74 -3.788 44.473
C 4.416 -3.785 47.189
C -2.513 -3.845 40.158
C -3.881 -4.161 48.553
C -1.865 -4.156 50.176
C -5.504 -4.156 46.537
C -0.456 -4.156 50.176
C -5.504 -4.157 45.128
C 4.417 -3.788 44.473
C 0.211 -3.846 40.164
C 1.559 -4.161 48.553
C -3.881 -4.162 43.113
C 3.18 -4.154 46.536
C -1.865 -4.155 41.491
C 3.181 -4.155 45.127
C -1.881 -4.15 38.816
C -0.456 -4.156 41.491
C 1.559 -4.163 43.112
C -0.394 -4.15 38.815
C -2.61 -4.661 49.053
C -4.381 -4.661 47.281
C 0.288 -4.661 49.053
C -4.382 -4.662 44.384
C 2.058 -4.66 47.281
C -2.609 -4.661 42.613
C 2.059 -4.662 44.383
C 0.288 -4.662 42.612
C -1.865 -5.784 48.548
C -3.877 -5.784 46.537
C -0.456 -5.784 48.548
C -3.877 -5.784 45.128
C 1.555 -5.784 46.537
C -1.865 -5.785 43.116
C 1.555 -5.785 45.128
C -0.456 -5.785 43.116
C -2.518 -7.019 48.178
C -3.507 -7.019 47.19
C 0.198 -7.019 48.179
C -3.507 -7.02 44.474
C 1.187 -7.02 47.19
C -2.518 -7.02 43.485
C 1.187 -7.02 44.474
C 0.198 -7.021 43.485
C -1.825 5.403 34.474
C -3.77 5.403 32.53
C -0.384 5.403 34.475
C -3.77 5.402 31.09
C 1.56 5.403 32.531
C -1.826 5.402 29.145
C 1.56 5.402 31.09
C -0.385 5.402 29.145
C -2.462 4.181 34.156
C -3.451 4.181 33.168
C 0.253 4.181 34.157
C -3.452 4.18 30.452
C 1.241 4.181 33.168
C -2.463 4.18 29.464
C 1.241 4.18 30.453
C 0.252 4.18 29.464
C -1.81 2.944 34.524
C -3.82 2.945 32.515
C -0.401 2.944 34.524
C -3.82 2.945 31.107
C 1.609 2.945 32.515
C -1.81 2.944 29.097
C 1.609 2.944 31.107
C -0.402 2.944 29.097
C -2.554 1.822 35.03
C -4.326 1.823 33.26
C 0.343 1.823 35.031
C -4.327 1.823 30.363
C 2.113 1.822 33.26
C -2.555 1.821 28.593
C 2.113 1.821 30.363
C 0.342 1.821 28.593
C -3.827 1.322 34.531
C -1.81 1.319 36.154
C -5.449 1.32 32.516
C -0.401 1.319 36.154
C -5.45 1.319 31.107
C 1.614 1.323 34.532
C -3.827 1.323 29.092
C -2.481 1 37.474
C -6.685 0.951 33.169
C 3.235 1.318 32.516
C -1.81 1.317 27.47
C 3.235 1.317 31.107
C -0.402 1.317 27.47
C 0.24 0.999 37.483
C 1.614 1.322 29.092
C -6.685 0.95 30.453
C -1.826 1.27 25.012
C -0.385 1.269 25.012
C 4.472 0.951 33.169
C -2.463 0.95 26.234
C 4.471 0.949 30.453
C 0.252 0.95 26.234
C -4.327 0.052 35.031
C -3.529 -0.046 37.481
C -6.685 -0.037 34.158
C 1.287 -0.049 37.482
C -6.685 -0.039 29.464
C 2.114 0.051 35.031
C -4.327 0.051 28.592
C 4.472 -0.038 34.158
C -3.452 -0.038 26.234
C 2.113 0.05 28.592
C 4.471 -0.04 29.465
C 1.241 -0.039 26.234
C -3.821 -0.693 36.154
C -5.449 -0.693 34.526
C 1.61 -0.693 36.154
C -5.45 -0.693 29.095
C 3.236 -0.693 34.524
C -3.82 -0.692 27.469
C -3.77 -0.675 25.012
C 3.235 -0.694 29.097
C 1.608 -0.693 27.47
C 1.56 -0.676 25.012
C -3.821 -2.102 36.153
C -5.449 -2.101 34.525
C 1.61 -2.102 36.153
C -5.449 -2.102 29.094
C 3.235 -2.101 34.524
C -3.819 -2.101 27.47
C -3.769 -2.116 25.011
C 3.235 -2.102 29.096
C 1.608 -2.102 27.469
C -3.529 -2.771 37.473
C -6.685 -2.753 34.156
C 1.56 -2.117 25.011
C -4.326 -2.846 35.03
C 1.288 -2.769 37.474
C -6.685 -2.755 29.462
C 2.113 -2.846 35.029
C -4.326 -2.846 28.591
C 4.471 -2.753 34.155
C -3.451 -2.753 26.233
C 4.472 -2.755 29.463
C 1.241 -2.754 26.233
C 2.113 -2.846 28.592
C -2.482 -3.818 37.472
C -6.685 -3.742 33.167
C 0.241 -3.818 37.481
C -6.685 -3.744 30.451
C 4.471 -3.741 33.167
C -2.462 -3.742 26.233
C -3.826 -4.118 34.53
C -1.81 -4.113 36.153
C -5.449 -4.112 32.515
C -0.401 -4.113 36.153
C -5.449 -4.113 31.106
C 4.472 -3.744 30.451
C 0.253 -3.743 26.233
C 1.614 -4.118 34.53
C -3.826 -4.118 29.091
C 3.235 -4.11 32.514
C -1.81 -4.111 27.469
C 3.236 -4.111 31.105
C -1.825 -4.061 25.011
C -0.401 -4.112 27.469
C 1.614 -4.119 29.09
C -0.385 -4.061 25.011
C -2.555 -4.618 35.03
C -4.326 -4.617 33.259
C 0.343 -4.618 35.03
C -4.327 -4.618 30.362
C 2.113 -4.616 33.259
C -2.554 -4.617 28.591
C 2.114 -4.618 30.361
C 0.343 -4.618 28.59
C -1.81 -5.741 34.525
C -3.822 -5.74 32.515
C -0.401 -5.741 34.525
C -3.822 -5.74 31.106
C 1.61 -5.74 32.515
C -1.81 -5.741 29.094
C 1.61 -5.741 31.106
C -0.401 -5.741 29.094
C -2.463 -6.975 34.156
C -3.452 -6.975 33.168
C 0.253 -6.975 34.157
C -3.452 -6.976 30.452
C 1.242 -6.976 33.168
C -2.463 -6.976 29.463
C 1.242 -6.976 30.452
C 0.253 -6.977 29.463
C -1.898 19.188 48.727
C -3.843 19.188 46.783
C -0.457 19.188 48.728
C -3.843 19.187 45.343
C 1.487 19.188 46.784
C -1.899 19.187 43.398
C 1.487 19.187 45.343
C -0.458 19.187 43.398
C -2.535 17.966 48.409
C -3.524 17.966 47.421
C 0.18 17.966 48.41
C -3.525 17.965 44.705
C 1.168 17.966 47.421
C -2.536 17.965 43.717
C 1.168 17.965 44.706
C 0.179 17.965 43.717
C -1.883 16.73 48.778
C -3.893 16.73 46.768
C -0.474 16.73 48.778
C -3.893 16.73 45.36
C 1.536 16.73 46.768
C -1.883 16.729 43.35
C 1.536 16.729 45.36
C -0.475 16.729 43.35
C -2.627 15.608 49.284
C -4.399 15.608 47.513
C 0.27 15.609 49.285
C -4.4 15.608 44.616
C 2.04 15.607 47.513
C -2.628 15.606 42.846
C 2.04 15.606 44.616
C 0.269 15.606 42.846
C -3.9 15.108 48.785
C -1.883 15.105 50.408
C -5.522 15.105 46.769
C -0.474 15.105 50.408
C -5.523 15.104 45.36
C 1.541 15.109 48.786
C -3.9 15.108 43.345
C -2.536 14.736 51.643
C -6.758 14.736 47.422
C 3.162 15.103 46.769
C -1.883 15.102 41.723
C 3.162 15.102 45.36
C -0.475 15.102 41.723
C 0.18 14.736 51.643
C 1.541 15.107 43.345
C -6.758 14.735 44.706
C -1.899 15.134 39.053
C -0.413 15.132 39.053
C 4.399 14.736 47.422
C -2.532 14.808 40.39
C 4.398 14.734 44.706
C 0.191 14.806 40.397
C -4.4 13.838 49.285
C -3.525 13.747 51.643
C -6.758 13.748 48.411
C 1.168 13.747 51.643
C -6.758 13.746 43.717
C 2.041 13.837 49.285
C -4.4 13.836 42.845
C 4.399 13.747 48.411
C -3.582 13.759 40.394
C 2.04 13.835 42.845
C 4.398 13.745 43.718
C 1.24 13.757 40.397
C -3.894 13.093 50.408
C -5.522 13.093 48.78
C 1.537 13.093 50.408
C -5.523 13.092 43.348
C 3.163 13.093 48.778
C -3.893 13.093 41.722
C -3.884 13.151 39.045
C 3.162 13.091 43.35
C 1.535 13.092 41.723
C 1.569 13.15 39.054
C -3.894 11.684 50.407
C -5.522 11.685 48.779
C 1.537 11.684 50.407
C -5.522 11.683 43.347
C 3.162 11.685 48.778
C -3.892 11.684 41.723
C -3.884 11.663 39.046
C 3.162 11.683 43.349
C 1.535 11.683 41.722
C -3.525 11.031 51.643
C -6.758 11.032 48.409
C 1.57 11.663 39.053
C -4.399 10.94 49.284
C 1.169 11.031 51.642
C -6.758 11.03 43.715
C 2.04 10.94 49.283
C -4.399 10.939 42.844
C 4.398 11.032 48.408
C -3.582 11.034 40.389
C 4.399 11.03 43.716
C 1.241 11.033 40.39
C 2.04 10.939 42.845
C -2.536 10.043 51.642
C -6.758 10.043 47.42
C 0.18 10.042 51.642
C -6.758 10.041 44.704
C 4.398 10.044 47.42
C -2.532 9.983 40.388
C -3.899 9.668 48.784
C -1.883 9.673 50.407
C -5.522 9.673 46.768
C -0.474 9.673 50.407
C -5.522 9.672 45.359
C 4.399 10.041 44.704
C 0.192 9.983 40.395
C 1.541 9.668 48.784
C -3.899 9.667 43.344
C 3.162 9.675 46.767
C -1.883 9.674 41.722
C 3.163 9.674 45.358
C -1.899 9.679 39.046
C -0.474 9.673 41.722
C 1.541 9.666 43.343
C -0.412 9.679 39.046
C -2.628 9.168 49.284
C -4.399 9.168 47.512
C 0.27 9.168 49.284
C -4.4 9.167 44.615
C 2.04 9.169 47.512
C -2.627 9.168 42.844
C 2.041 9.167 44.614
C 0.27 9.167 42.843
C -1.883 8.045 48.779
C -3.895 8.045 46.768
C -0.474 8.045 48.779
C -3.895 8.045 45.359
C 1.537 8.045 46.768
C -1.883 8.044 43.347
C 1.537 8.044 45.359
C -0.474 8.044 43.347
C -2.536 6.81 48.409
C -3.525 6.81 47.421
C 0.18 6.81 48.41
C -3.525 6.809 44.705
C 1.169 6.809 47.421
C -2.536 6.809 43.716
C 1.169 6.809 44.705
C 0.18 6.808 43.716
C -1.844 19.231 34.704
C -3.789 19.231 32.76
C -0.403 19.231 34.705
C -3.789 19.23 31.32
C 1.541 19.231 32.761
C -1.845 19.23 29.375
C 1.541 19.23 31.32
C -0.404 19.23 29.375
C -2.481 18.009 34.386
C -3.47 18.009 33.398
C 0.234 18.009 34.387
C -3.471 18.008 30.682
C 1.222 18.009 33.398
C -2.482 18.008 29.694
C 1.222 18.008 30.683
C 0.233 18.008 29.694
C -1.828 16.773 34.755
C -3.839 16.773 32.745
C -0.419 16.773 34.755
C -3.839 16.773 31.337
C 1.59 16.773 32.745
C -1.829 16.772 29.327
C 1.59 16.772 31.337
C -0.421 16.772 29.327
C -2.572 15.651 35.261
C -4.345 15.651 33.49
C 0.325 15.652 35.262
C -4.346 15.651 30.593
C 2.094 15.65 33.49
C -2.574 15.649 28.823
C 2.094 15.649 30.593
C 0.323 15.649 28.823
C -3.845 15.151 34.762
C -1.828 15.148 36.385
C -5.468 15.148 32.746
C -0.419 15.148 36.385
C -5.469 15.147 31.337
C 1.596 15.152 34.763
C -3.846 15.151 29.322
C -2.5 14.829 37.704
C -6.704 14.779 33.399
C 3.216 15.146 32.746
C -1.829 15.145 27.7
C 3.216 15.145 31.337
C -0.421 15.145 27.7
C 0.221 14.828 37.713
C 1.595 15.15 29.322
C -6.704 14.778 30.683
C -1.845 15.098 25.242
C -0.404 15.097 25.242
C 4.453 14.779 33.399
C -2.482 14.778 26.464
C 4.452 14.777 30.683
C 0.233 14.778 26.464
C -4.345 13.881 35.262
C -3.548 13.782 37.711
C -6.704 13.791 34.388
C 1.268 13.78 37.713
C -6.704 13.789 29.694
C 2.096 13.88 35.262
C -4.346 13.879 28.822
C 4.453 13.79 34.388
C -3.471 13.79 26.464
C 2.094 13.878 28.822
C 4.452 13.788 29.695
C 1.222 13.789 26.464
C -3.839 13.136 36.385
C -5.467 13.136 34.757
C 1.592 13.136 36.385
C -5.469 13.135 29.325
C 3.218 13.136 34.755
C -3.839 13.136 27.699
C -3.789 13.153 25.242
C 3.216 13.134 29.327
C 1.589 13.135 27.7
C 1.541 13.152 25.242
C -3.839 11.727 36.384
C -5.467 11.728 34.756
C 1.592 11.727 36.384
C -5.468 11.726 29.324
C 3.217 11.728 34.755
C -3.838 11.727 27.7
C -3.788 11.712 25.241
C 3.216 11.726 29.326
C 1.589 11.726 27.699
C -3.548 11.058 37.704
C -6.704 11.075 34.386
C 1.541 11.711 25.241
C -4.344 10.983 35.261
C 1.269 11.059 37.705
C -6.704 11.073 29.692
C 2.095 10.983 35.26
C -4.345 10.982 28.821
C 4.452 11.075 34.385
C -3.47 11.075 26.463
C 4.453 11.073 29.693
C 1.222 11.074 26.463
C 2.094 10.982 28.822
C -2.501 10.011 37.703
C -6.704 10.086 33.397
C 0.223 10.011 37.712
C -6.704 10.084 30.681
C 4.452 10.087 33.397
C -2.481 10.086 26.463
C -3.844 9.711 34.761
C -1.828 9.716 36.384
C -5.468 9.716 32.745
C -0.419 9.716 36.384
C -5.468 9.715 31.336
C 4.453 10.084 30.681
C 0.234 10.085 26.463
C 1.596 9.711 34.761
C -3.845 9.71 29.321
C 3.216 9.718 32.744
C -1.829 9.717 27.699
C 3.217 9.717 31.335
C -1.844 9.767 25.241
C -0.42 9.716 27.699
C 1.595 9.709 29.32
C -0.404 9.767 25.241
C -2.573 9.211 35.261
C -4.345 9.211 33.489
C 0.325 9.211 35.261
C -4.346 9.21 30.592
C 2.094 9.212 33.489
C -2.573 9.211 28.821
C 2.095 9.21 30.591
C 0.324 9.21 28.82
C -1.828 8.088 34.756
C -3.841 8.088 32.745
C -0.419 8.088 34.756
C -3.841 8.088 31.336
C 1.591 8.088 32.745
C -1.829 8.087 29.324
C 1.591 8.087 31.336
C -0.42 8.087 29.324
C -2.482 6.853 34.386
C -3.471 6.853 33.398
C 0.234 6.853 34.387
C -3.471 6.852 30.682
C 1.223 6.852 33.398
C -2.482 6.852 29.693
C 1.223 6.852 30.682
C 0.234 6.851 29.693
C 9.86 -0.666 38.875
C 9.86 -2.154 38.875
C 11.9 5.414 34.533
C 9.955 5.414 32.589
C 13.341 5.414 34.534
C 9.955 5.413 31.149
C 15.285 5.414 32.59
C 11.899 5.413 29.204
C 15.285 5.413 31.149
C 13.34 5.413 29.204
C 11.263 4.192 34.215
C 10.274 4.192 33.227
C 13.978 4.192 34.216
C 10.273 4.191 30.511
C 14.966 4.192 33.227
C 11.262 4.191 29.523
C 14.966 4.191 30.512
C 13.977 4.191 29.523
C 11.915 2.956 34.584
C 9.905 2.956 32.574
C 13.324 2.956 34.584
C 9.905 2.956 31.166
C 15.334 2.956 32.574
C 11.915 2.955 29.156
C 15.334 2.955 31.166
C 13.323 2.955 29.156
C 11.171 1.834 35.09
C 9.399 1.834 33.319
C 14.068 1.835 35.091
C 9.398 1.834 30.422
C 15.838 1.833 33.319
C 11.17 1.832 28.652
C 15.838 1.832 30.422
C 14.067 1.832 28.652
C 9.898 1.334 34.591
C 11.915 1.331 36.214
C 8.276 1.331 32.575
C 13.324 1.331 36.214
C 8.275 1.33 31.166
C 15.339 1.335 34.592
C 9.898 1.334 29.151
C 11.244 1.012 37.534
C 7.04 0.962 33.228
C 16.96 1.329 32.575
C 11.915 1.328 27.529
C 16.96 1.328 31.166
C 13.323 1.328 27.529
C 13.964 1.011 37.543
C 15.339 1.333 29.151
C 7.04 0.961 30.512
C 19.418 1.28 32.59
C 11.899 1.281 25.071
C 19.418 1.279 31.149
C 13.34 1.28 25.071
C 18.197 0.962 33.228
C 11.262 0.961 26.293
C 18.196 0.96 30.512
C 13.977 0.961 26.293
C 9.398 0.064 35.091
C 10.196 -0.035 37.541
C 7.04 -0.026 34.217
C 15.012 -0.037 37.542
C 7.04 -0.028 29.523
C 15.839 0.063 35.091
C 9.398 0.062 28.651
C 18.197 -0.027 34.217
C 10.273 -0.027 26.293
C 15.838 0.061 28.651
C 18.196 -0.029 29.524
C 14.966 -0.028 26.293
C 9.904 -0.681 36.214
C 8.276 -0.681 34.586
C 15.335 -0.681 36.214
C 8.275 -0.682 29.154
C 16.961 -0.681 34.584
C 9.905 -0.681 27.528
C 19.418 -0.664 34.535
C 9.955 -0.664 25.071
C 16.96 -0.683 29.156
C 15.333 -0.682 27.529
C 19.418 -0.665 29.205
C 15.285 -0.665 25.071
C 9.904 -2.09 36.213
C 8.276 -2.089 34.585
C 15.335 -2.09 36.213
C 8.276 -2.091 29.153
C 16.96 -2.089 34.584
C 9.906 -2.09 27.529
C 19.418 -2.105 34.533
C 9.956 -2.105 25.07
C 16.96 -2.091 29.155
C 15.333 -2.091 27.528
C 10.196 -2.759 37.533
C 7.04 -2.742 34.215
C 19.418 -2.106 29.203
C 15.285 -2.106 25.07
C 9.399 -2.834 35.09
C 15.013 -2.758 37.534
C 7.04 -2.744 29.521
C 15.838 -2.834 35.089
C 9.399 -2.835 28.65
C 18.196 -2.742 34.214
C 10.274 -2.742 26.292
C 18.197 -2.744 29.522
C 14.966 -2.743 26.292
C 15.838 -2.835 28.651
C 11.242 -3.806 37.532
C 7.04 -3.731 33.226
C 13.966 -3.806 37.541
C 7.04 -3.733 30.51
C 18.196 -3.73 33.226
C 11.263 -3.731 26.292
C 9.899 -4.106 34.59
C 11.915 -4.101 36.213
C 8.276 -4.101 32.574
C 13.324 -4.101 36.213
C 8.276 -4.102 31.165
C 18.197 -3.733 30.51
C 13.978 -3.732 26.292
C 15.339 -4.106 34.59
C 9.899 -4.107 29.15
C 16.96 -4.099 32.573
C 11.915 -4.1 27.528
C 19.418 -4.049 32.589
C 16.961 -4.1 31.164
C 11.9 -4.05 25.07
C 13.324 -4.101 27.528
C 15.339 -4.108 29.149
C 19.419 -4.051 31.148
C 13.34 -4.05 25.07
C 11.17 -4.606 35.09
C 9.399 -4.606 33.318
C 14.068 -4.606 35.09
C 9.398 -4.607 30.421
C 15.838 -4.605 33.318
C 11.171 -4.606 28.65
C 15.839 -4.607 30.42
C 14.068 -4.607 28.649
C 11.915 -5.729 34.585
C 9.903 -5.729 32.574
C 13.324 -5.729 34.585
C 9.903 -5.729 31.165
C 15.335 -5.729 32.574
C 11.915 -5.73 29.153
C 15.335 -5.73 31.165
C 13.324 -5.73 29.153
C 11.262 -6.964 34.215
C 10.273 -6.964 33.227
C 13.978 -6.964 34.216
C 10.273 -6.965 30.511
C 14.967 -6.965 33.227
C 11.262 -6.965 29.522
C 14.967 -6.965 30.511
C 13.978 -6.966 29.522
C 5.693 1.269 32.531
C 5.693 1.268 31.09
C 5.693 -0.675 34.476
C 5.693 -0.676 29.146
C 5.693 -2.116 34.474
C 5.693 -2.117 29.144
C 5.693 -4.06 32.53
C 5.694 -4.062 31.089
C 11.825 15.145 39.113
C 9.841 13.163 39.105
C 9.841 11.675 39.105
C 11.881 19.243 34.764
C 9.936 19.243 32.82
C 13.322 19.243 34.765
C 9.936 19.242 31.38
C 15.266 19.243 32.821
C 11.88 19.242 29.435
C 15.266 19.242 31.38
C 13.321 19.242 29.435
C 11.244 18.021 34.446
C 10.255 18.021 33.458
C 13.959 18.021 34.447
C 10.254 18.02 30.742
C 14.947 18.021 33.458
C 11.243 18.02 29.754
C 14.947 18.02 30.743
C 13.958 18.02 29.754
C 11.896 16.785 34.814
C 9.886 16.785 32.805
C 13.305 16.785 34.814
C 9.886 16.785 31.397
C 15.315 16.785 32.805
C 11.896 16.784 29.387
C 15.315 16.784 31.397
C 13.304 16.784 29.387
C 11.152 15.663 35.32
C 9.38 15.663 33.55
C 14.049 15.664 35.321
C 9.379 15.663 30.653
C 15.819 15.662 33.55
C 11.151 15.661 28.883
C 15.819 15.661 30.653
C 14.048 15.661 28.883
C 9.879 15.163 34.821
C 11.896 15.16 36.444
C 8.257 15.16 32.806
C 13.305 15.16 36.444
C 8.256 15.159 31.397
C 15.32 15.164 34.822
C 9.879 15.163 29.382
C 11.225 14.841 37.764
C 7.021 14.791 33.459
C 16.941 15.158 32.806
C 11.896 15.157 27.76
C 16.941 15.157 31.397
C 13.304 15.157 27.76
C 13.946 14.84 37.773
C 15.32 15.162 29.382
C 7.021 14.79 30.743
C 19.399 15.109 32.821
C 11.88 15.11 25.302
C 19.399 15.108 31.38
C 13.321 15.109 25.302
C 18.178 14.791 33.459
C 11.243 14.79 26.524
C 18.177 14.789 30.743
C 13.958 14.79 26.524
C 9.379 13.893 35.321
C 10.177 13.794 37.771
C 7.021 13.803 34.448
C 14.993 13.792 37.772
C 7.021 13.801 29.754
C 15.82 13.892 35.321
C 9.379 13.891 28.882
C 18.178 13.802 34.448
C 10.254 13.802 26.524
C 15.819 13.89 28.882
C 18.177 13.8 29.755
C 14.947 13.801 26.524
C 9.885 13.148 36.444
C 8.257 13.148 34.816
C 15.316 13.148 36.444
C 8.256 13.147 29.385
C 16.942 13.148 34.814
C 9.886 13.148 27.759
C 19.399 13.165 34.766
C 9.936 13.165 25.302
C 16.941 13.146 29.387
C 15.314 13.147 27.76
C 19.399 13.164 29.436
C 15.266 13.164 25.302
C 9.885 11.739 36.443
C 8.257 11.74 34.815
C 15.316 11.739 36.443
C 8.257 11.738 29.384
C 16.941 11.74 34.814
C 9.887 11.739 27.76
C 19.399 11.724 34.764
C 9.937 11.724 25.301
C 16.941 11.738 29.386
C 15.314 11.738 27.759
C 10.177 11.07 37.763
C 7.021 11.087 34.446
C 19.399 11.723 29.434
C 15.266 11.723 25.301
C 9.38 10.995 35.32
C 14.994 11.071 37.764
C 7.021 11.085 29.752
C 15.819 10.995 35.319
C 9.38 10.994 28.881
C 18.177 11.087 34.445
C 10.255 11.087 26.523
C 18.178 11.085 29.753
C 14.947 11.086 26.523
C 15.819 10.994 28.882
C 11.224 10.023 37.762
C 7.021 10.098 33.457
C 13.948 10.023 37.771
C 7.021 10.096 30.741
C 18.177 10.099 33.457
C 11.244 10.098 26.523
C 9.88 9.723 34.82
C 11.896 9.728 36.443
C 8.257 9.728 32.805
C 13.305 9.728 36.443
C 8.257 9.727 31.396
C 18.178 10.096 30.741
C 13.959 10.097 26.523
C 15.32 9.723 34.82
C 9.88 9.722 29.381
C 16.941 9.73 32.804
C 11.896 9.729 27.759
C 19.399 9.78 32.82
C 16.942 9.729 31.395
C 11.881 9.779 25.301
C 13.305 9.728 27.759
C 15.32 9.721 29.38
C 19.4 9.778 31.379
C 13.321 9.779 25.301
C 11.151 9.223 35.32
C 9.38 9.223 33.549
C 14.049 9.223 35.32
C 9.379 9.222 30.652
C 15.819 9.224 33.549
C 11.152 9.223 28.881
C 15.82 9.222 30.651
C 14.049 9.222 28.88
C 11.896 8.1 34.815
C 9.884 8.1 32.805
C 13.305 8.1 34.815
C 9.884 8.1 31.396
C 15.316 8.1 32.805
C 11.896 8.099 29.384
C 15.316 8.099 31.396
C 13.305 8.099 29.384
C 11.243 6.865 34.446
C 10.254 6.865 33.458
C 13.959 6.865 34.447
C 10.254 6.864 30.742
C 14.948 6.864 33.458
C 11.243 6.864 29.753
C 14.948 6.864 30.742
C 13.959 6.863 29.753
C 5.674 15.097 32.761
C 5.674 15.096 31.32
C 5.674 13.153 34.706
C 5.674 13.152 29.376
C 5.674 11.712 34.704
C 5.674 11.711 29.374
C 5.674 9.768 32.76
C 5.675 9.766 31.319
C 11.845 5.371 48.556
C 9.9 5.371 46.612
C 13.286 5.371 48.557
C 9.9 5.37 45.172
C 15.23 5.371 46.613
C 11.844 5.37 43.227
C 15.23 5.37 45.172
C 13.285 5.37 43.227
C 11.208 4.149 48.238
C 10.219 4.149 47.25
C 13.923 4.149 48.239
C 10.218 4.148 44.534
C 14.911 4.149 47.25
C 11.207 4.148 43.546
C 14.911 4.148 44.535
C 13.922 4.148 43.546
C 11.86 2.913 48.607
C 9.85 2.913 46.597
C 13.269 2.913 48.607
C 9.85 2.913 45.189
C 15.279 2.913 46.597
C 11.86 2.912 43.179
C 15.279 2.912 45.189
C 13.268 2.912 43.179
C 11.116 1.791 49.113
C 9.344 1.791 47.342
C 14.013 1.792 49.114
C 9.343 1.791 44.445
C 15.783 1.79 47.342
C 11.115 1.789 42.675
C 15.783 1.789 44.445
C 14.012 1.789 42.675
C 9.843 1.291 48.614
C 11.86 1.288 50.237
C 8.221 1.288 46.598
C 13.269 1.288 50.237
C 8.22 1.287 45.189
C 15.284 1.292 48.615
C 9.843 1.291 43.174
C 11.207 0.919 51.472
C 6.985 0.919 47.251
C 16.905 1.286 46.598
C 11.86 1.285 41.552
C 16.905 1.285 45.189
C 13.268 1.285 41.552
C 13.923 0.919 51.472
C 15.284 1.29 43.174
C 6.985 0.918 44.535
C 19.363 1.237 46.613
C 11.844 1.316 38.882
C 19.363 1.236 45.172
C 13.331 1.315 38.882
C 18.142 0.919 47.251
C 11.211 0.99 40.219
C 18.141 0.917 44.535
C 13.935 0.988 40.226
C 9.343 0.021 49.114
C 10.218 -0.07 51.472
C 6.985 -0.069 48.24
C 14.911 -0.07 51.472
C 6.985 -0.071 43.546
C 15.784 0.02 49.114
C 9.343 0.019 42.674
C 18.142 -0.07 48.24
C 10.162 -0.059 40.223
C 15.783 0.018 42.674
C 18.141 -0.072 43.547
C 14.983 -0.06 40.226
C 9.849 -0.724 50.237
C 8.221 -0.724 48.609
C 15.28 -0.724 50.237
C 8.22 -0.725 43.177
C 16.906 -0.724 48.607
C 9.85 -0.724 41.551
C 19.363 -0.707 48.558
C 16.905 -0.726 43.179
C 15.278 -0.725 41.552
C 19.363 -0.708 43.228
C 15.312 -0.668 38.883
C 9.849 -2.133 50.236
C 8.221 -2.132 48.608
C 15.28 -2.133 50.236
C 8.221 -2.134 43.176
C 16.905 -2.132 48.607
C 9.851 -2.133 41.552
C 19.363 -2.148 48.556
C 16.905 -2.134 43.178
C 15.278 -2.134 41.551
C 10.218 -2.786 51.472
C 6.985 -2.785 48.238
C 19.363 -2.149 43.226
C 15.313 -2.154 38.883
C 9.344 -2.877 49.113
C 14.912 -2.786 51.471
C 6.985 -2.787 43.544
C 15.783 -2.877 49.112
C 9.344 -2.878 42.673
C 18.141 -2.785 48.237
C 10.162 -2.783 40.218
C 18.142 -2.787 43.545
C 14.984 -2.784 40.22
C 15.783 -2.878 42.674
C 11.207 -3.774 51.471
C 6.985 -3.774 47.249
C 13.923 -3.775 51.471
C 6.985 -3.776 44.533
C 18.141 -3.773 47.249
C 11.211 -3.834 40.217
C 9.844 -4.149 48.613
C 11.86 -4.144 50.236
C 8.221 -4.144 46.597
C 13.269 -4.144 50.236
C 8.221 -4.145 45.188
C 18.142 -3.776 44.533
C 13.936 -3.834 40.224
C 15.284 -4.149 48.613
C 9.844 -4.15 43.173
C 16.905 -4.142 46.596
C 11.86 -4.143 41.551
C 19.363 -4.092 46.612
C 16.906 -4.143 45.187
C 11.844 -4.139 38.875
C 13.269 -4.144 41.551
C 15.284 -4.151 43.172
C 19.364 -4.094 45.171
C 13.331 -4.138 38.875
C 11.115 -4.649 49.113
C 9.344 -4.649 47.341
C 14.013 -4.649 49.113
C 9.343 -4.65 44.444
C 15.783 -4.648 47.341
C 11.116 -4.649 42.673
C 15.784 -4.65 44.443
C 14.013 -4.65 42.672
C 11.86 -5.772 48.608
C 9.848 -5.772 46.597
C 13.269 -5.772 48.608
C 9.848 -5.772 45.188
C 15.28 -5.772 46.597
C 11.86 -5.773 43.176
C 15.28 -5.773 45.188
C 13.269 -5.773 43.176
C 11.207 -7.007 48.238
C 10.218 -7.007 47.25
C 13.923 -7.007 48.239
C 10.218 -7.008 44.534
C 14.912 -7.008 47.25
C 11.207 -7.008 43.545
C 14.912 -7.008 44.534
C 13.923 -7.009 43.545
C 5.638 1.225 46.553
C 5.638 1.224 45.112
C 5.638 -0.719 48.498
C 5.638 -0.72 43.168
C 5.638 -2.16 48.496
C 5.638 -2.161 43.166
C 5.638 -4.104 46.552
C 5.639 -4.106 45.111
C 11.826 19.2 48.786
C 9.881 19.2 46.842
C 13.267 19.2 48.787
C 9.881 19.199 45.402
C 15.211 19.2 46.843
C 11.825 19.199 43.457
C 15.211 19.199 45.402
C 13.266 19.199 43.457
C 11.189 17.978 48.468
C 10.2 17.978 47.48
C 13.904 17.978 48.469
C 10.199 17.977 44.764
C 14.892 17.978 47.48
C 11.188 17.977 43.776
C 14.892 17.977 44.765
C 13.903 17.977 43.776
C 11.841 16.742 48.837
C 9.831 16.742 46.827
C 13.25 16.742 48.837
C 9.831 16.742 45.419
C 15.26 16.742 46.827
C 11.841 16.741 43.409
C 15.26 16.741 45.419
C 13.249 16.741 43.409
C 11.097 15.62 49.343
C 9.325 15.62 47.572
C 13.994 15.621 49.344
C 9.324 15.62 44.675
C 15.764 15.619 47.572
C 11.096 15.618 42.905
C 15.764 15.618 44.675
C 13.993 15.618 42.905
C 9.824 15.12 48.844
C 11.841 15.117 50.467
C 8.202 15.117 46.828
C 13.25 15.117 50.467
C 8.201 15.116 45.419
C 15.265 15.121 48.845
C 9.824 15.12 43.404
C 11.188 14.748 51.702
C 6.966 14.748 47.481
C 16.886 15.115 46.828
C 11.841 15.114 41.782
C 16.886 15.114 45.419
C 13.249 15.114 41.782
C 13.904 14.748 51.702
C 15.265 15.119 43.404
C 6.966 14.747 44.765
C 19.344 15.066 46.843
C 19.344 15.065 45.402
C 13.312 15.144 39.112
C 18.123 14.748 47.481
C 11.193 14.819 40.45
C 18.122 14.746 44.765
C 13.916 14.817 40.457
C 9.324 13.85 49.344
C 10.199 13.759 51.702
C 6.966 13.76 48.47
C 14.892 13.759 51.702
C 6.966 13.758 43.776
C 15.765 13.849 49.344
C 9.324 13.848 42.904
C 18.123 13.759 48.47
C 10.143 13.77 40.454
C 15.764 13.847 42.904
C 18.122 13.757 43.777
C 14.965 13.769 40.456
C 9.83 13.105 50.467
C 8.202 13.105 48.839
C 15.261 13.105 50.467
C 8.201 13.104 43.407
C 16.887 13.105 48.837
C 9.831 13.105 41.781
C 19.344 13.122 48.788
C 16.886 13.103 43.409
C 15.259 13.104 41.782
C 19.344 13.121 43.458
C 15.294 13.161 39.113
C 9.83 11.696 50.466
C 8.202 11.697 48.838
C 15.261 11.696 50.466
C 8.202 11.695 43.406
C 16.886 11.697 48.837
C 9.832 11.696 41.782
C 19.344 11.681 48.786
C 16.886 11.695 43.408
C 15.259 11.695 41.781
C 10.199 11.043 51.702
C 6.966 11.044 48.468
C 19.344 11.68 43.456
C 15.295 11.675 39.113
C 9.325 10.952 49.343
C 14.893 11.043 51.701
C 6.966 11.042 43.774
C 15.764 10.952 49.342
C 9.325 10.951 42.903
C 18.122 11.044 48.467
C 10.143 11.045 40.449
C 18.123 11.042 43.775
C 14.966 11.045 40.45
C 15.764 10.951 42.904
C 11.188 10.055 51.701
C 6.966 10.055 47.479
C 13.904 10.054 51.701
C 6.966 10.053 44.763
C 18.122 10.056 47.479
C 11.193 9.995 40.448
C 9.825 9.68 48.843
C 11.841 9.685 50.466
C 8.202 9.685 46.827
C 13.25 9.685 50.466
C 8.202 9.684 45.418
C 18.123 10.053 44.763
C 13.917 9.995 40.454
C 15.265 9.68 48.843
C 9.825 9.679 43.403
C 16.886 9.687 46.826
C 11.841 9.686 41.781
C 19.344 9.737 46.842
C 16.887 9.686 45.417
C 11.825 9.69 39.106
C 13.25 9.685 41.781
C 15.265 9.678 43.402
C 19.345 9.735 45.401
C 13.313 9.691 39.105
C 11.096 9.18 49.343
C 9.325 9.18 47.571
C 13.994 9.18 49.343
C 9.324 9.179 44.674
C 15.764 9.181 47.571
C 11.097 9.18 42.903
C 15.765 9.179 44.673
C 13.994 9.179 42.902
C 11.841 8.057 48.838
C 9.829 8.057 46.827
C 13.25 8.057 48.838
C 9.829 8.057 45.418
C 15.261 8.057 46.827
C 11.841 8.056 43.406
C 15.261 8.056 45.418
C 13.25 8.056 43.406
C 11.188 6.822 48.468
C 10.199 6.822 47.48
C 13.904 6.822 48.469
C 10.199 6.821 44.764
C 14.893 6.821 47.48
C 11.188 6.821 43.775
C 14.893 6.821 44.764
C 13.904 6.82 43.775
C 5.62 15.054 46.784
C 5.62 15.053 45.343
C 5.62 13.11 48.729
C 5.62 13.109 43.399
C 5.62 11.669 48.727
C 5.62 11.668 43.397
C 5.62 9.725 46.783
C 5.621 9.723 45.342
