D:/LAMMPS projects/bi switch\switch3.data

 3037 atoms

 6 atom types

   -14          47      xlo xhi
   -13          33      ylo yhi
   -38          25      zlo zhi

 Masses

 3 12.0109997
 4 1.00796998
 5 12.0109997
 6 1.00796998
 1 12.0109997
 2 1.00796998

 Atoms #molecular

1   1   1   9.884000   19.404000  -4.496000
2   1   1   11.32000   19.331000  -5.125000
3   1   1   8.985000   18.28000  -5.11000
4   1   1   2.136000   14.613000  -5.128000
5   1   1   -0.205000   13.456000  -5.121000
6   1   1   4.43000   15.8000  -5.125000
7   1   1   6.704000   17.038000  -5.119000
8   1   1   3.008000   15.733000  -4.496000
9   1   1   0.703000   14.586000  -4.512000
10   1   1   5.28000   16.945000  -4.496000
11   1   1   7.553000   18.195000  -4.492000
12   1   1   0.551000   12.093000  -5.143000
13   1   1   11.111000   16.998000  -4.377000
14   1   1   12.119000   18.038000  -5.091000
15   1   1   9.722000   16.909000  -5.109000
16   1   1   2.856000   13.228000  -5.14000
17   1   1   5.161000   14.418000  -5.144000
18   1   1   7.439000   15.659000  -5.137000
19   1   1   4.301000   13.259000  -4.542000
20   1   1   1.986000   12.098000  -4.52000
21   1   1   6.598000   14.482000  -4.538000
22   1   1   8.867000   15.733000  -4.524000
23   1   1   -0.215000   13.467000  -6.685000
24   1   1   0.687000   14.606000  -7.289000
25   1   1   2.127000   14.628000  -6.687000
26   1   1   8.987000   18.291000  -6.68000
27   1   1   11.325000   19.337000  -6.648000
28   1   1   6.699000   17.054000  -6.685000
29   1   1   4.422000   15.818000  -6.688000
30   1   1   7.551000   18.221000  -7.295000
31   1   1   9.894000   19.413000  -7.286000
32   1   1   5.268000   16.978000  -7.297000
33   1   1   2.992000   15.765000  -7.302000
34   1   1   0.541000   12.104000  -6.693000
35   1   1   12.124000   18.044000  -6.684000
36   1   1   1.968000   12.12000  -7.336000
37   1   1   2.847000   13.242000  -6.709000
38   1   1   9.723000   16.921000  -6.693000
39   1   1   7.435000   15.675000  -6.699000
40   1   1   5.153000   14.435000  -6.708000
41   1   1   8.862000   15.762000  -7.311000
42   1   1   11.121000   16.997000  -7.398000
43   1   1   6.586000   14.515000  -7.324000
44   1   1   4.286000   13.29000  -7.326000
45   1   1   12.255000   20.515000  -5.081000
46   1   1   12.261000   20.523000  -6.673000
47   1   1   -0.358000   0.707000  -5.162000
48   1   1   0.425000   1.933000  -4.612000
49   1   1   0.434000   -0.625000  -5.17000
50   1   1   -0.358000   0.717000  -6.719000
51   1   1   0.427000   1.948000  -7.252000
52   1   1   0.435000   -0.614000  -6.723000
53   1   1   25.009000   17.283000  -7.331000
54   1   1   23.588000   17.194000  -6.678000
55   1   1   25.882000   16.122000  -6.768000
56   1   1   32.551000   12.322000  -6.834000
57   1   1   34.834000   11.122000  -6.871000
58   1   1   30.322000   13.558000  -6.812000
59   1   1   28.108000   14.84000  -6.798000
60   1   1   31.723000   13.469000  -7.453000
61   1   1   33.96000   12.273000  -7.467000
62   1   1   29.513000   14.726000  -7.433000
63   1   1   27.293000   16.02000  -7.41000
64   1   1   34.056000   9.773000  -6.854000
65   1   1   23.744000   14.927000  -7.551000
66   1   1   22.775000   15.913000  -6.745000
67   1   1   25.119000   14.764000  -6.804000
68   1   1   31.802000   10.952000  -6.821000
69   1   1   29.561000   12.192000  -6.794000
70   1   1   27.344000   13.474000  -6.788000
71   1   1   30.367000   11.016000  -7.408000
72   1   1   32.625000   9.806000  -7.46000
73   1   1   28.136000   12.285000  -7.396000
74   1   1   25.925000   13.576000  -7.401000
75   1   1   34.855000   11.123000  -5.311000
76   1   1   34.004000   12.284000  -4.694000
77   1   1   32.575000   12.33000  -5.277000
78   1   1   25.893000   16.101000  -5.198000
79   1   1   23.6000   17.154000  -5.158000
80   1   1   28.128000   14.842000  -5.232000
81   1   1   30.344000   13.567000  -5.249000
82   1   1   27.321000   16.012000  -4.599000
83   1   1   25.023000   17.206000  -4.536000
84   1   1   29.548000   14.741000  -4.626000
85   1   1   31.764000   13.484000  -4.644000
86   1   1   34.079000   9.774000  -5.304000
87   1   1   22.793000   15.869000  -5.155000
88   1   1   32.675000   9.818000  -4.633000
89   1   1   31.828000   10.959000  -5.251000
90   1   1   25.141000   14.744000  -5.22000
91   1   1   27.367000   13.478000  -5.226000
92   1   1   29.583000   12.201000  -5.23000
93   1   1   25.965000   13.574000  -4.605000
94   1   1   23.76000   14.766000  -4.542000
95   1   1   28.173000   12.303000  -4.601000
96   1   1   30.411000   11.037000  -4.615000
97   1   1   34.861000   -1.646000  -6.926000
98   1   1   34.092000   -0.402000  -7.471000
99   1   1   34.059000   -2.971000  -6.927000
100   1   1   34.86000   -1.653000  -5.365000
101   1   1   34.076000   -0.432000  -4.823000
102   1   1   34.055000   -2.973000  -5.374000
103   1   1   22.67000   18.377000  -6.676000
104   1   1   22.683000   18.346000  -5.085000
105   1   1   -6.914000   9.646000  -5.103000
106   1   1   -6.221000   8.352000  -4.564000
107   1   1   -4.668000   13.458000  -5.072000
108   1   1   -3.889000   14.688000  -4.504000
109   1   1   -6.126000   13.446000  -4.501000
110   1   1   -3.939000   12.165000  -4.557000
111   1   1   -4.708000   10.9000  -5.093000
112   1   1   -2.454000   12.15000  -5.104000
113   1   1   -1.747000   10.854000  -4.587000
114   1   1   -2.513000   9.592000  -5.12000
115   1   1   -3.988000   9.607000  -4.576000
116   1   1   -1.786000   8.3000  -4.6000
117   1   1   -2.54000   7.037000  -5.131000
118   1   1   -0.296000   8.271000  -5.129000
119   1   1   -6.874000   12.208000  -5.083000
120   1   1   -6.186000   10.913000  -4.545000
121   1   1   -2.454000   14.67000  -5.097000
122   1   1   -1.686000   13.414000  -4.559000
123   1   1   -4.746000   8.34000  -5.109000
124   1   1   -4.017000   7.05000  -4.59000
125   1   1   -0.277000   10.774000  -5.139000
126   1   1   0.467000   9.514000  -4.609000
127   1   1   -6.923000   9.655000  -6.656000
128   1   1   -6.236000   8.367000  -7.218000
129   1   1   -4.679000   13.468000  -6.668000
130   1   1   -3.957000   12.182000  -7.211000
131   1   1   -3.909000   14.707000  -7.231000
132   1   1   -2.465000   14.681000  -6.659000
133   1   1   -4.718000   10.91000  -6.68000
134   1   1   -2.464000   12.16000  -6.686000
135   1   1   -4.754000   8.349000  -6.692000
136   1   1   -1.764000   10.871000  -7.229000
137   1   1   -2.522000   9.601000  -6.697000
138   1   1   -1.799000   8.313000  -7.236000
139   1   1   -0.286000   10.783000  -6.698000
140   1   1   -2.547000   7.046000  -6.704000
141   1   1   -0.304000   8.278000  -6.72000
142   1   1   -6.145000   13.463000  -7.218000
143   1   1   -6.884000   12.217000  -6.643000
144   1   1   -6.203000   10.93000  -7.208000
145   1   1   -4.003000   9.623000  -7.222000
146   1   1   -1.705000   13.433000  -7.225000
147   1   1   -4.03000   7.065000  -7.23000
148   1   1   0.449000   9.527000  -7.248000
149   1   1   -6.244000   5.79000  -4.578000
150   1   1   -1.804000   5.755000  -4.608000
151   1   1   -2.551000   4.488000  -5.139000
152   1   1   -4.767000   5.781000  -5.12000
153   1   1   -4.03000   4.497000  -4.6000
154   1   1   -6.256000   5.805000  -7.23000
155   1   1   -4.774000   5.791000  -6.702000
156   1   1   -1.812000   5.769000  -7.241000
157   1   1   -2.556000   4.498000  -6.711000
158   1   1   -4.04000   4.512000  -7.239000
159   1   1   -6.944000   7.08000  -5.118000
160   1   1   -6.951000   7.089000  -6.67000
161   1   1   -6.251000   3.232000  -4.589000
162   1   1   -1.809000   3.208000  -4.615000
163   1   1   -2.561000   1.937000  -5.146000
164   1   1   -4.775000   3.226000  -5.131000
165   1   1   -4.036000   1.943000  -4.609000
166   1   1   -6.261000   3.247000  -7.242000
167   1   1   -4.78000   3.236000  -6.713000
168   1   1   -1.814000   3.224000  -7.247000
169   1   1   -2.565000   1.948000  -6.722000
170   1   1   -4.044000   1.96000  -7.251000
171   1   1   -6.958000   4.517000  -5.131000
172   1   1   -6.965000   4.525000  -6.682000
173   1   1   -6.252000   0.677000  -4.602000
174   1   1   -1.828000   0.652000  -4.623000
175   1   1   -2.563000   -0.62000  -5.161000
176   1   1   -4.777000   0.671000  -5.143000
177   1   1   -4.039000   -0.615000  -4.623000
178   1   1   -6.26000   0.694000  -7.255000
179   1   1   -4.781000   0.682000  -6.724000
180   1   1   -1.832000   0.671000  -7.259000
181   1   1   -2.566000   -0.608000  -6.733000
182   1   1   -4.046000   -0.596000  -7.262000
183   1   1   -6.961000   1.958000  -5.144000
184   1   1   -6.966000   1.968000  -6.695000
185   1   1   -6.255000   -1.876000  -4.616000
186   1   1   -1.833000   -1.905000  -4.637000
187   1   1   -2.571000   -3.184000  -5.174000
188   1   1   -4.78000   -1.889000  -5.157000
189   1   1   -4.046000   -3.179000  -4.635000
190   1   1   -6.262000   -1.858000  -7.271000
191   1   1   -4.784000   -1.877000  -6.74000
192   1   1   -1.838000   -1.885000  -7.275000
193   1   1   -2.575000   -3.171000  -6.754000
194   1   1   -4.054000   -3.159000  -7.284000
195   1   1   -0.363000   -1.957000  -5.179000
196   1   1   -0.365000   -1.945000  -6.737000
197   1   1   -6.961000   -0.594000  -5.158000
198   1   1   -6.966000   -0.584000  -6.709000
199   1   1   0.418000   -3.193000  -4.648000
200   1   1   0.414000   -3.172000  -7.289000
201   1   1   -6.278000   -4.428000  -4.628000
202   1   1   -1.826000   -4.474000  -4.655000
203   1   1   -4.793000   -4.452000  -5.169000
204   1   1   -6.285000   -4.408000  -7.296000
205   1   1   -4.797000   -4.44000  -6.764000
206   1   1   -1.832000   -4.452000  -7.297000
207   1   1   -0.315000   -4.47000  -5.181000
208   1   1   -0.319000   -4.456000  -6.777000
209   1   1   -6.971000   -3.141000  -5.173000
210   1   1   -6.976000   -3.13000  -6.727000
211   1   1   -0.31000   3.218000  -6.725000
212   1   1   -0.308000   3.209000  -5.134000
213   1   1   -0.314000   5.75000  -6.719000
214   1   1   -0.31000   5.744000  -5.132000
215   1   1   0.429000   7.01000  -7.241000
216   1   1   0.436000   7.0000  -4.611000
217   1   1   41.472000   7.266000  -6.936000
218   1   1   40.769000   5.981000  -7.481000
219   1   1   39.262000   11.092000  -6.935000
220   1   1   38.496000   12.334000  -7.494000
221   1   1   40.713000   11.076000  -7.512000
222   1   1   38.522000   9.807000  -7.46000
223   1   1   39.278000   8.533000  -6.934000
224   1   1   37.045000   9.795000  -6.908000
225   1   1   36.32000   8.51000  -7.434000
226   1   1   37.073000   7.238000  -6.911000
227   1   1   38.545000   7.248000  -7.458000
228   1   1   36.332000   5.954000  -7.437000
229   1   1   37.089000   4.682000  -6.914000
230   1   1   34.836000   5.937000  -6.91000
231   1   1   41.452000   9.827000  -6.939000
232   1   1   40.753000   8.542000  -7.486000
233   1   1   37.07000   12.32000  -6.894000
234   1   1   36.296000   11.07000  -7.439000
235   1   1   39.296000   5.973000  -6.933000
236   1   1   38.561000   4.691000  -7.458000
237   1   1   34.855000   8.441000  -6.877000
238   1   1   34.089000   7.194000  -7.42000
239   1   1   41.485000   7.261000  -5.381000
240   1   1   40.789000   5.975000  -4.824000
241   1   1   39.278000   11.088000  -5.336000
242   1   1   38.548000   9.801000  -4.802000
243   1   1   38.525000   12.329000  -4.76000
244   1   1   37.088000   12.318000  -5.333000
245   1   1   39.293000   8.528000  -5.345000
246   1   1   37.061000   9.792000  -5.327000
247   1   1   39.307000   5.969000  -5.349000
248   1   1   36.346000   8.505000  -4.793000
249   1   1   37.087000   7.234000  -5.334000
250   1   1   36.35000   5.95000  -4.803000
251   1   1   37.095000   4.68000  -5.34000
252   1   1   34.848000   5.94000  -5.315000
253   1   1   40.74000   11.069000  -4.786000
254   1   1   41.467000   9.823000  -5.376000
255   1   1   40.777000   8.536000  -4.818000
256   1   1   38.567000   7.243000  -4.811000
257   1   1   36.326000   11.066000  -4.777000
258   1   1   38.576000   4.686000  -4.815000
259   1   1   34.112000   7.193000  -4.78000
260   1   1   40.778000   3.419000  -7.477000
261   1   1   36.357000   3.403000  -7.439000
262   1   1   37.089000   2.131000  -6.914000
263   1   1   39.304000   3.414000  -6.932000
264   1   1   38.563000   2.135000  -7.456000
265   1   1   40.791000   3.412000  -4.825000
266   1   1   39.31000   3.41000  -5.351000
267   1   1   36.353000   3.405000  -4.809000
268   1   1   37.086000   2.127000  -5.344000
269   1   1   38.569000   2.13000  -4.819000
270   1   1   41.485000   4.701000  -6.933000
271   1   1   41.494000   4.696000  -5.38000
272   1   1   40.774000   0.858000  -7.475000
273   1   1   36.352000   0.86000  -7.446000
274   1   1   37.086000   -0.426000  -6.926000
275   1   1   39.299000   0.854000  -6.933000
276   1   1   38.556000   -0.424000  -7.462000
277   1   1   40.782000   0.852000  -4.822000
278   1   1   39.303000   0.851000  -5.351000
279   1   1   36.342000   0.848000  -4.816000
280   1   1   37.086000   -0.429000  -5.348000
281   1   1   38.561000   -0.428000  -4.819000
282   1   1   41.486000   2.136000  -6.929000
283   1   1   41.492000   2.132000  -5.377000
284   1   1   40.761000   -1.702000  -7.474000
285   1   1   36.338000   -1.704000  -7.458000
286   1   1   37.063000   -2.988000  -6.927000
287   1   1   39.286000   -1.707000  -6.934000
288   1   1   38.541000   -2.988000  -7.464000
289   1   1   40.766000   -1.706000  -4.818000
290   1   1   39.289000   -1.71000  -5.35000
291   1   1   36.338000   -1.708000  -4.821000
292   1   1   37.065000   -2.989000  -5.352000
293   1   1   38.544000   -2.99000  -4.818000
294   1   1   41.476000   -0.426000  -6.925000
295   1   1   41.479000   -0.429000  -5.374000
296   1   1   40.759000   -4.258000  -7.478000
297   1   1   36.324000   -4.265000  -7.462000
298   1   1   37.048000   -5.56000  -6.932000
299   1   1   39.274000   -4.273000  -6.939000
300   1   1   38.533000   -5.563000  -7.477000
301   1   1   40.762000   -4.262000  -4.808000
302   1   1   39.276000   -4.275000  -5.343000
303   1   1   36.324000   -4.264000  -4.815000
304   1   1   37.048000   -5.559000  -5.342000
305   1   1   38.534000   -5.564000  -4.801000
306   1   1   34.844000   -4.308000  -6.923000
307   1   1   34.842000   -4.306000  -5.361000
308   1   1   41.465000   -2.981000  -6.923000
309   1   1   41.467000   -2.984000  -5.368000
310   1   1   34.038000   -5.531000  -7.461000
311   1   1   34.036000   -5.524000  -4.816000
312   1   3   40.774000   -6.779000  -7.508000
313   1   3   36.238000   -6.797000  -7.485000
314   1   3   39.327000   -6.801000  -6.924000
315   1   3   40.773000   -6.783000  -4.776000
316   1   3   39.327000   -6.803000  -5.357000
317   1   3   36.235000   -6.794000  -4.783000
318   1   3   34.77000   -6.798000  -6.925000
319   1   3   34.767000   -6.794000  -5.344000
320   1   1   41.485000   -5.526000  -6.925000
321   1   1   41.485000   -5.529000  -5.36000
322   1   1   34.846000   0.801000  -5.362000
323   1   1   34.881000   0.814000  -6.905000
324   1   1   34.861000   3.453000  -5.351000
325   1   1   34.892000   3.451000  -6.889000
326   1   1   34.102000   4.68000  -4.796000
327   1   1   34.099000   4.664000  -7.433000
328   1   1   34.013000   2.129000  -5.241000
329   1   1   34.121000   2.136000  -6.832000
330   1   1   34.872000   8.439000  -5.32000
331   1   1   -2.572000   -5.755000  -5.192000
332   1   1   -4.063000   -5.752000  -4.643000
333   1   1   -2.576000   -5.742000  -6.777000
334   1   1   -4.07000   -5.731000  -7.315000
335   1   1   0.434000   -5.749000  -4.675000
336   1   1   0.428000   -5.726000  -7.309000
337   1   3   -6.32000   -6.946000  -4.618000
338   1   3   -1.78000   -7.002000  -4.649000
339   1   3   -4.873000   -6.978000  -5.204000
340   1   3   -6.328000   -6.925000  -7.344000
341   1   3   -4.877000   -6.965000  -6.768000
342   1   3   -1.787000   -6.98000  -7.346000
343   1   3   -0.317000   -7.002000  -5.214000
344   1   3   -0.32000   -6.988000  -6.789000
345   1   1   -7.019000   -5.681000  -5.188000
346   1   1   -7.024000   -5.669000  -6.75000
347   1   1   -6.958000   9.667000  -9.35000
348   1   1   -6.257000   8.375000  -8.799000
349   1   1   -4.698000   13.487000  -9.342000
350   1   1   -3.909000   14.721000  -8.796000
351   1   1   -6.159000   13.476000  -8.781000
352   1   1   -3.978000   12.19000  -8.802000
353   1   1   -4.745000   10.921000  -9.323000
354   1   1   -2.503000   12.163000  -9.344000
355   1   1   -1.813000   10.881000  -8.797000
356   1   1   -2.549000   9.614000  -9.347000
357   1   1   -4.021000   9.631000  -8.801000
358   1   1   -1.863000   8.324000  -8.808000
359   1   1   -2.585000   7.062000  -9.355000
360   1   1   -6.914000   12.236000  -9.357000
361   1   1   -6.224000   10.939000  -8.795000
362   1   1   -2.458000   14.694000  -9.386000
363   1   1   -1.756000   13.423000  -8.803000
364   1   1   -4.78000   8.362000  -9.328000
365   1   1   -4.051000   7.074000  -8.808000
366   1   1   -6.956000   9.668000  -10.908000
367   1   1   -6.252000   8.382000  -11.422000
368   1   1   -4.705000   13.487000  -10.932000
369   1   1   -3.99000   12.184000  -11.413000
370   1   1   -3.924000   14.717000  -11.505000
371   1   1   -2.468000   14.693000  -10.96000
372   1   1   -4.748000   10.921000  -10.897000
373   1   1   -2.504000   12.16000  -10.934000
374   1   1   -4.783000   8.366000  -10.902000
375   1   1   -1.838000   10.873000  -11.503000
376   1   1   -2.554000   9.614000  -10.933000
377   1   1   -1.883000   8.335000  -11.513000
378   1   1   -2.585000   7.07000  -10.942000
379   1   1   -6.162000   13.468000  -11.495000
380   1   1   -6.914000   12.233000  -10.923000
381   1   1   -6.219000   10.936000  -11.42000
382   1   1   -4.037000   9.635000  -11.409000
383   1   1   -1.778000   13.417000  -11.515000
384   1   1   -4.065000   7.085000  -11.418000
385   1   1   -6.276000   5.813000  -8.81000
386   1   1   -1.88000   5.781000  -8.813000
387   1   1   -2.592000   4.515000  -9.361000
388   1   1   -4.799000   5.805000  -9.337000
389   1   1   -4.06000   4.522000  -8.817000
390   1   1   -6.267000   5.824000  -11.433000
391   1   1   -4.799000   5.812000  -10.912000
392   1   1   -1.899000   5.798000  -11.52000
393   1   1   -2.589000   4.525000  -10.948000
394   1   1   -4.069000   4.536000  -11.427000
395   1   1   -6.984000   7.101000  -9.359000
396   1   1   -6.98000   7.106000  -10.917000
397   1   1   -6.277000   3.257000  -8.822000
398   1   1   -1.878000   3.237000  -8.819000
399   1   1   -2.581000   1.965000  -9.369000
400   1   1   -4.799000   3.252000  -9.348000
401   1   1   -4.055000   1.971000  -8.828000
402   1   1   -6.264000   3.271000  -11.445000
403   1   1   -4.797000   3.261000  -10.921000
404   1   1   -1.893000   3.256000  -11.523000
405   1   1   -2.58000   1.979000  -10.954000
406   1   1   -4.061000   1.988000  -11.435000
407   1   1   -6.993000   4.539000  -9.372000
408   1   1   -6.986000   4.545000  -10.93000
409   1   1   -6.274000   0.706000  -8.835000
410   1   1   -1.871000   0.679000  -8.825000
411   1   1   -2.587000   -0.585000  -9.379000
412   1   1   -4.796000   0.701000  -9.359000
413   1   1   -4.058000   -0.582000  -8.84000
414   1   1   -6.258000   0.725000  -11.459000
415   1   1   -4.792000   0.714000  -10.932000
416   1   1   -1.882000   0.709000  -11.525000
417   1   1   -2.58000   -0.569000  -10.965000
418   1   1   -4.059000   -0.558000  -11.449000
419   1   1   -6.991000   1.985000  -9.385000
420   1   1   -6.982000   1.994000  -10.943000
421   1   1   -6.276000   -1.843000  -8.852000
422   1   1   -1.878000   -1.866000  -8.842000
423   1   1   -2.593000   -3.143000  -9.404000
424   1   1   -4.799000   -1.852000  -9.377000
425   1   1   -4.065000   -3.143000  -8.864000
426   1   1   -6.262000   -1.813000  -11.477000
427   1   1   -4.796000   -1.833000  -10.95000
428   1   1   -1.889000   -1.842000  -11.54000
429   1   1   -2.594000   -3.121000  -10.989000
430   1   1   -4.071000   -3.105000  -11.474000
431   1   1   -6.989000   -0.561000  -9.399000
432   1   1   -6.98000   -0.546000  -10.957000
433   1   1   -6.3000   -4.394000  -8.885000
434   1   1   -1.898000   -4.441000  -8.878000
435   1   1   -4.813000   -4.413000  -9.41000
436   1   1   -6.288000   -4.348000  -11.512000
437   1   1   -4.813000   -4.385000  -10.989000
438   1   1   -1.914000   -4.39000  -11.579000
439   1   1   -7.0000   -3.103000  -9.423000
440   1   1   -6.994000   -3.08000  -10.98000
441   1   1   41.429000   7.266000  -11.193000
442   1   1   40.715000   5.98000  -11.687000
443   1   1   39.191000   11.091000  -11.202000
444   1   1   38.4000   12.318000  -11.77000
445   1   1   40.634000   11.062000  -11.795000
446   1   1   38.461000   9.788000  -11.662000
447   1   1   39.225000   8.525000  -11.153000
448   1   1   36.986000   9.773000  -11.154000
449   1   1   36.303000   8.485000  -11.703000
450   1   1   37.028000   7.227000  -11.144000
451   1   1   38.501000   7.239000  -11.646000
452   1   1   36.342000   5.946000  -11.706000
453   1   1   37.053000   4.681000  -11.145000
454   1   1   41.394000   9.829000  -11.228000
455   1   1   40.686000   8.532000  -11.702000
456   1   1   36.957000   12.305000  -11.192000
457   1   1   36.248000   11.029000  -11.722000
458   1   1   39.255000   5.972000  -11.144000
459   1   1   38.527000   4.69000  -11.643000
460   1   1   41.46000   7.271000  -9.635000
461   1   1   40.764000   5.985000  -9.063000
462   1   1   39.222000   11.098000  -9.612000
463   1   1   38.508000   9.807000  -9.051000
464   1   1   38.454000   12.34000  -9.059000
465   1   1   36.988000   12.315000  -9.619000
466   1   1   39.255000   8.532000  -9.579000
467   1   1   37.024000   9.784000  -9.565000
468   1   1   39.279000   5.974000  -9.57000
469   1   1   36.337000   8.51000  -9.001000
470   1   1   37.054000   7.236000  -9.559000
471   1   1   36.37000   5.953000  -9.006000
472   1   1   37.075000   4.68000  -9.56000
473   1   1   40.693000   11.083000  -9.077000
474   1   1   41.428000   9.838000  -9.661000
475   1   1   40.744000   8.547000  -9.076000
476   1   1   38.535000   7.248000  -9.037000
477   1   1   36.3000   11.049000  -9.015000
478   1   1   38.554000   4.691000  -9.035000
479   1   1   40.734000   3.424000  -11.681000
480   1   1   36.359000   3.407000  -11.706000
481   1   1   37.065000   2.137000  -11.147000
482   1   1   39.273000   3.419000  -11.141000
483   1   1   38.539000   2.142000  -11.643000
484   1   1   40.777000   3.423000  -9.058000
485   1   1   39.294000   3.417000  -9.568000
486   1   1   36.378000   3.398000  -9.005000
487   1   1   37.089000   2.134000  -9.561000
488   1   1   38.562000   2.137000  -9.034000
489   1   1   41.451000   4.708000  -11.183000
490   1   1   41.479000   4.708000  -9.625000
491   1   1   40.738000   0.87000  -11.678000
492   1   1   36.364000   0.867000  -11.712000
493   1   1   37.061000   -0.409000  -11.152000
494   1   1   39.276000   0.866000  -11.141000
495   1   1   38.538000   -0.408000  -11.644000
496   1   1   40.775000   0.863000  -9.055000
497   1   1   39.293000   0.861000  -9.568000
498   1   1   36.376000   0.868000  -9.012000
499   1   1   37.07000   -0.417000  -9.569000
500   1   1   38.551000   -0.419000  -9.039000
501   1   1   41.462000   2.148000  -11.178000
502   1   1   41.486000   2.145000  -9.62000
503   1   1   40.734000   -1.68000  -11.68000
504   1   1   36.363000   -1.679000  -11.718000
505   1   1   37.061000   -2.959000  -11.16000
506   1   1   39.271000   -1.687000  -11.144000
507   1   1   38.534000   -2.959000  -11.655000
508   1   1   40.765000   -1.695000  -9.056000
509   1   1   39.284000   -1.697000  -9.571000
510   1   1   36.367000   -1.705000  -9.022000
511   1   1   37.074000   -2.977000  -9.576000
512   1   1   38.546000   -2.982000  -9.043000
513   1   1   41.46000   -0.407000  -11.174000
514   1   1   41.481000   -0.415000  -9.616000
515   1   1   40.734000   -4.224000  -11.696000
516   1   1   36.357000   -4.22000  -11.733000
517   1   1   37.03000   -5.529000  -11.208000
518   1   1   39.262000   -4.244000  -11.165000
519   1   1   38.521000   -5.521000  -11.693000
520   1   1   40.764000   -4.253000  -9.069000
521   1   1   39.274000   -4.262000  -9.585000
522   1   1   36.357000   -4.254000  -9.036000
523   1   1   37.038000   -5.555000  -9.609000
524   1   1   38.531000   -5.561000  -9.071000
525   1   1   41.457000   -2.955000  -11.178000
526   1   1   41.473000   -2.969000  -9.621000
527   1   3   40.744000   -6.742000  -11.801000
528   1   3   36.245000   -6.722000  -11.877000
529   1   3   39.305000   -6.781000  -11.214000
530   1   3   40.774000   -6.776000  -9.077000
531   1   3   39.323000   -6.8000  -9.648000
532   1   3   36.28000   -6.809000  -9.041000
533   1   1   41.473000   -5.502000  -11.219000
534   1   1   41.489000   -5.519000  -9.65000
535   1   1   -2.599000   -5.728000  -9.455000
536   1   1   -4.084000   -5.722000  -8.909000
537   1   1   -2.601000   -5.695000  -11.056000
538   1   1   -4.094000   -5.666000  -11.532000
539   1   3   -6.341000   -6.914000  -8.911000
540   1   3   -1.844000   -6.988000  -8.901000
541   1   3   -4.895000   -6.95000  -9.491000
542   1   3   -6.334000   -6.861000  -11.635000
543   1   3   -4.891000   -6.92000  -11.058000
544   1   3   -1.847000   -6.9000  -11.739000
545   1   1   -7.045000   -5.645000  -9.47000
546   1   1   -7.041000   -5.617000  -11.038000
547   1   1   -6.89000   9.608000  -0.851000
548   1   1   -6.183000   8.317000  -0.36000
549   1   1   -4.631000   13.418000  -0.808000
550   1   1   -3.839000   14.637000  -0.228000
551   1   1   -6.079000   13.392000  -0.223000
552   1   1   -3.91000   12.109000  -0.356000
553   1   1   -4.679000   10.856000  -0.876000
554   1   1   -2.431000   12.091000  -0.857000
555   1   1   -1.757000   10.797000  -0.315000
556   1   1   -2.488000   9.549000  -0.886000
557   1   1   -3.963000   9.565000  -0.388000
558   1   1   -1.809000   8.263000  -0.33000
559   1   1   -2.527000   7.007000  -0.898000
560   1   1   -6.842000   12.168000  -0.802000
561   1   1   -6.142000   10.865000  -0.333000
562   1   1   -2.391000   14.62000  -0.796000
563   1   1   -1.693000   13.337000  -0.271000
564   1   1   -4.721000   8.306000  -0.899000
565   1   1   -4.001000   7.02000  -0.402000
566   1   1   -6.913000   9.626000  -2.408000
567   1   1   -6.223000   8.341000  -2.983000
568   1   1   -4.648000   13.44000  -2.398000
569   1   1   -3.937000   12.151000  -2.966000
570   1   1   -3.866000   14.681000  -2.938000
571   1   1   -2.406000   14.644000  -2.37000
572   1   1   -4.698000   10.877000  -2.45000
573   1   1   -2.455000   12.116000  -2.446000
574   1   1   -4.74000   8.321000  -2.472000
575   1   1   -1.774000   10.842000  -3.018000
576   1   1   -2.507000   9.571000  -2.471000
577   1   1   -1.832000   8.289000  -3.029000
578   1   1   -2.551000   7.021000  -2.483000
579   1   1   -6.116000   13.438000  -2.938000
580   1   1   -6.865000   12.192000  -2.368000
581   1   1   -6.185000   10.902000  -2.957000
582   1   1   -3.985000   9.594000  -2.997000
583   1   1   -1.714000   13.382000  -2.981000
584   1   1   -4.022000   7.039000  -3.012000
585   1   1   -6.209000   5.763000  -0.374000
586   1   1   -1.838000   5.728000  -0.339000
587   1   1   -2.544000   4.463000  -0.906000
588   1   1   -4.748000   5.754000  -0.911000
589   1   1   -4.018000   4.472000  -0.412000
590   1   1   -6.248000   5.78000  -2.997000
591   1   1   -4.766000   5.765000  -2.485000
592   1   1   -1.859000   5.746000  -3.037000
593   1   1   -2.566000   4.473000  -2.491000
594   1   1   -4.037000   4.486000  -3.022000
595   1   1   -6.922000   7.05000  -0.869000
596   1   1   -6.946000   7.062000  -2.428000
597   1   1   -6.218000   3.208000  -0.385000
598   1   1   -1.847000   3.186000  -0.346000
599   1   1   -2.545000   1.914000  -0.916000
600   1   1   -4.756000   3.202000  -0.921000
601   1   1   -4.021000   1.921000  -0.424000
602   1   1   -6.255000   3.222000  -3.008000
603   1   1   -4.774000   3.21000  -2.495000
604   1   1   -1.864000   3.199000  -3.045000
605   1   1   -2.562000   1.919000  -2.501000
606   1   1   -4.038000   1.933000  -3.032000
607   1   1   -6.939000   4.491000  -0.882000
608   1   1   -6.962000   4.5000  -2.44000
609   1   1   -6.219000   0.657000  -0.397000
610   1   1   -1.848000   0.634000  -0.361000
611   1   1   -2.55000   -0.639000  -0.93000
612   1   1   -4.758000   0.65000  -0.934000
613   1   1   -4.025000   -0.632000  -0.437000
614   1   1   -6.256000   0.668000  -3.021000
615   1   1   -4.775000   0.656000  -2.507000
616   1   1   -1.858000   0.638000  -3.059000
617   1   1   -2.569000   -0.634000  -2.515000
618   1   1   -4.042000   -0.623000  -3.046000
619   1   1   -6.943000   1.936000  -0.894000
620   1   1   -6.966000   1.943000  -2.452000
621   1   1   -6.227000   -1.89000  -0.409000
622   1   1   -1.857000   -1.923000  -0.374000
623   1   1   -2.564000   -3.196000  -0.939000
624   1   1   -4.765000   -1.903000  -0.946000
625   1   1   -4.038000   -3.186000  -0.445000
626   1   1   -6.26000   -1.884000  -3.034000
627   1   1   -4.779000   -1.901000  -2.52000
628   1   1   -1.864000   -1.908000  -3.071000
629   1   1   -2.574000   -3.195000  -2.523000
630   1   1   -4.049000   -3.186000  -3.055000
631   1   1   -6.946000   -0.612000  -0.907000
632   1   1   -6.967000   -0.607000  -2.466000
633   1   1   -6.253000   -4.431000  -0.411000
634   1   1   -1.88000   -4.477000  -0.373000
635   1   1   -4.782000   -4.461000  -0.944000
636   1   1   -6.283000   -4.437000  -3.038000
637   1   1   -4.792000   -4.465000  -2.524000
638   1   1   -1.883000   -4.486000  -3.073000
639   1   1   -6.961000   -3.152000  -0.918000
640   1   1   -6.979000   -3.153000  -2.476000
641   1   1   41.518000   7.252000  -2.683000
642   1   1   40.809000   5.97000  -3.242000
643   1   1   39.288000   11.083000  -2.659000
644   1   1   38.512000   12.328000  -3.194000
645   1   1   40.749000   11.068000  -3.221000
646   1   1   38.563000   9.796000  -3.212000
647   1   1   39.316000   8.518000  -2.7000
648   1   1   37.089000   9.772000  -2.671000
649   1   1   36.389000   8.502000  -3.227000
650   1   1   37.111000   7.226000  -2.686000
651   1   1   38.583000   7.238000  -3.232000
652   1   1   36.414000   5.948000  -3.233000
653   1   1   37.125000   4.675000  -2.692000
654   1   1   41.493000   9.82000  -2.654000
655   1   1   40.796000   8.532000  -3.229000
656   1   1   37.057000   12.302000  -2.607000
657   1   1   36.358000   11.039000  -3.203000
658   1   1   39.331000   5.961000  -2.713000
659   1   1   38.593000   4.682000  -3.238000
660   1   1   41.514000   7.242000  -1.125000
661   1   1   40.802000   5.958000  -0.619000
662   1   1   39.286000   11.071000  -1.069000
663   1   1   38.563000   9.768000  -0.6000
664   1   1   38.507000   12.296000  -0.483000
665   1   1   37.054000   12.286000  -1.035000
666   1   1   39.315000   8.506000  -1.125000
667   1   1   37.079000   9.756000  -1.082000
668   1   1   39.333000   5.954000  -1.139000
669   1   1   36.401000   8.47000  -0.525000
670   1   1   37.112000   7.214000  -1.101000
671   1   1   36.429000   5.937000  -0.53000
672   1   1   37.125000   4.672000  -1.106000
673   1   1   40.741000   11.039000  -0.504000
674   1   1   41.488000   9.805000  -1.088000
675   1   1   40.785000   8.509000  -0.603000
676   1   1   38.594000   7.222000  -0.623000
677   1   1   36.352000   11.01000  -0.497000
678   1   1   38.605000   4.676000  -0.63000
679   1   1   40.81000   3.408000  -3.244000
680   1   1   36.41000   3.402000  -3.238000
681   1   1   37.116000   2.127000  -2.698000
682   1   1   39.333000   3.405000  -2.717000
683   1   1   38.586000   2.129000  -3.242000
684   1   1   40.801000   3.404000  -0.621000
685   1   1   39.333000   3.403000  -1.143000
686   1   1   36.43000   3.401000  -0.536000
687   1   1   37.115000   2.129000  -1.112000
688   1   1   38.595000   2.129000  -0.633000
689   1   1   41.526000   4.688000  -2.69000
690   1   1   41.521000   4.683000  -1.132000
691   1   1   40.796000   0.85000  -3.242000
692   1   1   36.394000   0.855000  -3.245000
693   1   1   37.092000   -0.425000  -2.703000
694   1   1   39.318000   0.85000  -2.717000
695   1   1   38.568000   -0.426000  -3.242000
696   1   1   40.783000   0.852000  -0.62000
697   1   1   39.316000   0.852000  -1.144000
698   1   1   36.411000   0.862000  -0.545000
699   1   1   37.092000   -0.416000  -1.118000
700   1   1   38.573000   -0.418000  -0.636000
701   1   1   41.519000   2.126000  -2.689000
702   1   1   41.513000   2.124000  -1.131000
703   1   1   40.778000   -1.706000  -3.237000
704   1   1   36.376000   -1.707000  -3.253000
705   1   1   37.083000   -2.979000  -2.7000
706   1   1   39.3000   -1.705000  -2.714000
707   1   1   38.553000   -2.987000  -3.238000
708   1   1   40.761000   -1.694000  -0.613000
709   1   1   39.296000   -1.697000  -1.141000
710   1   1   36.388000   -1.681000  -0.553000
711   1   1   37.078000   -2.962000  -1.115000
712   1   1   38.553000   -2.965000  -0.626000
713   1   1   41.502000   -0.431000  -2.684000
714   1   1   41.493000   -0.427000  -1.126000
715   1   1   40.77000   -4.262000  -3.218000
716   1   1   36.361000   -4.254000  -3.239000
717   1   1   37.042000   -5.554000  -2.664000
718   1   1   39.281000   -4.268000  -2.697000
719   1   1   38.534000   -5.564000  -3.207000
720   1   1   40.75000   -4.234000  -0.59000
721   1   1   39.276000   -4.251000  -1.117000
722   1   1   36.372000   -4.22000  -0.536000
723   1   1   37.041000   -5.53000  -1.063000
724   1   1   38.534000   -5.525000  -0.584000
725   1   1   41.485000   -2.981000  -2.671000
726   1   1   41.476000   -2.97000  -1.114000
727   1   3   40.775000   -6.784000  -3.207000
728   1   3   36.277000   -6.804000  -3.226000
729   1   3   39.325000   -6.806000  -2.632000
730   1   3   40.753000   -6.751000  -0.481000
731   1   3   39.313000   -6.786000  -1.064000
732   1   3   36.261000   -6.722000  -0.384000
733   1   1   41.495000   -5.53000  -2.636000
734   1   1   41.483000   -5.514000  -1.067000
735   1   1   -2.57000   -5.774000  -0.913000
736   1   1   -4.06000   -5.752000  -0.427000
737   1   1   -2.579000   -5.783000  -2.514000
738   1   1   -4.067000   -5.767000  -3.05000
739   1   3   -6.297000   -6.949000  -0.327000
740   1   3   -1.812000   -6.994000  -0.257000
741   1   3   -4.859000   -6.999000  -0.915000
742   1   3   -6.324000   -6.958000  -3.051000
743   1   3   -4.874000   -7.004000  -2.482000
744   1   3   -1.829000   -7.036000  -3.094000
745   1   1   -7.008000   -5.694000  -0.898000
746   1   1   -7.024000   -5.698000  -2.467000
747   1   1   0.429000   4.475000  -4.608000
748   1   1   0.43000   4.486000  -7.238000
749   1   2   11.377000   15.956000  -4.274000
750   1   2   4.794000   12.304000  -4.727000
751   1   2   2.511000   11.166000  -4.687000
752   1   2   7.111000   13.537000  -4.715000
753   1   2   9.377000   14.786000  -4.697000
754   1   2   2.496000   11.186000  -7.191000
755   1   2   9.367000   14.808000  -7.168000
756   1   2   11.373000   15.947000  -7.437000
757   1   2   7.099000   13.565000  -7.179000
758   1   2   4.781000   12.332000  -7.172000
759   1   2   1.881000   12.256000  -8.412000
760   1   2   3.064000   15.623000  -8.379000
761   1   2   5.339000   16.847000  -8.376000
762   1   2   11.008000   17.273000  -8.445000
763   1   2   4.218000   13.419000  -8.405000
764   1   2   7.621000   18.095000  -8.374000
765   1   2   40.715000   10.969000  0.583000
766   1   2   8.784000   15.9000  -8.389000
767   1   2   6.512000   14.653000  -8.402000
768   1   2   9.958000   19.312000  -8.368000
769   1   2   0.788000   14.495000  -8.364000
770   1   2   3.094000   15.562000  -3.424000
771   1   2   4.249000   13.361000  -3.46000
772   1   2   5.362000   16.786000  -3.422000
773   1   2   9.939000   19.307000  -3.414000
774   1   2   7.039000   19.167000  -7.132000
775   1   2   0.228000   15.577000  -7.133000
776   1   2   9.435000   20.377000  -4.687000
777   1   2   4.762000   17.893000  -4.624000
778   1   2   7.629000   18.048000  -3.416000
779   1   2   1.913000   12.217000  -3.441000
780   1   2   2.494000   16.721000  -7.152000
781   1   2   0.244000   15.559000  -4.654000
782   1   2   4.753000   17.923000  -7.139000
783   1   2   8.79000   15.839000  -3.443000
784   1   2   10.972000   17.305000  -3.343000
785   1   2   9.445000   20.387000  -7.101000
786   1   2   6.534000   14.589000  -3.456000
787   1   2   0.814000   14.463000  -3.44000
788   1   2   7.038000   19.143000  -4.634000
789   1   2   2.51000   16.693000  -4.614000
790   1   2   11.723000   21.28000  -4.535000
791   1   2   11.736000   21.295000  -7.217000
792   1   2   -6.609000   14.32000  -0.425000
793   1   2   -1.852000   15.491000  -0.421000
794   1   2   -4.339000   15.579000  -0.442000
795   1   2   -7.864000   12.181000  -0.419000
796   1   2   -6.626000   14.342000  -2.607000
797   1   2   -1.866000   15.54000  -2.671000
798   1   2   -4.356000   15.595000  -2.606000
799   1   2   -7.912000   12.228000  -2.661000
800   1   2   -7.962000   9.644000  -2.7000
801   1   2   -7.91000   9.619000  -0.464000
802   1   2   -1.734000   13.314000  0.818000
803   1   2   -6.039000   13.313000  0.863000
804   1   2   -6.176000   8.308000  0.731000
805   1   2   -6.131000   10.84000  0.758000
806   1   2   -3.968000   9.554000  0.703000
807   1   2   -3.905000   12.075000  0.735000
808   1   2   -3.806000   14.571000  0.859000
809   1   2   -1.81000   10.783000  0.773000
810   1   2   -4.009000   7.014000  0.689000
811   1   2   -1.873000   8.257000  0.758000
812   1   2   -6.204000   5.757000  0.717000
813   1   2   -4.027000   4.467000  0.679000
814   1   2   -1.902000   5.724000  0.749000
815   1   2   -7.995000   7.073000  -2.718000
816   1   2   -7.942000   7.058000  -0.483000
817   1   2   -6.213000   3.203000  0.706000
818   1   2   -4.03000   1.915000  0.667000
819   1   2   -1.913000   3.182000  0.741000
820   1   2   -8.011000   4.504000  -2.731000
821   1   2   -7.959000   4.493000  -0.495000
822   1   2   -6.214000   0.652000  0.694000
823   1   2   16.268000   18.285000  -10.581000
824   1   2   16.238000   20.37000  -10.563000
825   1   2   16.308000   24.663000  -10.562000
826   1   2   16.258000   22.551000  -10.558000
827   1   2   16.085000   -1.056000  -10.628000
828   1   2   16.112000   1.14000  -10.617000
829   1   2   16.14000   3.037000  -10.325000
830   1   2   40.763000   -1.687000  0.478000
831   1   2   16.161000   9.879000  -10.636000
832   1   2   16.226000   11.896000  -10.661000
833   1   2   16.296000   16.121000  -10.612000
834   1   2   16.268000   14.053000  -10.633000
835   1   4   -4.429000   -7.943000  -2.793000
836   1   4   -2.173000   -7.957000  -0.602000
837   1   4   -4.391000   -7.91000  -0.548000
838   1   2   -4.067000   -5.744000  0.664000
839   1   2   38.572000   9.74000  0.491000
840   1   2   41.272000   11.963000  -0.721000
841   1   2   27.6000   11.353000  -7.216000
842   1   2   32.121000   8.896000  -4.761000
843   1   2   25.45000   12.625000  -4.75000
844   1   2   23.527000   13.728000  -4.734000
845   1   2   27.637000   11.366000  -4.744000
846   1   2   32.789000   9.96000  -3.559000
847   1   2   31.697000   13.339000  -3.567000
848   1   2   29.48000   14.607000  -3.547000
849   1   2   23.847000   14.896000  -3.463000
850   1   2   30.497000   11.171000  -3.537000
851   1   2   26.053000   13.708000  -3.528000
852   1   2   28.259000   12.442000  -3.524000
853   1   2   24.968000   17.06000  -3.459000
854   1   2   31.625000   13.312000  -8.526000
855   1   2   30.414000   11.123000  -8.49000
856   1   2   29.419000   14.575000  -8.507000
857   1   2   24.943000   17.237000  -8.417000
858   1   2   34.477000   13.244000  -4.868000
859   1   2   25.477000   18.238000  -7.104000
860   1   2   34.438000   13.236000  -7.321000
861   1   2   28.199000   12.395000  -8.477000
862   1   2   33.831000   12.163000  -8.538000
863   1   2   32.248000   14.413000  -7.323000
864   1   2   29.849000   10.076000  -7.218000
865   1   2   32.08000   8.887000  -7.284000
866   1   2   25.388000   12.644000  -7.224000
867   1   2   36.4000   10.992000  0.592000
868   1   2   23.215000   19.13000  -7.229000
869   1   2   23.235000   19.089000  -4.526000
870   1   2   38.628000   4.673000  0.461000
871   1   2   40.81000   5.955000  0.472000
872   1   2   36.469000   8.46000  0.562000
873   1   2   29.887000   10.093000  -4.76000
874   1   2   38.483000   12.234000  0.605000
875   1   2   27.262000   15.878000  -3.52000
876   1   2   33.913000   12.189000  -3.617000
877   1   2   27.847000   16.951000  -4.763000
878   1   2   30.055000   15.66000  -7.298000
879   1   2   27.197000   15.879000  -8.485000
880   1   2   36.451000   -1.677000  0.535000
881   1   2   32.686000   9.928000  -8.539000
882   1   2   32.286000   14.427000  -4.797000
883   1   2   30.084000   15.675000  -4.787000
884   1   2   26.0000   13.684000  -8.482000
885   1   2   23.91000   15.35000  -8.538000
886   1   2   25.479000   18.181000  -4.697000
887   1   2   27.832000   16.955000  -7.268000
888   1   2   42.5000   -2.97000  -0.737000
889   1   4   36.742000   -7.728000  -2.899000
890   1   2   38.615000   2.127000  0.457000
891   1   2   40.808000   3.404000  0.469000
892   1   2   -4.032000   -0.636000  0.654000
893   1   2   -1.908000   0.63000  0.727000
894   1   2   42.547000   4.682000  -0.758000
895   1   2   36.432000   -4.193000  0.552000
896   1   2   38.45000   9.763000  -12.752000
897   1   2   -8.015000   1.945000  -2.744000
898   1   2   -7.963000   1.935000  -0.507000
899   1   4   36.607000   -7.699000  -0.706000
900   1   4   38.831000   -7.687000  -0.688000
901   1   2   1.495000   9.447000  -4.937000
902   1   2   -6.645000   14.355000  -4.801000
903   1   2   -1.952000   15.582000  -4.785000
904   1   2   -4.391000   15.607000  -4.802000
905   1   2   -7.915000   12.231000  -4.765000
906   1   2   1.485000   9.46000  -6.943000
907   1   2   -6.66000   14.368000  -6.899000
908   1   2   -1.968000   15.597000  -6.965000
909   1   2   -4.407000   15.621000  -6.912000
910   1   2   -7.93000   12.245000  -6.947000
911   1   2   -7.97000   9.669000  -6.958000
912   1   2   -7.957000   9.658000  -4.788000
913   1   2   38.589000   -0.417000  0.455000
914   1   2   42.531000   -2.986000  -2.972000
915   1   2   -7.967000   -0.609000  -0.522000
916   1   2   -7.997000   7.098000  -6.973000
917   1   2   -7.987000   7.088000  -4.805000
918   1   2   -1.941000   -4.462000  0.715000
919   1   2   -8.026000   -3.141000  -2.771000
920   1   2   -8.01000   4.528000  -6.986000
921   1   2   -8.001000   4.518000  -4.818000
922   1   2   -8.011000   1.969000  -7.0000
923   1   2   -8.004000   1.957000  -4.831000
924   1   2   -8.011000   -0.579000  -7.014000
925   1   2   -8.004000   -0.593000  -4.845000
926   1   2   1.462000   -3.174000  -4.952000
927   1   2   1.458000   -3.158000  -6.986000
928   1   2   -8.021000   -3.114000  -7.031000
929   1   2   -8.014000   -3.13000  -4.861000
930   1   2   -7.983000   -3.14000  -0.537000
931   1   2   -6.221000   -1.893000  0.682000
932   1   2   42.517000   -0.434000  -0.749000
933   1   2   -6.247000   -4.418000  0.68000
934   1   2   42.548000   -0.438000  -2.985000
935   1   2   42.563000   7.26000  -2.989000
936   1   2   -4.044000   -3.185000  0.646000
937   1   2   41.269000   11.971000  -2.902000
938   1   2   36.516000   13.197000  -2.909000
939   1   2   39.01000   13.24000  -2.869000
940   1   2   42.537000   9.846000  -2.962000
941   1   2   36.522000   13.162000  -0.66000
942   1   2   39.007000   13.236000  -0.704000
943   1   2   42.514000   9.815000  -0.717000
944   1   2   42.539000   7.247000  -0.752000
945   1   2   33.06000   7.137000  -7.095000
946   1   2   41.239000   11.978000  -7.205000
947   1   2   36.578000   13.24000  -7.196000
948   1   2   39.006000   13.247000  -7.19000
949   1   2   42.492000   9.845000  -7.262000
950   1   2   33.078000   7.147000  -5.091000
951   1   2   41.261000   11.972000  -5.099000
952   1   2   36.605000   13.237000  -5.017000
953   1   2   39.031000   13.242000  -5.07000
954   1   2   42.513000   9.839000  -5.074000
955   1   2   42.532000   7.266000  -5.081000
956   1   2   42.513000   7.272000  -7.254000
957   1   2   40.788000   8.49000  0.488000
958   1   2   36.511000   5.933000  0.556000
959   1   2   38.614000   7.216000  0.468000
960   1   2   42.537000   2.118000  -0.755000
961   1   2   -1.916000   -1.925000  0.714000
962   1   2   42.541000   4.698000  -5.079000
963   1   2   42.527000   4.705000  -7.248000
964   1   2   42.538000   2.129000  -5.074000
965   1   2   42.529000   2.135000  -7.242000
966   1   2   42.524000   -0.433000  -5.068000
967   1   2   42.519000   -0.43000  -7.236000
968   1   2   36.513000   3.398000  0.551000
969   1   2   42.511000   -2.982000  -5.062000
970   1   2   42.509000   -2.979000  -7.233000
971   1   2   32.996000   -5.508000  -7.155000
972   1   2   32.993000   -5.503000  -5.122000
973   1   4   41.307000   -7.676000  -7.199000
974   1   4   41.305000   -7.68000  -5.087000
975   1   2   42.571000   4.688000  -2.993000
976   1   4   34.25000   -7.687000  -7.282000
977   1   4   34.245000   -7.68000  -4.982000
978   1   2   42.528000   -5.524000  -5.047000
979   1   2   42.528000   -5.52000  -7.238000
980   1   2   33.056000   4.674000  -5.09000
981   1   2   33.058000   4.644000  -7.121000
982   1   2   34.457000   2.136000  -4.268000
983   1   2   33.155000   2.144000  -7.335000
984   1   4   36.7000   -7.724000  -5.095000
985   1   4   38.857000   -7.73000  -5.046000
986   1   4   36.704000   -7.725000  -7.17000
987   1   4   38.859000   -7.729000  -7.236000
988   1   2   38.547000   -5.506000  0.506000
989   1   2   40.788000   0.854000  0.471000
990   1   2   40.749000   -4.21000  0.5000
991   1   2   36.487000   0.86000  0.542000
992   1   2   1.478000   -5.75000  -4.977000
993   1   2   1.473000   -5.732000  -7.012000
994   1   4   -6.864000   -7.835000  -4.935000
995   1   4   -6.87000   -7.819000  -7.038000
996   1   4   0.198000   -7.899000  -4.866000
997   1   4   0.193000   -7.878000  -7.155000
998   1   2   -8.068000   -5.649000  -7.06000
999   1   2   -8.061000   -5.665000  -4.871000
1000   1   4   -2.258000   -7.906000  -7.033000
1001   1   4   -4.42000   -7.896000  -7.089000
1002   1   4   -2.253000   -7.923000  -4.975000
1003   1   4   -4.413000   -7.913000  -4.901000
1004   1   2   42.565000   2.12000  -2.991000
1005   1   2   -6.673000   14.385000  -9.092000
1006   1   2   -1.914000   15.586000  -9.08000
1007   1   2   -4.405000   15.64000  -9.107000
1008   1   2   -7.957000   12.268000  -9.049000
1009   1   2   -6.69000   14.392000  -11.27000
1010   1   2   -1.935000   15.57000  -11.33000
1011   1   2   -4.421000   15.655000  -11.268000
1012   1   2   -7.941000   12.251000  -11.291000
1013   1   2   -7.982000   9.682000  -11.28000
1014   1   2   -8.003000   9.681000  -9.045000
1015   1   2   -4.003000   12.166000  -12.503000
1016   1   2   -1.837000   13.41000  -12.603000
1017   1   2   -4.088000   7.088000  -12.509000
1018   1   2   -6.261000   8.385000  -12.513000
1019   1   2   -1.913000   10.872000  -12.59000
1020   1   2   -3.908000   14.67000  -12.594000
1021   1   2   -6.225000   10.927000  -12.51000
1022   1   2   -1.969000   8.339000  -12.599000
1023   1   2   -4.059000   9.636000  -12.5000
1024   1   2   -4.09000   4.539000  -12.518000
1025   1   2   -6.275000   5.829000  -12.524000
1026   1   2   -1.984000   5.801000  -12.606000
1027   1   2   -8.005000   7.113000  -11.291000
1028   1   2   -8.03000   7.107000  -9.056000
1029   1   2   -4.078000   1.992000  -12.526000
1030   1   2   -6.27000   3.276000  -12.536000
1031   1   2   -1.971000   3.259000  -12.61000
1032   1   2   -8.011000   4.546000  -11.306000
1033   1   2   -8.039000   4.538000  -9.07000
1034   1   2   -4.073000   -0.549000  -12.539000
1035   1   2   -6.261000   0.732000  -12.55000
1036   1   2   -1.947000   0.715000  -12.612000
1037   1   2   -8.006000   1.994000  -11.32000
1038   1   2   -8.037000   1.983000  -9.084000
1039   1   2   -4.084000   -3.087000  -12.564000
1040   1   2   -6.264000   -1.802000  -12.568000
1041   1   2   -1.952000   -1.829000  -12.628000
1042   1   2   23.424000   13.935000  -7.84000
1043   1   2   -8.004000   -0.54000  -11.334000
1044   1   2   -8.035000   -0.56000  -9.098000
1045   1   2   -6.291000   -4.318000  -12.602000
1046   1   2   -1.982000   -4.357000  -12.666000
1047   1   2   -8.019000   -3.062000  -11.354000
1048   1   2   -8.045000   -3.095000  -9.119000
1049   1   2   -6.139000   13.409000  -12.583000
1050   1   2   41.167000   11.987000  -11.587000
1051   1   2   36.418000   13.181000  -11.553000
1052   1   2   38.903000   13.258000  -11.553000
1053   1   2   42.413000   9.842000  -11.618000
1054   1   2   41.205000   11.988000  -9.403000
1055   1   2   36.452000   13.209000  -9.305000
1056   1   2   38.945000   13.254000  -9.39000
1057   1   2   42.477000   9.867000  -9.374000
1058   1   2   42.51000   7.283000  -9.348000
1059   1   2   42.447000   7.276000  -11.584000
1060   1   2   36.278000   11.016000  -12.812000
1061   1   2   40.587000   10.995000  -12.881000
1062   1   2   40.705000   5.976000  -12.777000
1063   1   2   40.669000   8.514000  -12.793000
1064   1   2   38.503000   7.235000  -12.737000
1065   1   2   38.357000   12.261000  -12.857000
1066   1   2   36.351000   8.479000  -12.791000
1067   1   2   38.533000   4.689000  -12.734000
1068   1   2   36.405000   5.946000  -12.794000
1069   1   2   40.727000   3.423000  -12.772000
1070   1   2   38.546000   2.142000  -12.734000
1071   1   2   36.417000   3.409000  -12.794000
1072   1   2   42.529000   4.715000  -9.337000
1073   1   2   42.471000   4.715000  -11.572000
1074   1   2   40.733000   0.869000  -12.769000
1075   1   2   38.547000   -0.405000  -12.735000
1076   1   2   36.427000   0.87000  -12.8000
1077   1   2   42.535000   2.146000  -9.329000
1078   1   2   42.482000   2.15000  -11.564000
1079   1   2   40.731000   -1.677000  -12.77000
1080   1   2   38.54000   -2.949000  -12.746000
1081   1   2   36.427000   -1.673000  -12.806000
1082   1   2   42.529000   -0.417000  -9.323000
1083   1   2   42.482000   -0.407000  -11.558000
1084   1   2   40.73000   -4.203000  -12.787000
1085   1   2   38.529000   -5.504000  -12.783000
1086   1   2   36.412000   -4.195000  -12.821000
1087   1   2   42.52000   -2.968000  -9.324000
1088   1   2   42.479000   -2.951000  -11.559000
1089   1   4   41.288000   -7.66000  -11.588000
1090   1   4   41.306000   -7.67000  -9.4000
1091   1   4   38.864000   -7.74000  -2.934000
1092   1   4   40.701000   -6.672000  -12.888000
1093   1   4   36.356000   -6.692000  -12.959000
1094   1   2   42.536000   -5.521000  -9.348000
1095   1   2   42.496000   -5.488000  -11.597000
1096   1   4   36.751000   -7.731000  -9.365000
1097   1   4   38.866000   -7.736000  -9.344000
1098   1   4   36.591000   -7.698000  -11.554000
1099   1   4   38.823000   -7.682000  -11.588000
1100   1   2   -4.11000   -5.64000  -12.622000
1101   1   4   -6.886000   -7.799000  -9.236000
1102   1   4   -6.889000   -7.773000  -11.423000
1103   1   4   -6.3000   -6.784000  -12.721000
1104   1   4   -1.976000   -6.866000  -12.819000
1105   1   2   -8.067000   -5.585000  -11.409000
1106   1   2   -8.09000   -5.636000  -9.162000
1107   1   4   -2.207000   -7.87000  -11.413000
1108   1   4   -4.425000   -7.825000  -11.442000
1109   1   4   -2.324000   -7.905000  -9.223000
1110   1   4   -4.446000   -7.893000  -9.198000
1111   1   4   41.305000   -7.68000  -2.885000
1112   1   2   -8.016000   -0.603000  -2.758000
1113   1   4   41.294000   -7.671000  -0.693000
1114   1   4   -6.854000   -7.857000  -0.55000
1115   1   4   -6.867000   -7.849000  -2.737000
1116   1   4   -6.255000   -6.891000  0.76000
1117   1   4   -1.937000   -6.984000  0.824000
1118   1   4   40.713000   -6.679000  0.606000
1119   1   4   36.381000   -6.688000  0.697000
1120   1   2   -8.07000   -5.685000  -2.767000
1121   1   2   -8.031000   -5.669000  -0.52000
1122   1   4   -2.31000   -7.958000  -2.787000
1123   1   2   38.564000   -2.954000  0.465000
1124   1   2   42.507000   -5.502000  -0.691000
1125   1   2   42.54000   -5.535000  -2.939000
1126   1   2   -0.739000   13.369000  -9.17000
1127   1   2   -0.712000   13.408000  -11.292000
1128   1   2   -0.85000   0.646000  -9.186000
1129   1   2   0.514000   1.941000  -8.33000
1130   1   2   -0.815000   0.711000  -11.309000
1131   1   4   -0.776000   -6.856000  -11.553000
1132   1   2   -0.861000   8.307000  -9.206000
1133   1   2   -0.794000   10.896000  -9.165000
1134   1   2   0.529000   9.545000  -8.327000
1135   1   2   0.503000   -5.724000  -8.389000
1136   1   2   -0.857000   -1.828000  -9.202000
1137   1   2   -0.822000   -1.849000  -11.324000
1138   1   2   0.493000   -3.146000  -8.368000
1139   1   2   -0.77000   10.85000  -11.296000
1140   1   2   -0.812000   8.321000  -11.319000
1141   1   4   -0.844000   -7.047000  -9.314000
1142   1   2   -0.891000   -4.433000  -9.265000
1143   1   2   -0.845000   -4.393000  -11.374000
1144   1   2   -0.823000   3.261000  -11.321000
1145   1   2   -0.874000   3.241000  -9.212000
1146   1   2   -0.828000   5.795000  -11.324000
1147   1   2   -0.878000   5.773000  -9.211000
1148   1   2   0.512000   7.01000  -8.32000
1149   1   2   -0.791000   -1.927000  -0.593000
1150   1   2   -0.842000   -1.874000  -2.716000
1151   1   2   0.5000   -3.187000  -3.569000
1152   1   2   -0.743000   8.245000  -0.545000
1153   1   2   -0.694000   10.773000  -0.544000
1154   1   2   -0.812000   -4.477000  -0.584000
1155   1   2   -0.874000   -4.486000  -2.692000
1156   1   2   -0.859000   3.199000  -2.655000
1157   1   2   -0.779000   3.186000  -0.558000
1158   1   2   -0.855000   5.74000  -2.647000
1159   1   2   -0.771000   5.72000  -0.553000
1160   1   2   0.519000   6.997000  -3.532000
1161   1   2   -0.751000   10.852000  -2.666000
1162   1   2   -0.826000   8.274000  -2.644000
1163   1   2   0.568000   9.525000  -3.532000
1164   1   4   -0.742000   -6.947000  -0.448000
1165   1   4   -0.827000   -7.106000  -2.687000
1166   1   2   0.514000   -5.767000  -3.595000
1167   1   2   -0.632000   13.33000  -0.512000
1168   1   2   -0.692000   13.32000  -2.631000
1169   1   2   -0.781000   0.635000  -0.58000
1170   1   2   -0.836000   0.597000  -2.702000
1171   1   2   0.502000   1.915000  -3.533000
1172   1   2   35.338000   -4.199000  -2.886000
1173   1   2   35.306000   -4.204000  -0.753000
1174   1   2   33.96000   -5.508000  -3.737000
1175   1   2   35.412000   5.939000  -2.836000
1176   1   2   35.369000   8.524000  -2.863000
1177   1   2   34.028000   7.203000  -3.701000
1178   1   4   35.274000   -6.852000  -2.82000
1179   1   4   35.193000   -6.66000  -0.579000
1180   1   2   35.342000   0.873000  -0.748000
1181   1   2   35.383000   0.869000  -2.861000
1182   1   2   35.36000   3.406000  -0.734000
1183   1   2   35.403000   3.391000  -2.846000
1184   1   2   35.359000   5.93000  -0.728000
1185   1   2   34.032000   4.658000  -3.716000
1186   1   2   35.334000   8.454000  -0.738000
1187   1   2   35.34000   10.978000  -2.843000
1188   1   2   35.289000   11.007000  -0.729000
1189   1   2   35.354000   -1.735000  -2.894000
1190   1   2   33.994000   -0.43000  -3.744000
1191   1   2   35.321000   -1.672000  -0.77000
1192   1   2   35.275000   5.934000  -11.49000
1193   1   2   35.239000   8.466000  -11.471000
1194   1   2   35.291000   -4.204000  -11.513000
1195   1   2   35.333000   -4.202000  -9.385000
1196   1   2   33.962000   -5.523000  -8.54000
1197   1   2   35.362000   5.945000  -9.387000
1198   1   2   33.988000   7.214000  -8.497000
1199   1   2   35.189000   11.025000  -11.473000
1200   1   2   35.275000   10.992000  -9.356000
1201   1   2   35.296000   -1.675000  -11.502000
1202   1   2   35.345000   -1.74000  -9.378000
1203   1   2   34.024000   -0.393000  -8.55000
1204   1   2   35.298000   0.868000  -11.493000
1205   1   2   35.356000   3.356000  -9.358000
1206   1   2   35.294000   3.403000  -11.482000
1207   1   2   34.011000   4.647000  -8.51000
1208   1   2   35.311000   8.533000  -9.348000
1209   1   2   35.355000   0.917000  -9.367000
1210   1   4   35.178000   -6.657000  -11.674000
1211   1   4   35.277000   -6.866000  -9.446000
1212   1   2   12.718000   7.647000  -4.62000
1213   1   2   1.47000   1.92000  -4.909000
1214   1   2   12.73000   5.496000  -4.546000
1215   1   2   1.421000   -0.628000  -4.708000
1216   1   2   1.468000   1.934000  -6.939000
1217   1   2   1.426000   -0.611000  -7.177000
1218   1   2   33.037000   -0.43000  -5.141000
1219   1   2   33.064000   -2.964000  -4.922000
1220   1   2   33.047000   -0.393000  -7.172000
1221   1   2   33.074000   -2.963000  -7.392000
1222   1   2   1.481000   6.991000  -4.908000
1223   1   2   1.473000   7.004000  -6.941000
1224   1   2   0.523000   4.492000  -8.316000
1225   1   2   0.505000   4.474000  -3.529000
1226   1   2   1.471000   4.488000  -6.926000
1227   1   2   1.476000   4.476000  -4.897000
1228   2   1   18.678000   5.579000  -13.324000
1229   2   1   17.923000   6.077000  -12.126000
1230   2   1   18.064000   6.277000  -14.472000
1231   2   1   18.035000   5.897000  -22.232000
1232   2   1   17.996000   6.549000  -24.922000
1233   2   1   18.077000   5.912000  -19.567000
1234   2   1   18.094000   6.145000  -16.985000
1235   2   1   18.653000   5.239000  -20.927000
1236   2   1   18.566000   5.507000  -23.763000
1237   2   1   18.682000   5.384000  -18.244000
1238   2   1   18.688000   5.595000  -15.714000
1239   2   1   17.997000   7.952000  -24.29000
1240   2   1   18.818000   8.291000  -12.805000
1241   2   1   18.088000   7.456000  -11.599000
1242   2   1   18.198000   7.827000  -14.295000
1243   2   1   18.065000   7.429000  -21.996000
1244   2   1   18.115000   7.475000  -19.508000
1245   2   1   18.176000   7.709000  -16.956000
1246   2   1   18.732000   8.023000  -20.754000
1247   2   1   18.882000   8.001000  -23.091000
1248   2   1   18.796000   8.176000  -18.28000
1249   2   1   18.836000   8.373000  -15.64000
1250   2   1   16.434000   6.546000  -24.911000
1251   2   1   15.887000   5.516000  -23.731000
1252   2   1   16.469000   5.914000  -22.209000
1253   2   1   16.495000   6.391000  -14.465000
1254   2   1   16.397000   6.182000  -12.045000
1255   2   1   16.535000   6.222000  -16.977000
1256   2   1   16.507000   5.957000  -19.547000
1257   2   1   15.856000   5.757000  -15.715000
1258   2   1   15.675000   5.851000  -13.323000
1259   2   1   15.886000   5.489000  -18.217000
1260   2   1   15.867000   5.292000  -20.882000
1261   2   1   16.435000   7.948000  -24.275000
1262   2   1   16.53000   7.626000  -11.587000
1263   2   1   15.605000   8.0000  -23.037000
1264   2   1   16.48000   7.446000  -21.972000
1265   2   1   16.622000   7.945000  -14.308000
1266   2   1   16.611000   7.786000  -16.951000
1267   2   1   16.562000   7.521000  -19.489000
1268   2   1   16.056000   8.546000  -15.65000
1269   2   1   16.081000   8.548000  -12.859000
1270   2   1   15.988000   8.287000  -18.254000
1271   2   1   15.901000   8.079000  -20.709000
1272   2   1   17.915000   5.056000  -11.115000
1273   2   1   16.349000   5.051000  -11.091000
1274   2   1   17.919000   19.304000  -24.115000
1275   2   1   18.46000   18.008000  -23.428000
1276   2   1   17.907000   20.606000  -23.239000
1277   2   1   16.361000   19.294000  -24.121000
1278   2   1   15.827000   17.993000  -23.439000
1279   2   1   16.352000   20.596000  -23.246000
1280   2   1   17.99000   10.82000  -31.395000
1281   2   1   18.532000   12.06000  -30.603000
1282   2   1   18.019000   6.821000  -29.445000
1283   2   1   18.583000   5.534000  -28.747000
1284   2   1   18.582000   6.953000  -30.906000
1285   2   1   18.541000   8.057000  -28.632000
1286   2   1   18.005000   9.388000  -29.301000
1287   2   1   18.003000   7.956000  -27.151000
1288   2   1   18.529000   9.236000  -26.414000
1289   2   1   17.986000   10.554000  -27.049000
1290   2   1   18.528000   10.635000  -28.499000
1291   2   1   18.505000   11.794000  -26.212000
1292   2   1   17.969000   13.109000  -26.835000
1293   2   1   17.968000   11.745000  -24.743000
1294   2   1   18.004000   8.25000  -31.554000
1295   2   1   18.546000   9.492000  -30.774000
1296   2   1   18.004000   5.436000  -27.289000
1297   2   1   18.555000   6.628000  -26.435000
1298   2   1   17.991000   11.961000  -29.136000
1299   2   1   18.511000   13.193000  -28.3000
1300   2   1   17.967000   9.276000  -25.005000
1301   2   1   18.488000   10.461000  -24.135000
1302   2   1   16.437000   10.811000  -31.401000
1303   2   1   15.877000   12.045000  -30.614000
1304   2   1   16.428000   6.813000  -29.449000
1305   2   1   15.888000   8.042000  -28.64000
1306   2   1   15.871000   5.521000  -28.753000
1307   2   1   16.44000   5.428000  -27.29000
1308   2   1   16.417000   9.379000  -29.306000
1309   2   1   16.415000   7.947000  -27.153000
1310   2   1   16.406000   11.952000  -29.142000
1311   2   1   15.872000   9.22000  -26.419000
1312   2   1   16.406000   10.544000  -27.054000
1313   2   1   15.867000   11.779000  -26.223000
1314   2   1   16.429000   9.267000  -25.003000
1315   2   1   16.395000   13.1000  -26.842000
1316   2   1   16.392000   11.737000  -24.75000
1317   2   1   15.876000   6.938000  -30.914000
1318   2   1   16.447000   8.241000  -31.56000
1319   2   1   15.887000   9.478000  -30.784000
1320   2   1   15.876000   10.62000  -28.508000
1321   2   1   15.872000   6.614000  -26.434000
1322   2   1   15.866000   13.178000  -28.312000
1323   2   1   15.886000   10.449000  -24.141000
1324   2   1   18.519000   14.614000  -30.401000
1325   2   1   18.49000   14.327000  -25.978000
1326   2   1   17.956000   15.648000  -26.607000
1327   2   1   17.977000   14.515000  -28.931000
1328   2   1   18.497000   15.737000  -28.082000
1329   2   1   15.864000   14.599000  -30.413000
1330   2   1   16.394000   14.506000  -28.938000
1331   2   1   15.856000   14.312000  -25.99000
1332   2   1   16.383000   15.638000  -26.615000
1333   2   1   15.854000   15.722000  -28.095000
1334   2   1   17.977000   13.388000  -31.21000
1335   2   1   16.425000   13.379000  -31.217000
1336   2   1   18.506000   17.151000  -30.19000
1337   2   1   18.475000   16.871000  -25.758000
1338   2   1   17.944000   18.197000  -26.406000
1339   2   1   17.963000   17.056000  -28.718000
1340   2   1   18.484000   18.279000  -27.878000
1341   2   1   15.85000   17.135000  -30.202000
1342   2   1   16.381000   17.046000  -28.726000
1343   2   1   15.844000   16.856000  -25.77000
1344   2   1   16.368000   18.187000  -26.413000
1345   2   1   15.84000   18.263000  -27.89000
1346   2   1   17.964000   15.936000  -31.004000
1347   2   1   16.412000   15.927000  -31.011000
1348   2   1   18.492000   19.675000  -29.995000
1349   2   1   18.463000   19.437000  -25.579000
1350   2   1   17.927000   20.76000  -26.225000
1351   2   1   17.949000   19.593000  -28.524000
1352   2   1   18.467000   20.827000  -27.697000
1353   2   1   15.835000   19.658000  -30.007000
1354   2   1   16.366000   19.583000  -28.531000
1355   2   1   15.828000   19.421000  -25.591000
1356   2   1   16.355000   20.749000  -26.232000
1357   2   1   15.826000   20.809000  -27.709000
1358   2   1   17.95000   18.462000  -30.801000
1359   2   1   16.398000   18.453000  -30.809000
1360   2   1   18.478000   22.187000  -29.832000
1361   2   1   18.448000   22.014000  -25.418000
1362   2   1   17.915000   23.337000  -26.082000
1363   2   1   17.934000   22.132000  -28.36000
1364   2   1   18.456000   23.379000  -27.555000
1365   2   1   15.817000   22.168000  -29.844000
1366   2   1   16.35000   22.121000  -28.367000
1367   2   1   15.812000   21.995000  -25.428000
1368   2   1   16.334000   23.325000  -26.088000
1369   2   1   15.804000   23.359000  -27.566000
1370   2   1   17.903000   22.002000  -23.948000
1371   2   1   16.346000   21.992000  -23.955000
1372   2   1   17.935000   20.97000  -30.623000
1373   2   1   16.383000   20.96000  -30.63000
1374   2   1   18.428000   23.233000  -23.109000
1375   2   1   15.801000   23.213000  -23.119000
1376   2   1   18.466000   24.686000  -29.731000
1377   2   1   18.432000   24.612000  -25.28000
1378   2   1   17.921000   24.669000  -28.244000
1379   2   1   15.794000   24.666000  -29.742000
1380   2   1   16.327000   24.656000  -28.25000
1381   2   1   15.793000   24.591000  -25.289000
1382   2   1   17.904000   24.57000  -23.777000
1383   2   1   16.311000   24.557000  -23.783000
1384   2   1   17.919000   23.459000  -30.49000
1385   2   1   16.365000   23.448000  -30.497000
1386   2   1   16.358000   16.765000  -24.268000
1387   2   1   17.948000   16.774000  -24.261000
1388   2   1   16.373000   14.231000  -24.495000
1389   2   1   17.959000   14.239000  -24.487000
1390   2   1   15.856000   12.912000  -23.881000
1391   2   1   18.483000   12.925000  -23.869000
1392   2   1   17.899000   25.928000  -25.969000
1393   2   1   18.449000   25.937000  -27.458000
1394   2   1   16.313000   25.913000  -25.975000
1395   2   1   15.774000   25.914000  -27.467000
1396   2   1   18.403000   25.865000  -22.995000
1397   2   1   15.79000   25.841000  -23.001000
1398   2   3   18.473000   27.123000  -29.686000
1399   2   3   18.437000   27.187000  -25.151000
1400   2   3   17.887000   27.155000  -28.239000
1401   2   3   15.748000   27.099000  -29.695000
1402   2   3   16.323000   27.141000  -28.244000
1403   2   3   15.748000   27.16000  -25.158000
1404   2   3   17.875000   27.191000  -23.689000
1405   2   3   16.301000   27.174000  -23.692000
1406   2   1   17.902000   25.927000  -30.444000
1407   2   1   16.345000   25.915000  -30.45000
1408   2   1   13.745000   10.802000  -31.426000
1409   2   1   14.295000   12.036000  -30.626000
1410   2   1   13.76000   6.804000  -29.477000
1411   2   1   14.308000   5.51000  -28.779000
1412   2   1   14.316000   6.933000  -30.932000
1413   2   1   14.299000   8.039000  -28.656000
1414   2   1   13.776000   9.371000  -29.322000
1415   2   1   13.76000   7.947000  -27.179000
1416   2   1   14.309000   9.19000  -26.414000
1417   2   1   13.754000   10.511000  -27.038000
1418   2   1   14.297000   10.607000  -28.507000
1419   2   1   14.295000   11.754000  -26.262000
1420   2   1   13.743000   13.066000  -26.862000
1421   2   1   13.742000   8.233000  -31.588000
1422   2   1   14.302000   9.473000  -30.799000
1423   2   1   13.713000   5.417000  -27.335000
1424   2   1   14.294000   6.624000  -26.514000
1425   2   1   13.768000   11.933000  -29.153000
1426   2   1   14.288000   13.164000  -28.323000
1427   2   1   12.187000   10.801000  -31.419000
1428   2   1   11.672000   12.025000  -30.61000
1429   2   1   12.172000   6.807000  -29.492000
1430   2   1   11.691000   8.048000  -28.671000
1431   2   1   11.602000   5.515000  -28.822000
1432   2   1   12.139000   5.42000  -27.363000
1433   2   1   12.203000   9.372000  -29.322000
1434   2   1   12.169000   7.951000  -27.187000
1435   2   1   12.194000   11.925000  -29.146000
1436   2   1   11.607000   9.182000  -26.417000
1437   2   1   12.17000   10.5000  -27.031000
1438   2   1   11.595000   11.72000  -26.251000
1439   2   1   12.158000   13.046000  -26.848000
1440   2   1   11.608000   6.948000  -30.944000
1441   2   1   12.177000   8.241000  -31.59000
1442   2   1   11.679000   9.476000  -30.79000
1443   2   1   11.69000   10.597000  -28.507000
1444   2   1   11.581000   6.636000  -26.575000
1445   2   1   11.677000   13.144000  -28.322000
1446   2   1   14.282000   14.589000  -30.428000
1447   2   1   14.284000   14.292000  -26.052000
1448   2   1   13.733000   15.611000  -26.647000
1449   2   1   13.756000   14.486000  -28.955000
1450   2   1   14.276000   15.708000  -28.111000
1451   2   1   11.657000   14.571000  -30.411000
1452   2   1   12.182000   14.473000  -28.948000
1453   2   1   11.583000   14.26000  -26.054000
1454   2   1   12.147000   15.59000  -26.638000
1455   2   1   11.665000   15.687000  -28.114000
1456   2   1   13.732000   13.364000  -31.24000
1457   2   1   12.174000   13.356000  -31.229000
1458   2   1   14.269000   17.124000  -30.218000
1459   2   1   14.272000   16.838000  -25.834000
1460   2   1   13.721000   18.162000  -26.432000
1461   2   1   13.743000   17.027000  -28.744000
1462   2   1   14.262000   18.25000  -27.902000
1463   2   1   11.642000   17.104000  -30.202000
1464   2   1   12.169000   17.013000  -28.739000
1465   2   1   11.572000   16.807000  -25.842000
1466   2   1   12.135000   18.14000  -26.428000
1467   2   1   11.653000   18.227000  -27.905000
1468   2   1   13.718000   15.91000  -31.036000
1469   2   1   12.16000   15.898000  -31.025000
1470   2   1   14.255000   19.645000  -30.022000
1471   2   1   14.262000   19.407000  -25.631000
1472   2   1   13.709000   20.719000  -26.253000
1473   2   1   13.728000   19.561000  -28.547000
1474   2   1   14.248000   20.793000  -27.721000
1475   2   1   11.626000   19.621000  -30.005000
1476   2   1   12.155000   19.545000  -28.542000
1477   2   1   11.565000   19.366000  -25.641000
1478   2   1   12.123000   20.697000  -26.245000
1479   2   1   11.637000   20.765000  -27.721000
1480   2   1   13.704000   18.434000  -30.833000
1481   2   1   12.145000   18.42000  -30.823000
1482   2   1   14.237000   22.153000  -29.858000
1483   2   1   14.246000   21.969000  -25.466000
1484   2   1   13.684000   23.291000  -26.103000
1485   2   1   13.709000   22.094000  -28.383000
1486   2   1   14.223000   23.342000  -27.575000
1487   2   1   11.605000   22.122000  -29.843000
1488   2   1   12.135000   22.074000  -28.379000
1489   2   1   11.549000   21.939000  -25.476000
1490   2   1   12.098000   23.266000  -26.102000
1491   2   1   11.612000   23.304000  -27.58000
1492   2   1   13.687000   20.937000  -30.654000
1493   2   1   12.129000   20.92000  -30.645000
1494   2   1   14.205000   24.651000  -29.755000
1495   2   1   14.212000   24.575000  -25.35000
1496   2   1   13.678000   24.629000  -28.264000
1497   2   1   11.574000   24.607000  -29.743000
1498   2   1   12.098000   24.602000  -28.264000
1499   2   1   11.513000   24.523000  -25.36000
1500   2   1   13.664000   23.422000  -30.521000
1501   2   1   12.107000   23.399000  -30.514000
1502   2   1   13.637000   25.898000  -25.994000
1503   2   1   14.183000   25.905000  -27.48000
1504   2   1   12.035000   25.866000  -25.994000
1505   2   1   11.557000   25.852000  -27.488000
1506   2   3   14.182000   27.087000  -29.708000
1507   2   3   14.194000   27.17000  -25.214000
1508   2   3   13.603000   27.127000  -28.261000
1509   2   3   11.46000   27.038000  -29.701000
1510   2   3   12.036000   27.099000  -28.258000
1511   2   3   11.364000   27.095000  -25.217000
1512   2   1   13.618000   25.891000  -30.471000
1513   2   1   12.056000   25.865000  -30.466000
1514   2   1   22.24000   10.855000  -31.375000
1515   2   1   22.737000   12.083000  -30.56000
1516   2   1   22.276000   6.859000  -29.452000
1517   2   1   22.853000   5.571000  -28.778000
1518   2   1   22.851000   7.005000  -30.898000
1519   2   1   22.739000   8.104000  -28.626000
1520   2   1   22.22000   9.424000  -29.28000
1521   2   1   22.248000   8.001000  -27.147000
1522   2   1   22.791000   9.237000  -26.37000
1523   2   1   22.222000   10.551000  -26.988000
1524   2   1   22.713000   10.654000  -28.459000
1525   2   1   22.777000   11.778000  -26.201000
1526   2   1   22.207000   13.1000  -26.802000
1527   2   1   22.275000   8.294000  -31.548000
1528   2   1   22.755000   9.533000  -30.743000
1529   2   1   22.304000   5.47000  -27.324000
1530   2   1   22.842000   6.691000  -26.53000
1531   2   1   22.203000   11.978000  -29.102000
1532   2   1   22.7000   13.203000  -28.271000
1533   2   1   20.683000   10.84000  -31.396000
1534   2   1   20.114000   12.068000  -30.601000
1535   2   1   20.688000   6.84000  -29.451000
1536   2   1   20.131000   8.069000  -28.636000
1537   2   1   20.147000   5.539000  -28.761000
1538   2   1   20.731000   5.452000  -27.313000
1539   2   1   20.646000   9.407000  -29.295000
1540   2   1   20.659000   7.983000  -27.156000
1541   2   1   20.629000   11.971000  -29.123000
1542   2   1   20.091000   9.221000  -26.395000
1543   2   1   20.638000   10.547000  -27.011000
1544   2   1   20.078000   11.785000  -26.238000
1545   2   1   20.622000   13.104000  -26.832000
1546   2   1   20.143000   6.964000  -30.911000
1547   2   1   20.711000   8.27000  -31.56000
1548   2   1   20.133000   9.504000  -30.776000
1549   2   1   20.107000   10.638000  -28.484000
1550   2   1   20.132000   6.654000  -26.5000
1551   2   1   20.09000   13.196000  -28.298000
1552   2   1   22.725000   14.632000  -30.359000
1553   2   1   22.763000   14.321000  -26.002000
1554   2   1   22.192000   15.647000  -26.592000
1555   2   1   22.189000   14.528000  -28.902000
1556   2   1   22.685000   15.749000  -28.062000
1557   2   1   20.101000   14.622000  -30.401000
1558   2   1   20.615000   14.524000  -28.923000
1559   2   1   20.062000   14.324000  -26.026000
1560   2   1   20.606000   15.65000  -26.616000
1561   2   1   20.075000   15.742000  -28.085000
1562   2   1   22.228000   13.411000  -31.183000
1563   2   1   20.67000   13.403000  -31.208000
1564   2   1   22.713000   17.169000  -30.15000
1565   2   1   22.747000   16.872000  -25.791000
1566   2   1   22.175000   18.202000  -26.382000
1567   2   1   22.174000   17.071000  -28.692000
1568   2   1   22.669000   18.294000  -27.854000
1569   2   1   20.087000   17.159000  -30.191000
1570   2   1   20.601000   17.067000  -28.712000
1571   2   1   20.047000   16.872000  -25.808000
1572   2   1   20.59000   18.204000  -26.4000
1573   2   1   20.061000   18.286000  -27.875000
1574   2   1   22.216000   15.955000  -30.978000
1575   2   1   20.658000   15.95000  -31.003000
1576   2   1   22.701000   19.691000  -29.954000
1577   2   1   22.726000   19.439000  -25.591000
1578   2   1   22.159000   20.766000  -26.201000
1579   2   1   22.16000   19.609000  -28.496000
1580   2   1   22.655000   20.839000  -27.673000
1581   2   1   20.073000   19.683000  -29.995000
1582   2   1   20.586000   19.605000  -28.516000
1583   2   1   20.029000   19.444000  -25.605000
1584   2   1   20.573000   20.767000  -26.223000
1585   2   1   20.046000   20.833000  -27.696000
1586   2   1   22.203000   18.481000  -30.776000
1587   2   1   20.644000   18.476000  -30.801000
1588   2   1   22.69000   22.199000  -29.795000
1589   2   1   22.71000   22.02000  -25.429000
1590   2   1   22.15000   23.344000  -26.061000
1591   2   1   22.148000   22.144000  -28.335000
1592   2   1   22.648000   23.387000  -27.534000
1593   2   1   20.059000   22.195000  -29.833000
1594   2   1   20.574000   22.143000  -28.353000
1595   2   1   20.015000   22.012000  -25.443000
1596   2   1   20.565000   23.344000  -26.075000
1597   2   1   20.037000   23.387000  -27.552000
1598   2   1   22.189000   20.987000  -30.599000
1599   2   1   20.631000   20.984000  -30.623000
1600   2   1   22.686000   24.693000  -29.698000
1601   2   1   22.712000   24.615000  -25.317000
1602   2   1   22.149000   24.681000  -28.223000
1603   2   1   20.056000   24.697000  -29.733000
1604   2   1   20.57000   24.684000  -28.237000
1605   2   1   20.014000   24.623000  -25.329000
1606   2   1   22.177000   23.472000  -30.471000
1607   2   1   20.62000   23.473000  -30.491000
1608   2   1   22.176000   25.954000  -25.957000
1609   2   1   22.665000   25.945000  -27.447000
1610   2   1   20.573000   25.958000  -25.97000
1611   2   1   20.041000   25.955000  -27.46000
1612   2   3   22.764000   27.138000  -29.659000
1613   2   3   22.819000   27.204000  -25.18000
1614   2   3   22.175000   27.189000  -28.222000
1615   2   3   20.04000   27.139000  -29.689000
1616   2   3   20.608000   27.189000  -28.239000
1617   2   3   19.99000   27.226000  -25.199000
1618   2   1   22.192000   25.948000  -30.424000
1619   2   1   20.63000   25.948000  -30.443000
1620   2   1   18.471000   15.446000  -23.633000
1621   2   1   15.842000   15.432000  -23.644000
1622   2   1   16.657000   3.812000  1.651000
1623   2   1   17.263000   4.178000  0.354000
1624   2   1   17.378000   4.601000  2.678000
1625   2   1   17.524000   4.386000  10.411000
1626   2   1   17.557000   5.034000  13.104000
1627   2   1   17.49000   4.398000  7.75000
1628   2   1   17.46000   4.596000  5.179000
1629   2   1   16.91000   3.728000  9.11000
1630   2   1   16.989000   3.994000  11.944000
1631   2   1   16.881000   3.859000  6.448000
1632   2   1   16.822000   3.997000  3.968000
1633   2   1   17.556000   6.436000  12.471000
1634   2   1   16.502000   6.518000  0.983000
1635   2   1   17.038000   5.535000  -0.217000
1636   2   1   17.228000   6.138000  2.444000
1637   2   1   17.493000   5.917000  10.171000
1638   2   1   17.449000   5.96000  7.676000
1639   2   1   17.368000   6.154000  5.111000
1640   2   1   16.829000   6.51000  8.924000
1641   2   1   16.674000   6.487000  11.269000
1642   2   1   16.767000   6.649000  6.44000
1643   2   1   16.677000   6.775000  3.793000
1644   2   1   19.119000   5.031000  13.093000
1645   2   1   19.667000   4.003000  11.91000
1646   2   1   19.089000   4.403000  10.384000
1647   2   1   18.943000   4.7000  2.565000
1648   2   1   18.777000   4.269000  0.129000
1649   2   1   19.016000   4.666000  5.117000
1650   2   1   19.058000   4.443000  7.712000
1651   2   1   19.665000   4.17000  3.83000
1652   2   1   19.654000   4.085000  1.36000
1653   2   1   19.677000   3.964000  6.375000
1654   2   1   19.693000   3.781000  9.056000
1655   2   1   19.117000   6.432000  12.456000
1656   2   1   18.588000   5.688000  -0.374000
1657   2   1   19.947000   6.488000  11.215000
1658   2   1   19.078000   5.936000  10.142000
1659   2   1   18.801000   6.246000  2.357000
1660   2   1   18.933000   6.231000  5.058000
1661   2   1   19.002000   6.008000  7.64000
1662   2   1   19.436000   6.929000  3.676000
1663   2   1   19.208000   6.721000  0.812000
1664   2   1   19.566000   6.759000  6.37000
1665   2   1   19.657000   6.567000  8.869000
1666   2   1   17.127000   3.079000  -0.593000
1667   2   1   18.685000   3.066000  -0.776000
1668   2   1   17.632000   17.787000  12.303000
1669   2   1   17.091000   16.491000  11.616000
1670   2   1   17.644000   19.089000  11.428000
1671   2   1   19.19000   17.777000  12.31000
1672   2   1   19.723000   16.476000  11.628000
1673   2   1   19.199000   19.079000  11.434000
1674   2   1   17.561000   9.303000  19.583000
1675   2   1   17.019000   10.542000  18.791000
1676   2   1   17.531000   5.304000  17.632000
1677   2   1   16.968000   4.017000  16.934000
1678   2   1   16.968000   5.436000  19.093000
1679   2   1   17.01000   6.539000  16.819000
1680   2   1   17.546000   7.871000  17.488000
1681   2   1   17.548000   6.439000  15.337000
1682   2   1   17.022000   7.718000  14.601000
1683   2   1   17.565000   9.036000  15.236000
1684   2   1   17.023000   9.118000  16.686000
1685   2   1   17.045000   10.277000  14.4000
1686   2   1   17.581000   11.592000  15.023000
1687   2   1   17.583000   10.228000  12.931000
1688   2   1   17.547000   6.733000  19.742000
1689   2   1   17.004000   7.975000  18.962000
1690   2   1   17.547000   3.919000  15.475000
1691   2   1   16.996000   5.111000  14.621000
1692   2   1   17.56000   10.444000  17.324000
1693   2   1   17.04000   11.676000  16.489000
1694   2   1   17.584000   7.759000  13.191000
1695   2   1   17.063000   8.945000  12.322000
1696   2   1   19.114000   9.294000  19.589000
1697   2   1   19.674000   10.528000  18.802000
1698   2   1   19.123000   5.296000  17.637000
1699   2   1   19.663000   6.525000  16.827000
1700   2   1   19.68000   4.004000  16.94000
1701   2   1   19.111000   3.912000  15.476000
1702   2   1   19.134000   7.862000  17.494000
1703   2   1   19.136000   6.43000  15.34000
1704   2   1   19.145000   10.435000  17.331000
1705   2   1   19.678000   7.702000  14.605000
1706   2   1   19.145000   9.026000  15.241000
1707   2   1   19.684000   10.262000  14.411000
1708   2   1   19.123000   7.75000  13.189000
1709   2   1   19.155000   11.583000  15.03000
1710   2   1   19.159000   10.22000  12.938000
1711   2   1   19.674000   5.421000  19.102000
1712   2   1   19.103000   6.724000  19.748000
1713   2   1   19.663000   7.961000  18.972000
1714   2   1   19.675000   9.103000  16.696000
1715   2   1   19.679000   5.097000  14.62000
1716   2   1   19.685000   11.661000  16.5000
1717   2   1   19.665000   8.933000  12.328000
1718   2   1   17.032000   13.097000  18.589000
1719   2   1   17.061000   12.809000  14.166000
1720   2   1   17.595000   14.13000  14.796000
1721   2   1   17.574000   12.998000  17.119000
1722   2   1   17.054000   14.22000  16.271000
1723   2   1   19.687000   13.082000  18.601000
1724   2   1   19.157000   12.989000  17.126000
1725   2   1   19.695000   12.795000  14.178000
1726   2   1   19.168000   14.121000  14.803000
1727   2   1   19.697000   14.205000  16.283000
1728   2   1   17.574000   11.871000  19.398000
1729   2   1   19.126000   11.862000  19.405000
1730   2   1   17.045000   15.634000  18.378000
1731   2   1   17.076000   15.354000  13.946000
1732   2   1   17.607000   16.68000  14.595000
1733   2   1   17.588000   15.539000  16.907000
1734   2   1   17.067000   16.762000  16.066000
1735   2   1   19.701000   15.618000  18.391000
1736   2   1   19.17000   15.529000  16.914000
1737   2   1   19.707000   15.339000  13.958000
1738   2   1   19.183000   16.67000  14.602000
1739   2   1   19.711000   16.746000  16.078000
1740   2   1   17.587000   14.419000  19.193000
1741   2   1   19.139000   14.41000  19.2000
1742   2   1   17.059000   18.158000  18.183000
1743   2   1   17.088000   17.92000  13.768000
1744   2   1   17.624000   19.243000  14.413000
1745   2   1   17.602000   18.076000  16.712000
1746   2   1   17.083000   19.31000  15.886000
1747   2   1   19.716000   18.141000  18.195000
1748   2   1   19.184000   18.066000  16.719000
1749   2   1   19.723000   17.904000  13.779000
1750   2   1   19.196000   19.232000  14.42000
1751   2   1   19.725000   19.292000  15.897000
1752   2   1   17.601000   16.945000  18.99000
1753   2   1   19.153000   16.936000  18.997000
1754   2   1   17.073000   20.67000  18.021000
1755   2   1   17.102000   20.497000  13.606000
1756   2   1   17.636000   21.82000  14.27000
1757   2   1   17.617000   20.615000  16.549000
1758   2   1   17.095000   21.862000  15.743000
1759   2   1   19.734000   20.651000  18.032000
1760   2   1   19.201000   20.604000  16.556000
1761   2   1   19.739000   20.478000  13.617000
1762   2   1   19.216000   21.808000  14.277000
1763   2   1   19.747000   21.842000  15.754000
1764   2   1   17.647000   20.485000  12.136000
1765   2   1   19.205000   20.475000  12.143000
1766   2   1   17.616000   19.453000  18.811000
1767   2   1   19.168000   19.443000  18.818000
1768   2   1   17.123000   21.716000  11.298000
1769   2   1   19.75000   21.696000  11.307000
1770   2   1   17.085000   23.169000  17.919000
1771   2   1   17.119000   23.095000  13.468000
1772   2   1   17.63000   23.152000  16.432000
1773   2   1   19.757000   23.149000  17.93000
1774   2   1   19.224000   23.139000  16.438000
1775   2   1   19.758000   23.073000  13.477000
1776   2   1   17.646000   23.053000  11.965000
1777   2   1   19.239000   23.04000  11.971000
1778   2   1   17.632000   21.942000  18.678000
1779   2   1   19.186000   21.931000  18.685000
1780   2   1   19.193000   15.248000  12.456000
1781   2   1   17.602000   15.257000  12.449000
1782   2   1   19.177000   12.714000  12.683000
1783   2   1   17.592000   12.722000  12.676000
1784   2   1   19.694000   11.395000  12.069000
1785   2   1   17.068000   11.408000  12.057000
1786   2   1   17.652000   24.411000  14.157000
1787   2   1   17.102000   24.419000  15.646000
1788   2   1   19.238000   24.396000  14.163000
1789   2   1   19.776000   24.397000  15.655000
1790   2   1   17.148000   24.348000  11.184000
1791   2   1   19.761000   24.324000  11.19000
1792   2   3   17.078000   25.606000  17.874000
1793   2   3   17.114000   25.67000  13.339000
1794   2   3   17.664000   25.638000  16.427000
1795   2   3   19.803000   25.582000  17.883000
1796   2   3   19.228000   25.624000  16.432000
1797   2   3   19.803000   25.643000  13.346000
1798   2   3   17.676000   25.674000  11.877000
1799   2   3   19.25000   25.657000  11.88000
1800   2   1   17.649000   24.41000  18.632000
1801   2   1   19.206000   24.398000  18.638000
1802   2   1   21.806000   9.285000  19.614000
1803   2   1   21.256000   10.519000  18.814000
1804   2   1   21.79000   5.287000  17.665000
1805   2   1   21.243000   3.993000  16.967000
1806   2   1   21.234000   5.415000  19.12000
1807   2   1   21.252000   6.522000  16.844000
1808   2   1   21.774000   7.854000  17.51000
1809   2   1   21.791000   6.43000  15.367000
1810   2   1   21.242000   7.673000  14.602000
1811   2   1   21.797000   8.994000  15.226000
1812   2   1   21.254000   9.09000  16.695000
1813   2   1   21.255000   10.237000  14.45000
1814   2   1   21.807000   11.549000  15.05000
1815   2   1   21.809000   6.716000  19.776000
1816   2   1   21.249000   7.955000  18.988000
1817   2   1   21.838000   3.9000  15.523000
1818   2   1   21.257000   5.107000  14.701000
1819   2   1   21.783000   10.416000  17.341000
1820   2   1   21.263000   11.647000  16.512000
1821   2   1   23.363000   9.284000  19.607000
1822   2   1   23.879000   10.508000  18.799000
1823   2   1   23.379000   5.29000  17.68000
1824   2   1   23.86000   6.531000  16.86000
1825   2   1   23.949000   3.997000  17.01000
1826   2   1   23.412000   3.903000  15.551000
1827   2   1   23.348000   7.855000  17.511000
1828   2   1   23.381000   6.434000  15.375000
1829   2   1   23.357000   10.408000  17.335000
1830   2   1   23.944000   7.665000  14.605000
1831   2   1   23.381000   8.983000  15.219000
1832   2   1   23.956000   10.203000  14.44000
1833   2   1   23.393000   11.529000  15.036000
1834   2   1   23.942000   5.431000  19.133000
1835   2   1   23.373000   6.724000  19.779000
1836   2   1   23.871000   7.959000  18.978000
1837   2   1   23.861000   9.08000  16.696000
1838   2   1   23.97000   5.119000  14.763000
1839   2   1   23.873000   11.627000  16.51000
1840   2   1   21.268000   13.072000  18.616000
1841   2   1   21.267000   12.774000  14.24000
1842   2   1   21.818000   14.094000  14.836000
1843   2   1   21.795000   12.969000  17.143000
1844   2   1   21.275000   14.191000  16.3000
1845   2   1   23.893000   13.054000  18.599000
1846   2   1   23.369000   12.956000  17.137000
1847   2   1   23.968000   12.743000  14.242000
1848   2   1   23.404000   14.073000  14.827000
1849   2   1   23.885000   14.17000  16.302000
1850   2   1   21.819000   11.847000  19.428000
1851   2   1   23.377000   11.839000  19.418000
1852   2   1   21.282000   15.607000  18.406000
1853   2   1   21.278000   15.321000  14.022000
1854   2   1   21.83000   16.644000  14.62000
1855   2   1   21.808000   15.51000  16.932000
1856   2   1   21.289000   16.733000  16.09000
1857   2   1   23.908000   15.587000  18.39000
1858   2   1   23.382000   15.496000  16.927000
1859   2   1   23.979000   15.29000  14.03000
1860   2   1   23.415000   16.623000  14.616000
1861   2   1   23.897000   16.71000  16.093000
1862   2   1   21.833000   14.393000  19.224000
1863   2   1   23.391000   14.381000  19.214000
1864   2   1   21.296000   18.128000  18.21000
1865   2   1   21.288000   17.889000  13.819000
1866   2   1   21.842000   19.202000  14.442000
1867   2   1   21.822000   18.044000  16.735000
1868   2   1   21.303000   19.276000  15.91000
1869   2   1   23.925000   18.104000  18.194000
1870   2   1   23.396000   18.028000  16.73000
1871   2   1   23.986000   17.849000  13.829000
1872   2   1   23.428000   19.18000  14.433000
1873   2   1   23.913000   19.248000  15.91000
1874   2   1   21.847000   16.917000  19.022000
1875   2   1   23.405000   16.903000  19.012000
1876   2   1   21.314000   20.636000  18.046000
1877   2   1   21.305000   20.452000  13.654000
1878   2   1   21.867000   21.774000  14.291000
1879   2   1   21.842000   20.577000  16.571000
1880   2   1   21.327000   21.825000  15.764000
1881   2   1   23.946000   20.605000  18.032000
1882   2   1   23.416000   20.557000  16.567000
1883   2   1   24.001000   20.422000  13.664000
1884   2   1   23.452000   21.749000  14.291000
1885   2   1   23.939000   21.787000  15.768000
1886   2   1   21.864000   19.421000  18.842000
1887   2   1   23.422000   19.403000  18.833000
1888   2   1   21.346000   23.134000  17.943000
1889   2   1   21.339000   23.058000  13.538000
1890   2   1   21.873000   23.112000  16.452000
1891   2   1   23.977000   23.09000  17.931000
1892   2   1   23.453000   23.085000  16.452000
1893   2   1   24.038000   23.006000  13.548000
1894   2   1   21.887000   21.905000  18.709000
1895   2   1   23.444000   21.882000  18.703000
1896   2   1   21.914000   24.381000  14.182000
1897   2   1   21.368000   24.388000  15.668000
1898   2   1   23.516000   24.349000  14.182000
1899   2   1   23.994000   24.335000  15.676000
1900   2   3   21.369000   25.57000  17.896000
1901   2   3   21.357000   25.653000  13.402000
1902   2   3   21.948000   25.61000  16.449000
1903   2   3   24.091000   25.521000  17.889000
1904   2   3   23.515000   25.582000  16.446000
1905   2   3   24.187000   25.578000  13.405000
1906   2   1   21.933000   24.374000  18.659000
1907   2   1   23.495000   24.348000  18.654000
1908   2   1   13.311000   9.338000  19.563000
1909   2   1   12.814000   10.566000  18.749000
1910   2   1   13.275000   5.342000  17.64000
1911   2   1   12.698000   4.054000  16.966000
1912   2   1   12.7000   5.488000  19.087000
1913   2   1   12.812000   6.587000  16.814000
1914   2   1   13.331000   7.906000  17.469000
1915   2   1   13.303000   6.484000  15.335000
1916   2   1   12.76000   7.72000  14.558000
1917   2   1   13.329000   9.034000  15.176000
1918   2   1   12.837000   9.137000  16.648000
1919   2   1   12.774000   10.261000  14.39000
1920   2   1   13.344000   11.583000  14.991000
1921   2   1   13.276000   6.777000  19.737000
1922   2   1   12.796000   8.016000  18.931000
1923   2   1   13.247000   3.953000  15.513000
1924   2   1   12.709000   5.174000  14.718000
1925   2   1   13.348000   10.461000  17.29000
1926   2   1   12.851000   11.686000  16.46000
1927   2   1   14.868000   9.323000  19.584000
1928   2   1   15.437000   10.551000  18.789000
1929   2   1   14.863000   5.323000  17.639000
1930   2   1   15.42000   6.552000  16.823000
1931   2   1   15.404000   4.022000  16.948000
1932   2   1   14.82000   3.935000  15.501000
1933   2   1   14.905000   7.89000  17.483000
1934   2   1   14.893000   6.466000  15.344000
1935   2   1   14.922000   10.454000  17.311000
1936   2   1   15.46000   7.704000  14.583000
1937   2   1   14.913000   9.03000  15.199000
1938   2   1   15.473000   10.268000  14.426000
1939   2   1   14.929000   11.587000  15.02000
1940   2   1   15.408000   5.447000  19.099000
1941   2   1   14.84000   6.753000  19.748000
1942   2   1   15.418000   7.987000  18.964000
1943   2   1   15.444000   9.121000  16.672000
1944   2   1   15.419000   5.137000  14.687000
1945   2   1   15.461000   11.679000  16.486000
1946   2   1   12.825000   13.115000  18.548000
1947   2   1   12.788000   12.804000  14.191000
1948   2   1   13.359000   14.13000  14.78000
1949   2   1   13.362000   13.011000  17.09000
1950   2   1   12.866000   14.232000  16.251000
1951   2   1   15.45000   13.105000  18.59000
1952   2   1   14.936000   13.007000  17.112000
1953   2   1   15.489000   12.806000  14.214000
1954   2   1   14.945000   14.133000  14.804000
1955   2   1   15.476000   14.225000  16.273000
1956   2   1   13.323000   11.894000  19.371000
1957   2   1   14.881000   11.886000  19.397000
1958   2   1   12.838000   15.652000  18.338000
1959   2   1   12.804000   15.355000  13.979000
1960   2   1   13.375000   16.685000  14.57000
1961   2   1   13.376000   15.554000  16.88000
1962   2   1   12.882000   16.777000  16.043000
1963   2   1   15.464000   15.642000  18.379000
1964   2   1   14.95000   15.55000  16.9000
1965   2   1   15.504000   15.355000  13.996000
1966   2   1   14.961000   16.687000  14.589000
1967   2   1   15.489000   16.769000  16.064000
1968   2   1   13.335000   14.438000  19.166000
1969   2   1   14.893000   14.433000  19.192000
1970   2   1   12.85000   18.174000  18.143000
1971   2   1   12.825000   17.922000  13.78000
1972   2   1   13.392000   19.249000  14.389000
1973   2   1   13.391000   18.092000  16.684000
1974   2   1   12.896000   19.322000  15.861000
1975   2   1   15.478000   18.166000  18.184000
1976   2   1   14.965000   18.088000  16.704000
1977   2   1   15.522000   17.927000  13.794000
1978   2   1   14.978000   19.249000  14.412000
1979   2   1   15.505000   19.316000  15.885000
1980   2   1   13.348000   16.964000  18.964000
1981   2   1   14.906000   16.959000  18.989000
1982   2   1   12.861000   20.682000  17.983000
1983   2   1   12.84000   20.503000  13.618000
1984   2   1   13.4000   21.827000  14.249000
1985   2   1   13.403000   20.627000  16.523000
1986   2   1   12.903000   21.87000  15.723000
1987   2   1   15.492000   20.678000  18.022000
1988   2   1   14.977000   20.626000  16.541000
1989   2   1   15.536000   20.495000  13.631000
1990   2   1   14.986000   21.827000  14.264000
1991   2   1   15.514000   21.87000  15.741000
1992   2   1   13.362000   19.47000  18.787000
1993   2   1   14.92000   19.467000  18.811000
1994   2   1   12.865000   23.176000  17.886000
1995   2   1   12.838000   23.098000  13.506000
1996   2   1   13.401000   23.164000  16.411000
1997   2   1   15.495000   23.18000  17.921000
1998   2   1   14.981000   23.167000  16.426000
1999   2   1   15.537000   23.106000  13.518000
2000   2   1   13.374000   21.955000  18.659000
2001   2   1   14.931000   21.956000  18.679000
2002   2   1   13.375000   24.437000  14.145000
2003   2   1   12.886000   24.428000  15.635000
2004   2   1   14.978000   24.441000  14.158000
2005   2   1   15.51000   24.438000  15.648000
2006   2   3   12.787000   25.621000  17.847000
2007   2   3   12.732000   25.687000  13.368000
2008   2   3   13.376000   25.672000  16.41000
2009   2   3   15.511000   25.622000  17.877000
2010   2   3   14.943000   25.672000  16.427000
2011   2   3   15.561000   25.709000  13.387000
2012   2   1   13.358000   24.431000  18.612000
2013   2   1   14.921000   24.431000  18.631000
2014   2   1   17.08000   13.929000  11.821000
2015   2   1   19.708000   13.915000  11.833000
2016   2   2   18.687000   9.364000  -12.703000
2017   2   2   18.614000   9.108000  -20.751000
2018   2   2   19.314000   8.938000  -22.804000
2019   2   2   18.694000   9.257000  -18.363000
2020   2   2   18.726000   9.455000  -15.685000
2021   2   2   15.17000   8.932000  -22.74000
2022   2   2   16.303000   9.605000  -15.712000
2023   2   2   16.433000   9.572000  -12.759000
2024   2   2   16.174000   9.355000  -18.357000
2025   2   2   16.055000   9.159000  -20.732000
2026   2   2   14.689000   7.432000  -23.159000
2027   2   2   14.787000   5.429000  -20.881000
2028   2   2   14.812000   5.668000  -18.239000
2029   2   2   14.996000   8.619000  -12.883000
2030   2   2   14.825000   7.908000  -20.647000
2031   2   2   14.794000   5.997000  -15.764000
2032   2   2   14.969000   8.495000  -15.637000
2033   2   2   14.906000   8.166000  -18.21000
2034   2   2   14.673000   6.279000  -13.316000
2035   2   2   14.802000   5.464000  -23.72000
2036   2   2   19.736000   5.336000  -20.956000
2037   2   2   19.803000   7.816000  -20.751000
2038   2   2   19.765000   5.492000  -18.275000
2039   2   2   19.743000   5.802000  -13.237000
2040   2   2   15.931000   4.671000  -15.663000
2041   2   2   16.162000   4.495000  -23.979000
2042   2   2   18.579000   4.505000  -13.473000
2043   2   2   18.486000   4.316000  -18.163000
2044   2   2   19.769000   5.737000  -15.726000
2045   2   2   19.796000   7.44000  -23.258000
2046   2   2   16.032000   4.217000  -20.878000
2047   2   2   18.276000   4.49000  -24.01000
2048   2   2   16.012000   4.411000  -18.124000
2049   2   2   19.908000   8.186000  -15.637000
2050   2   2   19.892000   8.123000  -12.776000
2051   2   2   15.555000   4.779000  -13.46000
2052   2   2   19.865000   7.969000  -18.278000
2053   2   2   19.651000   5.447000  -23.778000
2054   2   2   18.516000   4.52000  -15.689000
2055   2   2   18.448000   4.17000  -20.928000
2056   2   2   18.465000   4.232000  -11.503000
2057   2   2   15.828000   4.222000  -11.556000
2058   2   2   22.638000   6.128000  -31.506000
2059   2   2   22.683000   4.555000  -26.868000
2060   2   2   22.62000   4.678000  -29.354000
2061   2   2   22.65000   8.367000  -32.571000
2062   2   2   20.468000   6.104000  -31.496000
2063   2   2   20.435000   4.511000  -26.852000
2064   2   2   20.464000   4.666000  -29.331000
2065   2   2   20.411000   8.321000  -32.606000
2066   2   2   20.39000   10.91000  -32.442000
2067   2   2   22.623000   10.931000  -32.394000
2068   2   2   23.93000   6.713000  -26.588000
2069   2   2   23.938000   7.071000  -30.863000
2070   2   2   23.828000   12.09000  -30.556000
2071   2   2   23.846000   9.551000  -30.736000
2072   2   2   23.804000   10.662000  -28.468000
2073   2   2   23.829000   8.132000  -28.628000
2074   2   2   23.941000   5.619000  -28.757000
2075   2   2   23.879000   9.252000  -26.425000
2076   2   2   23.791000   13.211000  -28.28000
2077   2   2   23.865000   11.789000  -26.269000
2078   2   2   23.816000   14.638000  -30.355000
2079   2   2   23.776000   15.757000  -28.07000
2080   2   2   23.85000   14.332000  -26.068000
2081   2   2   20.379000   13.483000  -32.254000
2082   2   2   22.614000   13.493000  -32.2000
2083   2   2   23.804000   17.175000  -30.144000
2084   2   2   23.76000   18.302000  -27.861000
2085   2   2   23.834000   16.885000  -25.855000
2086   2   2   20.366000   16.033000  -32.049000
2087   2   2   22.602000   16.04000  -31.995000
2088   2   2   23.792000   19.697000  -29.949000
2089   2   4   20.294000   28.123000  -27.792000
2090   2   4   22.453000   28.163000  -25.521000
2091   2   4   22.539000   28.093000  -27.751000
2092   2   2   23.756000   25.941000  -27.452000
2093   2   2   23.746000   20.846000  -27.678000
2094   2   2   23.814000   19.45000  -25.648000
2095   2   2   20.352000   18.554000  -31.847000
2096   2   2   22.589000   18.56000  -31.793000
2097   2   2   18.154000   10.436000  -23.102000
2098   2   2   18.28000   6.088000  -31.495000
2099   2   2   18.319000   4.495000  -26.84000
2100   2   2   18.278000   4.655000  -29.313000
2101   2   2   18.317000   8.306000  -32.596000
2102   2   2   16.225000   10.449000  -23.111000
2103   2   2   16.192000   6.076000  -31.501000
2104   2   2   16.132000   4.484000  -26.845000
2105   2   2   16.187000   4.644000  -29.315000
2106   2   2   16.142000   8.294000  -32.604000
2107   2   2   16.134000   10.88000  -32.444000
2108   2   2   18.301000   10.892000  -32.435000
2109   2   2   22.575000   21.051000  -31.618000
2110   2   2   16.12000   13.459000  -32.259000
2111   2   2   18.29000   13.471000  -32.25000
2112   2   2   23.8000   24.606000  -25.374000
2113   2   2   20.324000   23.513000  -31.538000
2114   2   2   16.107000   16.01000  -32.053000
2115   2   2   18.278000   16.022000  -32.043000
2116   2   2   16.092000   18.53000  -31.851000
2117   2   2   18.265000   18.542000  -31.841000
2118   2   2   16.077000   21.023000  -31.673000
2119   2   2   18.25000   21.037000  -31.663000
2120   2   2   18.127000   23.166000  -22.068000
2121   2   2   16.095000   23.15000  -22.075000
2122   2   2   16.058000   23.486000  -31.541000
2123   2   2   18.234000   23.501000  -31.532000
2124   2   2   22.562000   23.511000  -31.491000
2125   2   2   23.781000   22.204000  -29.791000
2126   2   2   23.778000   24.681000  -29.695000
2127   2   2   23.738000   23.388000  -27.539000
2128   2   2   23.798000   22.027000  -25.483000
2129   2   2   18.113000   25.83000  -21.949000
2130   2   2   16.077000   25.809000  -21.954000
2131   2   4   18.169000   28.027000  -30.197000
2132   2   4   16.039000   28.008000  -30.204000
2133   2   4   18.235000   28.059000  -23.153000
2134   2   4   15.921000   28.036000  -23.159000
2135   2   2   16.029000   25.94000  -31.492000
2136   2   2   18.226000   25.957000  -31.483000
2137   2   4   16.057000   28.086000  -25.624000
2138   2   4   16.002000   28.066000  -27.785000
2139   2   4   18.113000   28.107000  -25.619000
2140   2   4   18.189000   28.086000  -27.777000
2141   2   2   14.005000   6.069000  -31.519000
2142   2   2   14.013000   4.479000  -26.873000
2143   2   2   14.004000   4.633000  -29.351000
2144   2   2   14.05000   8.285000  -32.631000
2145   2   2   11.835000   6.072000  -31.55000
2146   2   2   11.763000   4.501000  -26.91000
2147   2   2   11.849000   4.624000  -29.396000
2148   2   2   11.811000   8.309000  -32.616000
2149   2   2   11.813000   10.873000  -32.441000
2150   2   2   14.047000   10.874000  -32.469000
2151   2   2   10.6000   8.066000  -28.683000
2152   2   2   10.494000   6.648000  -26.644000
2153   2   2   10.587000   13.141000  -28.341000
2154   2   2   10.581000   12.021000  -30.616000
2155   2   2   10.519000   9.185000  -26.483000
2156   2   2   10.513000   5.552000  -28.812000
2157   2   2   10.588000   9.484000  -30.793000
2158   2   2   10.508000   11.721000  -26.329000
2159   2   2   10.599000   10.595000  -28.526000
2160   2   2   10.575000   15.685000  -28.132000
2161   2   2   10.567000   14.567000  -30.417000
2162   2   2   10.496000   14.261000  -26.13000
2163   2   2   11.797000   13.434000  -32.25000
2164   2   2   14.033000   13.446000  -32.283000
2165   2   2   10.563000   18.224000  -27.922000
2166   2   2   10.552000   17.099000  -30.207000
2167   2   2   10.485000   16.808000  -25.917000
2168   2   2   11.782000   15.979000  -32.046000
2169   2   2   14.019000   15.996000  -32.079000
2170   2   2   10.547000   20.759000  -27.736000
2171   2   2   10.535000   19.615000  -30.01000
2172   2   2   10.477000   19.366000  -25.707000
2173   2   2   11.767000   18.496000  -31.844000
2174   2   2   14.006000   18.514000  -31.876000
2175   2   2   10.521000   23.291000  -27.593000
2176   2   2   10.514000   22.113000  -29.849000
2177   2   2   10.462000   21.932000  -25.538000
2178   2   2   11.751000   20.981000  -31.667000
2179   2   2   13.99000   21.005000  -31.698000
2180   2   2   10.483000   24.579000  -29.751000
2181   2   2   10.425000   24.498000  -25.424000
2182   2   2   11.731000   23.433000  -31.539000
2183   2   2   13.97000   23.467000  -31.565000
2184   2   2   10.52000   7.003000  -30.919000
2185   2   2   10.466000   25.833000  -27.502000
2186   2   4   13.872000   27.988000  -30.221000
2187   2   4   11.647000   27.966000  -30.224000
2188   2   4   10.382000   26.955000  -29.666000
2189   2   4   10.292000   27.085000  -25.361000
2190   2   2   11.678000   25.878000  -31.49000
2191   2   2   13.932000   25.927000  -31.513000
2192   2   4   11.712000   28.063000  -25.554000
2193   2   4   11.654000   27.997000  -27.791000
2194   2   4   13.875000   28.091000  -25.684000
2195   2   4   13.897000   28.065000  -27.81000
2196   2   2   20.337000   21.047000  -31.669000
2197   2   4   22.563000   28.061000  -30.186000
2198   2   4   20.339000   28.044000  -30.202000
2199   2   4   23.843000   27.072000  -29.615000
2200   2   4   23.892000   27.215000  -25.319000
2201   2   2   20.325000   25.978000  -31.488000
2202   2   2   22.579000   25.964000  -31.445000
2203   2   4   20.295000   28.151000  -25.671000
2204   2   2   13.926000   6.57000  -25.496000
2205   2   2   11.794000   6.552000  -25.511000
2206   2   2   13.899000   19.374000  -24.612000
2207   2   2   14.748000   17.991000  -23.361000
2208   2   2   11.778000   19.291000  -24.576000
2209   2   4   11.532000   27.023000  -24.151000
2210   2   2   13.899000   11.702000  -25.262000
2211   2   2   13.967000   9.096000  -25.39000
2212   2   2   14.808000   10.443000  -24.057000
2213   2   2   14.71000   25.834000  -22.927000
2214   2   2   13.89000   21.876000  -24.447000
2215   2   2   11.766000   21.884000  -24.411000
2216   2   2   14.722000   23.187000  -23.044000
2217   2   2   11.823000   9.115000  -25.353000
2218   2   2   11.795000   11.644000  -25.184000
2219   2   4   13.781000   27.217000  -24.215000
2220   2   2   13.828000   24.533000  -24.343000
2221   2   2   11.721000   24.482000  -24.293000
2222   2   2   11.775000   16.72000  -24.776000
2223   2   2   13.879000   16.762000  -24.833000
2224   2   2   11.784000   14.173000  -24.988000
2225   2   2   13.888000   14.218000  -25.052000
2226   2   2   14.778000   12.894000  -23.794000
2227   2   2   22.487000   21.964000  -24.366000
2228   2   2   20.363000   21.923000  -24.421000
2229   2   2   19.506000   23.221000  -23.027000
2230   2   2   22.568000   11.698000  -25.136000
2231   2   2   22.564000   9.167000  -25.308000
2232   2   2   22.498000   24.574000  -24.252000
2233   2   2   20.39000   24.587000  -24.319000
2234   2   2   20.432000   16.799000  -24.803000
2235   2   2   22.535000   16.784000  -24.727000
2236   2   2   20.449000   14.252000  -25.023000
2237   2   2   22.552000   14.232000  -24.938000
2238   2   2   19.56000   12.918000  -23.771000
2239   2   2   20.425000   9.128000  -25.369000
2240   2   2   20.467000   11.74000  -25.236000
2241   2   2   19.565000   10.478000  -24.054000
2242   2   4   22.648000   27.132000  -24.114000
2243   2   4   20.396000   27.284000  -24.198000
2244   2   2   19.483000   25.875000  -22.917000
2245   2   2   22.619000   6.605000  -25.468000
2246   2   2   20.494000   6.605000  -25.481000
2247   2   2   22.505000   19.362000  -24.528000
2248   2   2   20.383000   19.416000  -24.583000
2249   2   2   19.538000   18.017000  -23.341000
2250   2   2   18.154000   17.945000  -22.387000
2251   2   2   18.359000   20.549000  -22.25000
2252   2   2   16.125000   17.933000  -22.396000
2253   2   2   15.893000   20.534000  -22.26000
2254   2   2   18.173000   12.825000  -22.832000
2255   2   2   16.156000   12.816000  -22.841000
2256   2   2   14.763000   15.415000  -23.563000
2257   2   2   19.549000   15.439000  -23.542000
2258   2   2   18.166000   15.355000  -22.594000
2259   2   2   16.138000   15.344000  -22.603000
2260   2   2   23.768000   14.462000  20.234000
2261   2   2   21.531000   14.479000  20.267000
2262   2   2   25.004000   19.242000  15.924000
2263   2   2   25.016000   18.098000  18.198000
2264   2   2   25.074000   17.848000  13.895000
2265   2   2   23.784000   16.979000  20.033000
2266   2   2   21.545000   16.997000  20.065000
2267   2   2   25.03000   21.774000  15.781000
2268   2   2   25.037000   20.596000  18.037000
2269   2   2   25.089000   20.415000  13.726000
2270   2   2   23.8000   19.464000  19.855000
2271   2   2   21.561000   19.488000  19.886000
2272   2   2   25.068000   23.062000  17.939000
2273   2   2   25.126000   22.981000  13.613000
2274   2   2   23.82000   21.916000  19.727000
2275   2   2   21.581000   21.95000  19.753000
2276   2   2   25.03000   5.486000  19.108000
2277   2   2   25.085000   24.316000  15.69000
2278   2   4   21.679000   26.471000  18.409000
2279   2   4   23.903000   26.449000  18.413000
2280   2   4   25.169000   25.438000  17.854000
2281   2   4   25.259000   25.568000  13.549000
2282   2   2   23.873000   24.361000  19.678000
2283   2   2   21.619000   24.41000  19.701000
2284   2   4   23.839000   26.546000  13.742000
2285   2   4   23.897000   26.48000  15.98000
2286   2   4   21.676000   26.574000  13.873000
2287   2   4   21.653000   26.548000  15.998000
2288   2   2   15.214000   19.53000  19.858000
2289   2   4   12.987000   26.544000  18.375000
2290   2   4   15.212000   26.527000  18.39000
2291   2   4   11.708000   25.555000  17.803000
2292   2   4   11.659000   25.698000  13.507000
2293   2   2   15.226000   24.461000  19.676000
2294   2   2   12.972000   24.447000  19.633000
2295   2   4   15.256000   26.634000  13.86000
2296   2   2   21.626000   5.053000  13.683000
2297   2   2   23.757000   5.035000  13.7000
2298   2   2   21.652000   17.857000  12.8000
2299   2   2   20.802000   16.474000  11.55000
2300   2   2   23.773000   17.774000  12.765000
2301   2   4   24.019000   25.506000  12.339000
2302   2   2   21.652000   10.185000  13.451000
2303   2   2   21.584000   7.579000  13.578000
2304   2   2   20.743000   8.926000  12.245000
2305   2   2   20.841000   24.317000  11.115000
2306   2   2   21.66000   20.358000  12.635000
2307   2   2   23.785000   20.366000  12.599000
2308   2   2   20.829000   21.67000  11.232000
2309   2   2   23.728000   7.598000  13.541000
2310   2   2   23.756000   10.127000  13.373000
2311   2   4   21.77000   25.7000  12.404000
2312   2   2   21.722000   23.016000  12.531000
2313   2   2   23.83000   22.965000  12.481000
2314   2   2   23.776000   15.203000  12.965000
2315   2   2   21.672000   15.245000  13.022000
2316   2   2   23.766000   12.656000  13.176000
2317   2   2   21.662000   12.701000  13.241000
2318   2   2   20.773000   11.377000  11.982000
2319   2   2   13.064000   20.447000  12.554000
2320   2   2   15.187000   20.405000  12.609000
2321   2   2   16.044000   21.704000  11.215000
2322   2   2   12.983000   10.181000  13.325000
2323   2   2   12.986000   7.65000  13.496000
2324   2   2   13.053000   23.056000  12.44000
2325   2   2   15.161000   23.069000  12.507000
2326   2   2   15.119000   15.282000  12.992000
2327   2   2   13.016000   15.267000  12.915000
2328   2   2   15.102000   12.735000  13.211000
2329   2   2   12.999000   12.715000  13.127000
2330   2   2   15.991000   11.401000  11.959000
2331   2   2   15.125000   7.611000  13.557000
2332   2   2   15.084000   10.223000  13.425000
2333   2   2   15.986000   8.96000  12.241000
2334   2   4   12.903000   25.615000  12.303000
2335   2   4   15.155000   25.767000  12.386000
2336   2   2   16.068000   24.358000  11.105000
2337   2   2   12.931000   5.088000  13.657000
2338   2   2   15.057000   5.087000  13.668000
2339   2   2   13.046000   17.845000  12.717000
2340   2   2   15.168000   17.899000  12.771000
2341   2   2   16.013000   16.5000  11.53000
2342   2   2   17.397000   16.427000  10.576000
2343   2   2   17.192000   19.032000  10.438000
2344   2   2   19.426000   16.416000  10.585000
2345   2   2   19.658000   19.017000  10.448000
2346   2   2   17.377000   11.308000  11.02000
2347   2   2   19.395000   11.299000  11.029000
2348   2   2   20.787000   13.898000  11.752000
2349   2   2   16.002000   13.923000  11.73000
2350   2   2   17.384000   13.838000  10.782000
2351   2   2   19.413000   13.827000  10.791000
2352   2   2   16.716000   7.565000  0.774000
2353   2   2   16.943000   7.594000  8.923000
2354   2   2   16.24000   7.423000  10.984000
2355   2   2   16.876000   7.73000  6.512000
2356   2   2   16.828000   7.855000  3.784000
2357   2   2   20.382000   7.42000  10.919000
2358   2   2   19.195000   7.992000  3.707000
2359   2   2   18.895000   7.757000  0.693000
2360   2   2   19.377000   7.827000  6.464000
2361   2   2   19.503000   7.646000  8.893000
2362   2   2   20.863000   5.919000  11.337000
2363   2   2   20.773000   3.915000  9.058000
2364   2   2   20.749000   4.153000  6.389000
2365   2   2   20.293000   6.774000  0.727000
2366   2   2   20.733000   6.399000  8.813000
2367   2   2   20.715000   4.464000  3.821000
2368   2   2   20.524000   6.891000  3.633000
2369   2   2   20.649000   6.647000  6.329000
2370   2   2   20.624000   4.563000  1.212000
2371   2   2   20.753000   3.95000  11.903000
2372   2   2   15.826000   3.826000  9.137000
2373   2   2   15.758000   6.301000  8.923000
2374   2   2   15.799000   3.972000  6.484000
2375   2   2   15.595000   4.053000  1.637000
2376   2   2   19.648000   3.083000  3.831000
2377   2   2   19.391000   2.982000  12.158000
2378   2   2   16.769000   2.75000  1.852000
2379   2   2   17.074000   2.79000  6.381000
2380   2   2   15.744000   4.15000  4.017000
2381   2   2   15.76000   5.925000  11.435000
2382   2   2   19.527000   2.706000  9.053000
2383   2   2   17.278000   2.976000  12.192000
2384   2   2   19.56000   2.885000  6.298000
2385   2   2   15.6000   6.635000  3.846000
2386   2   2   15.422000   6.458000  1.072000
2387   2   2   19.869000   3.038000  1.547000
2388   2   2   15.696000   6.452000  6.452000
2389   2   2   15.905000   3.933000  11.959000
2390   2   2   16.999000   2.924000  3.989000
2391   2   2   17.112000   2.659000  9.114000
2392   2   2   16.711000   2.195000  -0.146000
2393   2   2   19.279000   2.253000  -0.368000
2394   2   2   12.913000   4.611000  19.695000
2395   2   2   12.868000   3.038000  15.056000
2396   2   2   12.931000   3.161000  17.543000
2397   2   2   12.901000   6.85000  20.759000
2398   2   2   15.083000   4.587000  19.684000
2399   2   2   15.116000   2.994000  15.04000
2400   2   2   15.088000   3.149000  17.518000
2401   2   2   15.14000   6.804000  20.794000
2402   2   2   15.161000   9.393000  20.63000
2403   2   2   12.928000   9.414000  20.582000
2404   2   2   11.621000   5.196000  14.776000
2405   2   2   11.613000   5.554000  19.052000
2406   2   2   11.723000   10.572000  18.745000
2407   2   2   11.705000   8.034000  18.925000
2408   2   2   11.747000   9.145000  16.656000
2409   2   2   11.722000   6.615000  16.816000
2410   2   2   11.61000   4.102000  16.946000
2411   2   2   11.672000   7.735000  14.613000
2412   2   2   11.76000   11.694000  16.469000
2413   2   2   11.686000   10.272000  14.457000
2414   2   2   11.735000   13.121000  18.543000
2415   2   2   11.775000   14.24000  16.259000
2416   2   2   11.701000   12.815000  14.257000
2417   2   2   15.172000   11.966000  20.442000
2418   2   2   12.937000   11.975000  20.389000
2419   2   2   11.747000   15.658000  18.333000
2420   2   2   11.791000   16.785000  16.049000
2421   2   2   11.717000   15.368000  14.044000
2422   2   2   15.185000   14.516000  20.237000
2423   2   2   12.948000   14.523000  20.183000
2424   2   2   11.759000   18.18000  18.137000
2425   2   4   15.257000   26.606000  15.98000
2426   2   4   13.098000   26.646000  13.71000
2427   2   4   13.012000   26.576000  15.94000
2428   2   2   11.795000   24.424000  15.64000
2429   2   2   11.805000   19.329000  15.866000
2430   2   2   11.737000   17.933000  13.836000
2431   2   2   15.199000   17.037000  20.035000
2432   2   2   12.962000   17.043000  19.982000
2433   2   2   17.397000   8.921000  11.289000
2434   2   2   17.27000   4.571000  19.683000
2435   2   2   17.232000   2.978000  15.027000
2436   2   2   17.273000   3.138000  17.5000
2437   2   2   17.234000   6.789000  20.784000
2438   2   2   19.326000   8.933000  11.298000
2439   2   2   19.359000   4.559000  19.688000
2440   2   2   19.419000   2.967000  15.031000
2441   2   2   19.363000   3.127000  17.502000
2442   2   2   19.409000   6.777000  20.792000
2443   2   2   19.417000   9.363000  20.632000
2444   2   2   17.25000   9.374000  20.624000
2445   2   2   12.976000   19.534000  19.806000
2446   2   2   19.431000   11.942000  20.448000
2447   2   2   17.261000   11.953000  20.438000
2448   2   2   11.75000   23.089000  13.562000
2449   2   2   15.227000   21.996000  19.727000
2450   2   2   19.444000   14.493000  20.242000
2451   2   2   17.273000   14.505000  20.232000
2452   2   2   19.458000   17.013000  20.04000
2453   2   2   17.286000   17.026000  20.029000
2454   2   2   19.474000   19.506000  19.862000
2455   2   2   17.301000   19.52000  19.852000
2456   2   2   17.424000   21.649000  10.256000
2457   2   2   19.455000   21.633000  10.264000
2458   2   2   19.493000   21.969000  19.729000
2459   2   2   17.317000   21.984000  19.72000
2460   2   2   12.989000   21.994000  19.68000
2461   2   2   11.77000   20.687000  17.979000
2462   2   2   11.773000   23.164000  17.883000
2463   2   2   11.812000   21.871000  15.727000
2464   2   2   11.752000   20.51000  13.671000
2465   2   2   17.438000   24.312000  10.137000
2466   2   2   19.474000   24.292000  10.142000
2467   2   4   17.382000   26.51000  18.386000
2468   2   4   19.512000   26.491000  18.392000
2469   2   4   17.316000   26.542000  11.341000
2470   2   4   19.63000   26.519000  11.347000
2471   2   2   19.522000   24.424000  19.68000
2472   2   2   17.325000   24.44000  19.671000
2473   2   4   19.494000   26.569000  13.813000
2474   2   4   19.549000   26.549000  15.973000
2475   2   4   17.438000   26.59000  13.808000
2476   2   4   17.361000   26.569000  15.966000
2477   2   2   21.546000   4.552000  19.707000
2478   2   2   21.538000   2.962000  15.061000
2479   2   2   21.546000   3.117000  17.539000
2480   2   2   21.501000   6.768000  20.819000
2481   2   2   23.715000   4.555000  19.738000
2482   2   2   23.787000   2.984000  15.098000
2483   2   2   23.702000   3.107000  17.584000
2484   2   2   23.739000   6.792000  20.805000
2485   2   2   23.738000   9.356000  20.63000
2486   2   2   21.504000   9.357000  20.657000
2487   2   2   24.951000   6.549000  16.871000
2488   2   2   25.057000   5.131000  14.833000
2489   2   2   24.964000   11.624000  16.529000
2490   2   2   24.97000   10.504000  18.805000
2491   2   2   25.032000   7.668000  14.672000
2492   2   2   25.038000   4.035000  17.0000
2493   2   2   24.962000   7.967000  18.982000
2494   2   2   25.043000   10.204000  14.518000
2495   2   2   24.951000   9.078000  16.715000
2496   2   2   24.976000   14.168000  16.32000
2497   2   2   24.984000   13.05000  18.605000
2498   2   2   25.055000   12.744000  14.319000
2499   2   2   23.754000   11.917000  20.439000
2500   2   2   21.518000   11.929000  20.471000
2501   2   2   24.988000   16.707000  16.11000
2502   2   2   24.999000   15.582000  18.395000
2503   2   2   25.066000   15.291000  14.105000
2504   3   1   13.687000   18.455000  -4.667000
2505   3   1   14.454000   17.904000  -3.384000
2506   3   1   15.968000   18.517000  -8.419000
2507   3   1   16.745000   17.974000  -7.156000
2508   3   1   16.769000   17.974000  -9.667000
2509   3   1   18.226000   18.54000  -9.656000
2510   3   1   16.001000   18.504000  -5.875000
2511   3   1   18.228000   18.501000  -7.146000
2512   3   1   15.945000   18.479000  -3.332000
2513   3   1   18.951000   17.946000  -5.869000
2514   3   1   20.489000   18.531000  -8.361000
2515   3   1   18.219000   18.481000  -4.588000
2516   3   1   18.994000   17.931000  -3.325000
2517   3   1   20.414000   18.472000  -5.864000
2518   3   1   18.199000   18.48000  -2.079000
2519   3   1   20.483000   18.482000  -3.37000
2520   3   1   21.207000   17.933000  -7.085000
2521   3   1   14.479000   17.939000  -8.389000
2522   3   1   13.696000   18.47000  -7.101000
2523   3   1   14.532000   17.947000  -5.886000
2524   3   1   16.733000   17.955000  -4.598000
2525   3   1   19.009000   17.972000  -8.414000
2526   3   1   16.737000   17.92000  -2.087000
2527   3   1   21.215000   17.902000  -4.663000
2528   3   1   13.723000   20.067000  -4.661000
2529   3   1   14.451000   20.645000  -3.371000
2530   3   1   15.96000   20.113000  -8.405000
2531   3   1   16.746000   20.67000  -9.649000
2532   3   1   14.473000   20.684000  -8.355000
2533   3   1   16.732000   20.635000  -7.132000
2534   3   1   15.997000   20.088000  -5.861000
2535   3   1   18.215000   20.094000  -7.132000
2536   3   1   18.941000   20.621000  -5.844000
2537   3   1   20.437000   20.093000  -8.368000
2538   3   1   18.205000   20.072000  -4.572000
2539   3   1   16.721000   20.614000  -4.575000
2540   3   1   18.948000   20.594000  -3.286000
2541   3   1   18.176000   20.032000  -2.056000
2542   3   1   20.421000   20.044000  -3.321000
2543   3   1   21.099000   20.691000  -7.104000
2544   3   1   13.734000   20.083000  -7.082000
2545   3   1   14.53000   20.629000  -5.863000
2546   3   1   18.205000   20.095000  -9.65000
2547   3   1   18.966000   20.64000  -8.403000
2548   3   1   15.938000   20.072000  -3.318000
2549   3   1   16.715000   20.606000  -2.058000
2550   3   1   20.41000   20.088000  -5.843000
2551   3   1   21.093000   20.665000  -4.564000
2552   3   1   13.881000   24.406000  -4.555000
2553   3   1   14.579000   24.945000  -3.279000
2554   3   5   13.914000   27.1000  -4.528000
2555   3   5   14.604000   26.507000  -3.268000
2556   3   1   16.05000   24.39000  -8.398000
2557   3   1   16.818000   24.955000  -9.646000
2558   3   1   14.603000   24.99000  -8.368000
2559   3   1   16.795000   24.89000  -7.101000
2560   3   5   16.104000   27.02000  -8.357000
2561   3   5   16.821000   26.466000  -7.082000
2562   3   5   16.845000   26.52000  -9.625000
2563   3   5   18.297000   27.069000  -9.601000
2564   3   1   16.051000   24.362000  -5.822000
2565   3   1   18.262000   24.346000  -7.098000
2566   3   5   16.097000   26.978000  -5.798000
2567   3   5   18.296000   26.958000  -7.066000
2568   3   5   16.078000   26.975000  -3.238000
2569   3   1   18.998000   24.861000  -5.803000
2570   3   5   19.019000   26.434000  -5.788000
2571   3   1   20.464000   24.345000  -8.344000
2572   3   5   20.496000   27.043000  -8.305000
2573   3   1   18.25000   24.323000  -4.524000
2574   3   1   16.783000   24.867000  -4.526000
2575   3   1   18.988000   24.852000  -3.23000
2576   3   5   18.283000   26.935000  -4.508000
2577   3   5   19.012000   26.44000  -3.217000
2578   3   5   20.495000   26.952000  -5.775000
2579   3   1   18.219000   24.291000  -1.986000
2580   3   1   20.44000   24.298000  -3.257000
2581   3   5   18.259000   27.001000  -1.971000
2582   3   5   20.471000   26.997000  -3.244000
2583   3   1   21.195000   24.901000  -7.079000
2584   3   5   21.215000   26.461000  -7.059000
2585   3   5   14.629000   26.552000  -8.351000
2586   3   1   13.893000   24.428000  -7.11000
2587   3   1   14.593000   24.949000  -5.824000
2588   3   5   13.927000   27.123000  -7.087000
2589   3   5   14.607000   26.534000  -5.809000
2590   3   5   16.808000   26.444000  -4.516000
2591   3   1   18.255000   24.359000  -9.637000
2592   3   1   19.012000   24.898000  -8.376000
2593   3   5   19.037000   26.486000  -8.358000
2594   3   1   16.025000   24.344000  -3.246000
2595   3   1   16.781000   24.886000  -1.98000
2596   3   5   16.807000   26.452000  -1.972000
2597   3   1   20.471000   24.34000  -5.8000
2598   3   1   21.183000   24.878000  -4.504000
2599   3   5   21.203000   26.438000  -4.493000
2600   3   1   13.864000   22.856000  -4.575000
2601   3   1   14.516000   22.215000  -3.326000
2602   3   1   16.015000   22.789000  -8.402000
2603   3   1   16.749000   22.232000  -7.121000
2604   3   1   16.766000   22.232000  -9.649000
2605   3   1   18.223000   22.797000  -9.643000
2606   3   1   16.023000   22.769000  -5.837000
2607   3   1   18.23000   22.759000  -7.111000
2608   3   1   15.992000   22.745000  -3.272000
2609   3   1   18.95000   22.215000  -5.828000
2610   3   1   20.43000   22.793000  -8.355000
2611   3   1   18.219000   22.736000  -4.542000
2612   3   1   18.948000   22.186000  -3.264000
2613   3   1   20.424000   22.762000  -5.816000
2614   3   1   18.189000   22.73000  -2.01000
2615   3   1   20.408000   22.745000  -3.277000
2616   3   1   21.119000   22.228000  -7.093000
2617   3   1   14.539000   22.257000  -8.371000
2618   3   1   13.875000   22.877000  -7.117000
2619   3   1   14.546000   22.257000  -5.848000
2620   3   1   16.738000   22.21000  -4.556000
2621   3   1   18.969000   22.232000  -8.393000
2622   3   1   16.732000   22.166000  -2.028000
2623   3   1   21.111000   22.203000  -4.543000
2624   3   1   13.59000   -1.155000  -4.643000
2625   3   1   14.338000   -0.602000  -3.396000
2626   3   1   13.671000   1.558000  -4.612000
2627   3   1   14.382000   0.958000  -3.382000
2628   3   1   15.788000   -1.199000  -8.476000
2629   3   1   16.589000   -0.714000  -9.722000
2630   3   1   14.338000   -0.602000  -8.45000
2631   3   1   16.552000   -0.66000  -7.201000
2632   3   1   15.847000   1.448000  -8.426000
2633   3   1   16.584000   0.923000  -7.168000
2634   3   1   16.6000   0.849000  -9.687000
2635   3   1   18.058000   1.396000  -9.646000
2636   3   1   15.794000   -1.167000  -5.93000
2637   3   1   18.03000   -1.214000  -7.215000
2638   3   1   15.853000   1.491000  -5.896000
2639   3   1   18.077000   1.437000  -7.167000
2640   3   1   15.859000   1.483000  -3.374000
2641   3   1   18.78000   -0.693000  -5.928000
2642   3   1   18.817000   0.899000  -5.919000
2643   3   1   20.28000   -1.294000  -8.429000
2644   3   1   20.289000   1.417000  -8.429000
2645   3   1   18.017000   -1.21000  -4.661000
2646   3   1   16.548000   -0.649000  -4.657000
2647   3   1   18.772000   -0.71000  -3.384000
2648   3   1   18.087000   1.458000  -4.661000
2649   3   1   18.825000   0.878000  -3.43000
2650   3   1   20.309000   1.417000  -5.92000
2651   3   1   17.988000   -1.266000  -2.131000
2652   3   1   20.22000   -1.292000  -3.384000
2653   3   1   18.058000   1.417000  -2.253000
2654   3   1   20.299000   1.434000  -3.415000
2655   3   1   20.992000   -0.721000  -7.175000
2656   3   1   21.012000   0.841000  -7.186000
2657   3   1   14.376000   0.949000  -8.422000
2658   3   1   13.584000   -1.149000  -7.2000
2659   3   1   14.316000   -0.607000  -5.918000
2660   3   1   13.659000   1.543000  -7.165000
2661   3   1   14.359000   0.983000  -5.896000
2662   3   1   16.59000   0.944000  -4.648000
2663   3   1   18.079000   -1.224000  -9.756000
2664   3   1   18.813000   -0.707000  -8.472000
2665   3   1   18.824000   0.867000  -8.433000
2666   3   1   15.785000   -1.191000  -3.386000
2667   3   1   16.553000   -0.668000  -2.152000
2668   3   1   16.592000   0.874000  -2.201000
2669   3   1   20.254000   -1.262000  -5.911000
2670   3   1   20.967000   -0.725000  -4.632000
2671   3   1   21.012000   0.84000  -4.648000
2672   3   1   13.733000   3.115000  -4.564000
2673   3   1   14.492000   3.669000  -3.289000
2674   3   1   15.868000   3.031000  -8.349000
2675   3   1   16.664000   3.508000  -9.518000
2676   3   1   14.418000   3.633000  -8.387000
2677   3   1   16.627000   3.602000  -7.12000
2678   3   1   15.892000   3.089000  -5.849000
2679   3   1   18.101000   3.037000  -7.138000
2680   3   1   18.861000   3.586000  -5.9000
2681   3   1   20.303000   2.976000  -8.427000
2682   3   1   18.14000   3.069000  -4.62000
2683   3   1   16.658000   3.621000  -4.565000
2684   3   1   18.95000   3.603000  -3.367000
2685   3   1   18.211000   2.983000  -2.206000
2686   3   1   20.373000   3.004000  -3.417000
2687   3   1   21.039000   3.568000  -7.209000
2688   3   1   13.687000   3.096000  -7.137000
2689   3   1   14.423000   3.647000  -5.856000
2690   3   1   18.089000   2.914000  -9.55000
2691   3   1   18.853000   3.535000  -8.401000
2692   3   1   15.943000   3.076000  -3.257000
2693   3   1   16.842000   3.638000  -2.024000
2694   3   1   20.334000   3.021000  -5.927000
2695   3   1   21.073000   3.577000  -4.679000
2696   3   1   13.56000   -2.717000  -4.646000
2697   3   1   14.284000   -3.307000  -3.412000
2698   3   1   15.681000   -2.768000  -8.449000
2699   3   1   16.493000   -3.274000  -7.227000
2700   3   1   18.33000   -2.749000  -9.911000
2701   3   1   15.763000   -2.745000  -5.941000
2702   3   1   17.996000   -2.787000  -7.256000
2703   3   1   15.751000   -2.775000  -3.385000
2704   3   1   18.708000   -3.299000  -5.951000
2705   3   1   20.273000   -2.864000  -8.415000
2706   3   1   17.976000   -2.783000  -4.67000
2707   3   1   18.693000   -3.327000  -3.389000
2708   3   1   20.21000   -2.852000  -5.907000
2709   3   1   17.947000   -2.824000  -2.131000
2710   3   1   20.171000   -2.855000  -3.38000
2711   3   1   20.927000   -3.443000  -7.145000
2712   3   1   14.223000   -3.298000  -8.418000
2713   3   1   13.528000   -2.708000  -7.182000
2714   3   1   14.266000   -3.229000  -5.925000
2715   3   1   16.491000   -3.265000  -4.672000
2716   3   1   18.794000   -3.325000  -8.535000
2717   3   1   16.491000   -3.356000  -2.144000
2718   3   1   20.879000   -3.436000  -4.624000
2719   3   1   13.764000   7.343000  -4.627000
2720   3   1   14.484000   7.918000  -3.382000
2721   3   1   13.761000   10.03000  -4.662000
2722   3   1   14.479000   9.465000  -3.402000
2723   3   1   15.882000   7.325000  -8.614000
2724   3   1   16.648000   7.94000  -9.939000
2725   3   1   14.435000   7.901000  -8.498000
2726   3   1   16.65000   7.852000  -7.286000
2727   3   1   15.944000   10.004000  -8.512000
2728   3   1   16.674000   9.445000  -7.246000
2729   3   1   16.691000   9.488000  -9.78000
2730   3   1   18.147000   10.035000  -9.763000
2731   3   1   15.932000   7.336000  -5.948000
2732   3   1   18.134000   7.315000  -7.296000
2733   3   1   15.948000   9.987000  -5.95000
2734   3   1   18.152000   9.969000  -7.242000
2735   3   1   15.941000   10.002000  -3.383000
2736   3   1   18.87000   7.838000  -5.985000
2737   3   1   18.877000   9.425000  -5.962000
2738   3   1   20.323000   7.269000  -8.546000
2739   3   1   20.352000   9.986000  -8.487000
2740   3   1   18.15000   7.319000  -4.678000
2741   3   1   16.676000   7.865000  -4.665000
2742   3   1   18.904000   7.868000  -3.425000
2743   3   1   18.149000   9.973000  -4.674000
2744   3   1   18.886000   9.442000  -3.399000
2745   3   1   20.352000   9.944000  -5.95000
2746   3   1   18.171000   7.39000  -2.169000
2747   3   1   20.37000   7.297000  -3.444000
2748   3   1   18.134000   10.01000  -2.133000
2749   3   1   20.342000   9.964000  -3.414000
2750   3   1   21.041000   7.838000  -7.27000
2751   3   1   21.057000   9.395000  -7.239000
2752   3   1   14.472000   9.462000  -8.484000
2753   3   1   13.741000   7.338000  -7.201000
2754   3   1   14.46000   7.885000  -5.929000
2755   3   1   13.763000   10.035000  -7.222000
2756   3   1   14.466000   9.471000  -5.942000
2757   3   1   16.677000   9.452000  -4.669000
2758   3   1   18.074000   7.285000  -9.927000
2759   3   1   18.877000   7.862000  -8.636000
2760   3   1   18.889000   9.447000  -8.541000
2761   3   1   15.949000   7.366000  -3.349000
2762   3   1   16.708000   7.926000  -2.141000
2763   3   1   16.685000   9.461000  -2.129000
2764   3   1   20.347000   7.292000  -5.981000
2765   3   1   21.073000   7.85000  -4.706000
2766   3   1   21.065000   9.399000  -4.68000
2767   3   1   13.779000   11.582000  -4.66000
2768   3   1   14.501000   12.137000  -3.398000
2769   3   1   15.972000   11.597000  -8.498000
2770   3   1   16.739000   12.172000  -9.742000
2771   3   1   14.525000   12.16000  -8.468000
2772   3   1   16.708000   12.116000  -7.211000
2773   3   1   15.966000   11.576000  -5.935000
2774   3   1   18.165000   11.563000  -7.213000
2775   3   1   18.881000   12.085000  -5.919000
2776   3   1   20.365000   11.537000  -8.444000
2777   3   1   18.152000   11.557000  -4.646000
2778   3   1   16.694000   12.107000  -4.646000
2779   3   1   18.886000   12.086000  -3.354000
2780   3   1   18.136000   11.55000  -2.11000
2781   3   1   20.336000   11.506000  -3.377000
2782   3   1   21.054000   12.073000  -7.159000
2783   3   1   13.789000   11.591000  -7.217000
2784   3   1   14.503000   12.122000  -5.934000
2785   3   1   18.176000   11.586000  -9.745000
2786   3   1   18.92000   12.114000  -8.48000
2787   3   1   15.951000   11.581000  -3.37000
2788   3   1   16.697000   12.125000  -2.107000
2789   3   1   20.344000   11.52000  -5.91000
2790   3   1   21.033000   12.067000  -4.623000
2791   3   1   13.776000   5.793000  -4.57000
2792   3   1   14.506000   5.232000  -3.279000
2793   3   1   15.849000   5.733000  -8.485000
2794   3   1   16.624000   5.206000  -7.176000
2795   3   1   16.622000   5.058000  -9.61000
2796   3   1   18.019000   5.678000  -9.72000
2797   3   1   15.926000   5.753000  -5.876000
2798   3   1   18.117000   5.716000  -7.222000
2799   3   1   15.973000   5.799000  -3.201000
2800   3   1   18.862000   5.182000  -5.92000
2801   3   1   20.297000   5.699000  -8.511000
2802   3   1   18.164000   5.732000  -4.603000
2803   3   1   18.957000   5.206000  -3.293000
2804   3   1   20.343000   5.702000  -5.961000
2805   3   1   18.266000   5.873000  -1.986000
2806   3   1   20.403000   5.742000  -3.414000
2807   3   1   21.029000   5.133000  -7.247000
2808   3   1   14.405000   5.188000  -8.42000
2809   3   1   13.723000   5.783000  -7.155000
2810   3   1   14.445000   5.232000  -5.866000
2811   3   1   16.673000   5.224000  -4.551000
2812   3   1   18.842000   5.131000  -8.499000
2813   3   1   16.841000   5.247000  -1.885000
2814   3   1   21.074000   5.145000  -4.692000
2815   3   1   13.961000   15.776000  -4.663000
2816   3   1   14.549000   16.358000  -3.374000
2817   3   1   16.042000   15.855000  -8.463000
2818   3   1   16.8000   16.42000  -9.695000
2819   3   1   14.585000   16.392000  -8.432000
2820   3   1   16.777000   16.382000  -7.175000
2821   3   1   16.069000   15.83000  -5.898000
2822   3   1   18.242000   15.837000  -7.17000
2823   3   1   18.959000   16.362000  -5.88000
2824   3   1   20.503000   15.783000  -8.384000
2825   3   1   18.226000   15.82000  -4.604000
2826   3   1   16.761000   16.365000  -4.604000
2827   3   1   18.998000   16.339000  -3.331000
2828   3   1   18.21000   15.792000  -2.082000
2829   3   1   20.479000   15.744000  -3.38000
2830   3   1   21.239000   16.325000  -7.107000
2831   3   1   13.984000   15.793000  -7.165000
2832   3   1   14.64000   16.358000  -5.903000
2833   3   1   18.255000   15.843000  -9.69000
2834   3   1   19.023000   16.375000  -8.429000
2835   3   1   16.009000   15.823000  -3.332000
2836   3   1   16.757000   16.369000  -2.082000
2837   3   1   20.414000   15.79000  -5.886000
2838   3   1   21.248000   16.29000  -4.678000
2839   3   1   13.852000   14.248000  -4.656000
2840   3   1   14.526000   13.682000  -3.388000
2841   3   1   16.021000   14.265000  -8.476000
2842   3   1   16.738000   13.709000  -7.198000
2843   3   1   16.773000   13.726000  -9.726000
2844   3   1   18.231000   14.285000  -9.711000
2845   3   1   16.02000   14.238000  -5.912000
2846   3   1   18.203000   14.241000  -7.186000
2847   3   1   15.985000   14.234000  -3.344000
2848   3   1   18.877000   13.679000  -5.9000
2849   3   1   20.428000   14.228000  -8.39000
2850   3   1   18.179000   14.226000  -4.613000
2851   3   1   18.892000   13.676000  -3.328000
2852   3   1   20.311000   14.193000  -5.871000
2853   3   1   18.166000   14.236000  -2.076000
2854   3   1   20.34000   14.194000  -3.337000
2855   3   1   21.007000   13.608000  -7.097000
2856   3   1   14.559000   13.709000  -8.457000
2857   3   1   13.868000   14.264000  -7.192000
2858   3   1   14.547000   13.696000  -5.923000
2859   3   1   16.718000   13.696000  -4.626000
2860   3   1   18.955000   13.707000  -8.461000
2861   3   1   16.714000   13.678000  -2.087000
2862   3   1   20.932000   13.6000  -4.596000
2863   3   2   21.034000   18.222000  -9.251000
2864   3   2   16.23000   18.218000  -1.171000
2865   3   2   21.025000   18.158000  -2.484000
2866   3   2   13.941000   18.25000  -9.283000
2867   3   2   18.737000   18.243000  -10.571000
2868   3   2   18.702000   18.169000  -1.164000
2869   3   2   16.199000   20.291000  -1.153000
2870   3   2   20.976000   20.411000  -9.259000
2871   3   2   20.952000   20.343000  -2.419000
2872   3   2   22.136000   20.468000  -4.551000
2873   3   2   13.933000   20.381000  -9.249000
2874   3   2   18.717000   20.408000  -10.558000
2875   3   2   22.143000   20.507000  -7.101000
2876   3   2   18.681000   20.329000  -1.138000
2877   3   6   21.045000   26.82000  -9.218000
2878   3   2   16.262000   24.577000  -1.075000
2879   3   6   16.294000   26.821000  -1.083000
2880   3   2   21.0000   24.66000  -9.239000
2881   3   2   20.967000   24.597000  -2.351000
2882   3   6   21.01000   26.756000  -2.33000
2883   3   6   22.247000   26.817000  -7.051000
2884   3   2   22.226000   24.564000  -4.49000
2885   3   6   22.234000   26.795000  -4.484000
2886   3   2   14.059000   24.693000  -9.263000
2887   3   6   14.124000   26.937000  -9.238000
2888   3   2   18.78000   24.672000  -10.539000
2889   3   6   18.823000   26.837000  -10.525000
2890   3   6   16.342000   26.906000  -10.512000
2891   3   2   12.857000   24.768000  -7.113000
2892   3   2   22.238000   24.588000  -7.087000
2893   3   2   18.735000   24.587000  -1.073000
2894   3   6   18.775000   26.752000  -1.046000
2895   3   6   12.858000   26.918000  -7.103000
2896   3   2   20.973000   22.479000  -9.244000
2897   3   2   16.216000   22.468000  -1.119000
2898   3   2   20.942000   22.414000  -2.388000
2899   3   2   22.165000   22.535000  -7.092000
2900   3   2   22.157000   22.509000  -4.53000
2901   3   2   14.01000   22.582000  -9.265000
2902   3   2   18.736000   22.485000  -10.551000
2903   3   2   18.693000   22.402000  -1.103000
2904   3   2   12.826000   22.698000  -7.126000
2905   3   2   20.808000   1.103000  -9.333000
2906   3   2   16.029000   -0.954000  -1.24000
2907   3   2   15.995000   1.155000  -1.355000
2908   3   2   20.825000   -0.996000  -9.323000
2909   3   2   20.739000   -0.992000  -2.476000
2910   3   2   20.806000   1.108000  -2.509000
2911   3   2   22.058000   1.146000  -7.198000
2912   3   2   21.999000   -1.069000  -4.614000
2913   3   2   22.061000   1.132000  -4.638000
2914   3   2   13.807000   -0.896000  -9.356000
2915   3   2   13.869000   1.278000  -9.329000
2916   3   2   18.554000   -0.818000  -10.645000
2917   3   2   18.57000   1.131000  -10.571000
2918   3   2   22.029000   -1.055000  -7.165000
2919   3   2   18.491000   -0.992000  -1.205000
2920   3   2   18.533000   0.96000  -1.403000
2921   3   2   12.609000   1.257000  -7.179000
2922   3   2   12.617000   1.283000  -4.606000
2923   3   2   20.814000   3.285000  -9.338000
2924   3   2   20.933000   3.305000  -2.533000
2925   3   2   13.901000   3.317000  -9.291000
2926   3   2   18.725000   3.086000  -10.377000
2927   3   2   12.65000   3.426000  -7.15000
2928   3   2   12.698000   3.45000  -4.543000
2929   3   2   20.847000   -3.235000  -9.266000
2930   3   2   15.971000   -3.112000  -1.219000
2931   3   2   20.664000   -3.233000  -2.484000
2932   3   2   21.995000   -3.235000  -7.125000
2933   3   2   21.947000   -3.23000  -4.598000
2934   3   2   13.684000   -3.057000  -9.334000
2935   3   2   19.141000   -2.882000  -10.628000
2936   3   2   18.446000   -3.203000  -1.238000
2937   3   2   20.89000   9.686000  -9.385000
2938   3   2   16.179000   7.595000  -1.26000
2939   3   2   16.167000   9.759000  -1.218000
2940   3   2   20.882000   7.559000  -9.435000
2941   3   2   20.908000   7.616000  -2.553000
2942   3   2   20.863000   9.645000  -2.513000
2943   3   2   22.104000   9.693000  -7.238000
2944   3   2   22.117000   7.542000  -4.708000
2945   3   2   22.107000   9.714000  -4.672000
2946   3   2   13.859000   7.61000  -9.375000
2947   3   2   13.941000   9.79000  -9.377000
2948   3   2   18.677000   9.717000  -10.647000
2949   3   2   22.083000   7.526000  -7.28000
2950   3   2   18.717000   7.799000  -1.342000
2951   3   2   18.641000   9.726000  -1.213000
2952   3   2   12.713000   9.745000  -7.228000
2953   3   2   12.714000   9.733000  -4.653000
2954   3   2   16.177000   11.817000  -1.201000
2955   3   2   20.921000   11.858000  -9.323000
2956   3   2   20.876000   11.799000  -2.478000
2957   3   2   22.089000   11.8000  -4.611000
2958   3   2   13.991000   11.868000  -9.371000
2959   3   2   18.699000   11.898000  -10.647000
2960   3   2   12.751000   11.921000  -7.225000
2961   3   2   22.103000   11.777000  -7.155000
2962   3   2   18.652000   11.851000  -1.199000
2963   3   2   12.739000   11.906000  -4.656000
2964   3   2   20.807000   5.369000  -9.414000
2965   3   2   20.975000   5.446000  -2.536000
2966   3   2   13.856000   5.489000  -9.313000
2967   3   2   16.243000   16.058000  -1.174000
2968   3   2   21.055000   16.086000  -9.272000
2969   3   2   21.032000   16.04000  -2.49000
2970   3   2   14.037000   16.069000  -9.315000
2971   3   2   18.777000   16.156000  -10.593000
2972   3   2   13.021000   16.139000  -7.091000
2973   3   2   18.722000   16.089000  -1.168000
2974   3   2   12.995000   16.112000  -4.78000
2975   3   2   20.998000   13.897000  -9.255000
2976   3   2   16.194000   13.986000  -1.181000
2977   3   2   20.874000   13.854000  -2.45000
2978   3   2   21.991000   13.875000  -6.882000
2979   3   2   21.886000   13.953000  -4.525000
2980   3   2   14.021000   14.031000  -9.347000
2981   3   2   18.752000   13.978000  -10.616000
2982   3   2   18.674000   13.916000  -1.167000
2983   3   2   12.809000   14.009000  -7.202000
2984   3   2   12.793000   13.991000  -4.658000
2985   3   2   12.816000   22.678000  -4.576000
2986   3   2   12.845000   24.746000  -4.555000
2987   3   6   12.846000   26.896000  -4.526000
2988   3   2   13.957000   5.539000  -2.391000
2989   3   2   14.025000   24.633000  -2.395000
2990   3   6   14.09000   26.877000  -2.379000
2991   3   2   13.989000   16.023000  -2.503000
2992   3   2   13.977000   13.991000  -2.5000
2993   3   2   13.98000   22.524000  -2.431000
2994   3   2   13.806000   -0.91000  -2.497000
2995   3   2   13.861000   1.278000  -2.482000
2996   3   2   13.96000   3.363000  -2.391000
2997   3   2   13.751000   -3.069000  -2.494000
2998   3   2   13.947000   7.62000  -2.483000
2999   3   2   13.947000   9.78000  -2.506000
3000   3   2   13.91000   18.2000  -2.49000
3001   3   2   13.903000   20.326000  -2.487000
3002   3   2   13.963000   11.834000  -2.5000
3003   3   6   13.997000   28.186000  -4.511000
3004   3   6   16.126000   28.11000  -8.345000
3005   3   6   16.137000   28.068000  -5.788000
3006   3   6   18.298000   28.048000  -7.04000
3007   3   6   20.479000   28.13000  -8.241000
3008   3   6   18.286000   28.025000  -4.513000
3009   3   6   18.239000   28.089000  -2.007000
3010   3   6   20.454000   28.085000  -3.288000
3011   3   6   14.01000   28.209000  -7.084000
3012   3   6   18.277000   28.157000  -9.546000
3013   3   6   16.1000   28.065000  -3.23000
3014   3   6   20.501000   28.042000  -5.765000
3015   3   2   16.047000   -3.203000  -9.353000
3016   3   2   17.546000   -3.301000  -10.41000
3017   3   2   14.283000   -4.394000  -3.474000
3018   3   2   14.223000   -4.387000  -8.362000
3019   3   2   16.482000   -4.364000  -7.228000
3020   3   2   18.669000   -4.389000  -5.951000
3021   3   2   16.479000   -4.354000  -4.69000
3022   3   2   18.67000   -4.417000  -3.393000
3023   3   2   20.838000   -4.528000  -7.151000
3024   3   2   14.238000   -4.319000  -5.93000
3025   3   2   18.742000   -4.413000  -8.569000
3026   3   2   16.499000   -4.444000  -2.191000
3027   3   2   20.792000   -4.522000  -4.618000
3028   3   2   12.699000   7.656000  -7.194000
3029   3   2   12.673000   5.494000  -7.141000
3030   3   2   22.114000   3.257000  -4.696000
3031   3   2   22.12000   5.447000  -4.721000
3032   3   2   22.072000   5.442000  -7.274000
3033   3   2   22.082000   3.256000  -7.226000
3034   3   2   12.554000   -0.82000  -4.634000
3035   3   2   12.551000   -0.809000  -7.22000
3036   3   2   12.525000   -3.062000  -4.644000
3037   3   2   12.49000   -3.043000  -7.167000
