19132
GENERATED BY SAMSON 2025 R1
C 46.2534 -8.23032 2.45839
C 47.5967 -10.4106 2.51343
C 47.5624 -10.4353 0.971827
C 49.0101 -12.6067 2.59225
C 48.9852 -12.6071 1.01472
C 46.2267 -8.25602 0.914124
C 23.3653 -12.9596 2.95899
C 23.3315 -12.9728 1.36015
C 24.6324 -12.244 3.47695
C 23.3874 -14.4263 3.5075
C 24.5779 -12.2706 0.775243
C 23.3256 -14.4471 0.843088
C 24.6317 -15.1293 2.93532
C 24.5961 -15.1359 1.38351
C 20.8727 -12.9764 2.98321
C 20.8361 -12.9859 1.42007
C 22.108 -12.24 3.53494
C 20.8874 -14.4037 3.57758
C 22.0529 -12.2668 0.809461
C 20.8181 -14.4307 0.85772
C 22.1082 -15.1332 2.98048
C 22.0701 -15.1443 1.41634
C 29.4693 -1.90965 2.69386
C 29.4686 -1.89077 1.1044
C 30.7117 -1.12635 3.21763
C 29.5877 -3.34134 3.24428
C 30.6888 -1.1246 0.549094
C 29.5512 -3.33788 0.570072
C 31.9764 -1.80111 2.65499
C 31.9682 -1.81258 1.09574
C 28.1794 -1.24248 3.25142
C 28.1772 -1.2265 0.5456
C 30.5783 0.311672 2.65758
C 30.5941 0.311579 1.08566
C 44.8134 -1.44652 2.41028
C 44.7655 -1.4618 0.811705
C 42.3112 -1.51791 2.45466
C 42.2761 -1.52811 0.905806
C 43.532 -0.722132 2.96658
C 43.4678 -0.735464 0.32747
C 44.8382 -2.8815 2.97617
C 44.7608 -2.91 0.265319
C 43.5108 0.734626 2.42467
C 43.4684 0.732458 0.87052
C 46.0473 -0.662707 2.94101
C 45.9744 -0.69699 0.20684
C 50.3152 -11.9208 3.1741
C 50.2781 -11.8874 0.481755
C 51.5888 -12.6104 2.6317
C 51.5769 -12.5792 1.02899
C 51.5523 -14.0238 0.464177
C 50.3203 -14.7744 2.57103
C 50.3002 -14.7216 1.02322
C 51.5864 -14.0934 3.13297
C 52.8818 -11.9496 3.1973
C 52.8737 -11.8818 0.494403
C 52.8287 -14.8117 2.54839
C 52.8147 -14.7502 0.988235
C 45.0813 -25.4951 3.22381
C 43.7853 -26.2003 2.70999
C 45.105 -24.0512 2.67634
C 45.0068 -25.511 0.565425
C 43.7448 -26.2259 1.11432
C 45.0466 -24.0641 1.12347
C 42.6014 -25.3856 3.28602
C 42.5362 -25.4342 0.579118
C 46.2732 -26.3083 2.65164
C 46.2236 -26.3044 1.10002
C 43.7528 -27.6504 3.2785
C 43.733 -27.6952 0.552658
C 29.8807 -25.4196 3.59639
C 29.8136 -25.4727 0.94838
C 32.3307 -25.4483 0.846389
C 31.1474 -26.1518 3.03478
C 29.894 -23.9928 2.99827
C 29.8669 -24.0234 1.45419
C 31.1089 -26.1942 1.43984
C 32.3926 -25.3899 3.54635
C 31.0677 -27.6644 0.887592
C 28.6318 -26.1895 3.10677
C 28.5904 -26.209 1.54792
C 31.14 -27.5897 3.63126
C 37.4256 -12.0406 3.214
C 38.7042 -12.7726 2.662
C 37.3789 -12.0789 0.549
C 38.6773 -12.7958 1.073
C 33.6176 -14.3082 3.311
C 32.3233 -15.0663 2.796
C 33.5905 -12.8424 2.758
C 34.8982 -15.0353 2.767
C 33.5699 -14.3495 0.668
C 34.8693 -15.0605 1.184
C 43.7349 -8.21906 2.4898
C 45.0035 -7.44846 2.98857
C 43.7684 -9.72046 3.02057
C 43.7123 -8.24372 0.939807
C 44.9626 -7.48524 0.385094
C 43.7325 -9.75557 0.463749
C 32.2955 -15.0915 1.25
C 32.2908 -16.5915 0.79
C 30.8549 -4.05016 2.68669
C 30.8314 -4.04954 1.12358
C 43.9166 -23.1971 3.23352
C 42.5952 -23.924 2.73199
C 43.9317 -21.6923 2.68541
C 43.846 -23.2141 0.611324
C 42.5567 -23.9541 1.16494
C 36.1755 -14.2754 3.274
C 34.9233 -16.5022 3.319
C 36.1277 -14.3167 0.607
C 34.8755 -16.5445 0.677
C 45.0575 -10.4597 2.52137
C 45.0336 -10.4787 0.971095
C 39.9825 -12.0087 3.159
C 39.9504 -10.5389 2.602
C 41.2611 -12.7428 2.61
C 39.9387 -12.047 0.506
C 41.2352 -12.7649 1.031
C 28.5972 -18.7717 3.47011
C 29.8409 -19.5082 2.90269
C 28.5469 -18.815 0.805105
C 29.814 -19.5401 1.35206
C 38.6906 -14.2828 0.559
C 34.6843 -3.2645 0.477915
C 39.9255 -10.561 1.023
C 41.1848 -9.80718 0.467
C 32.128 -3.25496 3.17744
C 30.9188 -5.52008 3.23591
C 32.0899 -3.26773 0.568451
C 30.8635 -5.5314 0.633649
C 46.3192 -9.68871 3.03592
C 46.2754 -9.72763 0.423225
C 36.2018 -17.2303 2.775
C 36.173 -17.2554 1.194
C 45.073 -11.9689 0.486915
C 31.0766 -18.8132 0.81903
C 32.356 -19.5391 1.31846
C 42.5424 -11.9848 3.102
C 41.2912 -14.2136 3.158
C 42.5006 -12.0211 0.476
C 41.2484 -14.2509 0.525
C 29.8256 -20.9965 0.819899
C 28.5068 -8.53846 2.79899
C 28.4671 -8.54886 1.26408
C 43.6238 -3.71433 2.44091
C 43.5813 -3.72926 0.871366
C 37.2542 -3.21019 3.08771
C 37.2043 -3.2611 0.430044
C 32.2178 -6.21316 2.68244
C 32.1801 -6.2158 1.13512
C 32.3768 -19.5118 2.84846
C 33.6492 -18.7561 3.335
C 32.3879 -20.9797 3.39124
C 33.6035 -18.8004 0.775
C 32.3586 -21.0209 0.8189
C 42.5828 -14.9436 2.603
C 42.5589 -14.9658 1.059
C 37.4841 -16.4723 3.277
C 37.456 -15.0034 2.721
C 38.7607 -17.2014 2.724
C 37.4364 -16.5136 0.62
C 38.7338 -17.2255 1.145
C 47.6993 -11.8692 3.07978
C 47.658 -11.8959 0.478145
C 36.1732 -18.7415 0.691
C 33.4706 -5.43467 3.15996
C 33.428 -3.95487 2.63399
C 34.7546 -6.15465 2.62268
C 33.4254 -5.45336 0.586704
C 34.718 -6.17069 1.07993
C 32.2106 -7.70156 0.631145
C 29.7475 -7.77009 3.29662
C 28.5073 -9.97613 3.34734
C 29.6816 -7.78073 0.683737
C 28.4476 -9.99845 0.736876
C 38.5245 -3.90829 2.52384
C 38.4946 -3.92906 0.979784
C 43.8781 -14.1845 3.078
C 43.8359 -12.7088 2.558
C 45.1618 -14.9097 2.5796
C 43.8403 -14.2208 0.523
C 45.1397 -14.9221 1.04086
C 33.6771 -21.7045 2.87392
C 33.6472 -21.7372 1.32367
C 42.5822 -16.4696 0.602
C 40.041 -16.4434 3.215
C 38.7898 -18.6702 3.271
C 39.9963 -16.4827 0.581
C 38.7441 -18.7125 0.642
C 25.9107 -12.9351 2.89969
C 25.8764 -12.9466 1.3227
C 36.0312 -5.40176 3.0988
C 34.7871 -7.61686 3.143
C 35.9704 -5.43565 0.527336
C 34.7433 -7.65313 0.587
C 39.7726 -3.15485 3.04337
C 41.0679 -3.79575 2.4756
C 39.707 -3.18174 0.391675
C 41.0273 -3.80076 0.924181
C 29.7611 -10.6946 2.793
C 29.7224 -10.7111 1.24005
C 38.5372 -5.39897 0.484312
C 31.1305 -23.1999 3.4836
C 31.0729 -23.2483 0.876545
C 38.7932 -21.6104 2.79382
C 38.7579 -21.6292 1.24809
C 40.0645 -19.4223 2.722
C 40.0387 -19.4465 1.166
C 49.001 -14.0897 0.489832
C 34.9081 -20.9779 0.78039
C 36.2066 -21.6681 1.28488
C 46.4488 -14.1393 3.08241
C 45.1701 -16.3923 3.10986
C 33.6608 -23.2337 0.836667
C 31.0266 -9.93128 3.26734
C 31.0072 -8.4658 2.73871
C 32.2829 -10.6475 2.742
C 30.9723 -9.96386 0.690815
C 32.255 -10.6706 1.17
C 42.3207 -2.98749 2.98382
C 41.1389 -5.27556 2.99946
C 42.2522 -3.00824 0.371561
C 41.0898 -5.29999 0.431675
C 29.7007 -12.1905 0.749977
C 27.1998 -12.1814 3.39176
C 25.9253 -14.4326 3.43532
C 27.1518 -12.2044 0.788707
C 25.8763 -14.4538 0.822795
C 36.0758 -8.36287 2.625
C 36.0499 -8.38503 1.079
C 41.3161 -18.7155 0.635
C 42.6043 -19.4542 1.13683
C 40.0356 -20.93 0.699283
C 36.241 -21.6487 2.83662
C 37.5219 -20.8833 3.30976
C 36.2666 -23.1047 3.39527
C 37.4697 -20.9211 0.739372
C 36.2201 -23.1384 0.787387
C 33.5611 -9.87651 3.238
C 32.307 -12.1183 3.296
C 33.5144 -9.9148 0.605
C 32.2593 -12.1586 0.662
C 46.4473 -17.1265 2.59643
C 45.1268 -16.408 0.548782
C 46.4056 -17.1165 1.0334
C 34.9387 -19.4741 2.822
C 34.9109 -19.5013 1.263
C 42.4239 -5.9923 2.47398
C 42.3954 -6.00586 0.918962
C 37.3599 -7.57789 3.071
C 37.3137 -6.12321 2.56271
C 38.6506 -8.32589 2.578
C 37.3191 -7.61314 0.564
C 38.6257 -8.34804 1.033
C 27.1992 -15.1661 2.90094
C 27.1644 -15.1837 1.34373
C 36.0702 -9.88194 0.553
C 47.6986 -16.3514 3.14029
C 47.746 -14.8789 2.58142
C 47.644 -16.3361 0.455866
C 37.5271 -23.801 2.85965
C 37.4973 -23.8163 1.31711
C 46.3636 -18.5796 0.484265
C 32.42 -23.9479 2.94778
C 42.6276 -19.4305 2.67653
C 43.9087 -18.6577 3.15131
C 42.6496 -20.9216 3.21277
C 43.8546 -18.6846 0.594212
C 42.5902 -20.9521 0.64756
C 28.4858 -14.3866 3.37729
C 28.4644 -12.9198 2.85126
C 29.7615 -15.1095 2.84244
C 28.4315 -14.4273 0.8064
C 29.7284 -15.1354 1.31081
C 39.9348 -7.5449 3.05
C 38.6718 -9.80778 3.143
C 39.895 -7.57915 0.498
C 38.628 -9.84506 0.507
C 27.2378 -16.6588 0.806758
C 43.694 -5.19755 2.97517
C 44.9423 -5.96759 2.42975
C 43.6421 -5.2257 0.364376
C 44.9197 -5.99248 0.886062
C 33.5617 -12.8666 1.175
C 42.4198 -7.52038 0.432883
C 38.7921 -23.0628 3.35023
C 40.0321 -23.8061 2.8092
C 38.743 -23.1029 0.744302
C 40.0003 -23.8199 1.26968
C 31.079 -17.3123 2.84228
C 31.0489 -17.3402 1.31642
C 31.0228 -14.3424 3.312
C 29.8034 -16.5737 3.3699
C 30.977 -14.3826 0.759
C 29.7593 -16.6207 0.81601
C 43.8907 -21.7076 1.1288
C 34.8678 -12.0774 3.263
C 34.8397 -10.6096 2.7
C 36.1474 -12.8065 2.713
C 34.8201 -12.1177 0.6
C 36.1195 -12.8297 1.122
C 45.1134 -20.8927 0.5459
C 41.3458 -23.1388 3.2876
C 41.2848 -23.1734 0.685115
C 41.2266 -9.77092 3.094
C 41.2124 -8.29198 2.541
C 42.5072 -10.51 2.555
C 42.4834 -10.5311 0.985
C 46.4384 -18.6018 3.15177
C 45.187 -19.4005 2.63527
C 37.4282 -15.0276 1.131
C 32.3365 -16.5502 3.301
C 33.6381 -17.2752 2.806
C 33.6092 -17.3014 1.259
C 29.705 -6.33321 2.7489
C 29.6602 -6.3343 1.20281
C 33.4064 -3.95806 1.06941
C 43.813 -12.7309 1.001
C 38.7373 -14.2425 3.221
C 40.0119 -14.9736 2.666
C 39.986 -14.9967 1.086
C 34.7145 -3.24556 3.15032
C 35.9863 -3.93934 2.57554
C 35.9596 -3.9615 1.0163
C 34.9585 -20.9344 3.35706
C 46.4146 -14.1506 0.517865
C 45.112 -11.9395 3.04835
C 46.4239 -12.654 2.5576
C 46.4013 -12.6665 1.00416
C 29.8715 -20.946 3.46091
C 31.0943 -21.7336 2.91663
C 31.0697 -21.7637 1.36093
C 27.2552 -10.7263 2.8473
C 27.2173 -10.7358 1.3102
C 30.9696 -8.47848 1.19027
C 41.3217 -17.1905 2.657
C 41.2968 -17.2136 1.115
C 31.1191 -18.7696 3.36885
C 36.2199 -18.6982 3.323
C 37.5015 -19.4262 2.778
C 37.4746 -19.4524 1.208
C 32.2643 -7.68435 3.20863
C 33.5159 -8.39876 2.679
C 33.4891 -8.42193 1.12
C 37.2821 -6.14294 1.0336
C 42.621 -16.4334 3.103
C 43.8959 -17.1656 2.61457
C 43.8688 -17.1856 1.08317
C 32.3912 -23.98 1.38091
C 47.7217 -14.8734 1.01347
C 38.5809 -5.36992 3.03953
C 39.8788 -6.07147 2.51933
C 39.8548 -6.09264 0.984089
C 28.4316 -12.9437 1.29736
C 49.0255 -14.1104 3.11559
C 34.9745 -23.8861 1.35905
C 45.1815 -20.8785 3.2026
C 29.7549 -12.155 3.32167
C 31.0117 -12.8714 2.792
C 30.9828 -12.8956 1.234
C 34.8118 -10.6328 1.118
C 40.0859 -20.8894 3.26814
C 41.349 -21.6587 2.74062
C 41.3238 -21.6746 1.19648
C 35.0059 -23.8593 2.90255
C 45.1496 -19.4006 1.07599
C 41.1886 -8.31313 0.985
C 36.116 -9.84365 3.194
C 37.3945 -10.5737 2.651
C 37.3687 -10.5959 1.069
C 41.3569 -18.6763 3.183
C 27.291 -16.6174 3.4699
C 28.5314 -17.339 2.90185
C 28.5037 -17.3681 1.34712
C 33.7081 -23.1749 3.42973
C 42.4574 -7.48642 3.0089
C 46.1494 -8.28689 -1.72518
C 47.4697 -10.4659 -1.7013
C 48.9585 -12.5886 -1.57318
C 23.2862 -13.0179 -1.25814
C 24.5567 -12.3085 -0.764597
C 23.3037 -14.4644 -0.731254
C 24.5775 -15.1432 -1.30077
C 20.771 -13.0665 -1.28187
C 22.0107 -12.3079 -0.750905
C 20.7883 -14.4845 -0.700992
C 22.0432 -15.1809 -1.27366
C 29.4503 -1.91347 -1.50092
C 30.6871 -1.13017 -1.02179
C 29.5328 -3.35266 -0.975408
C 31.9327 -1.84757 -1.58861
C 28.1617 -1.22565 -1.00368
C 30.5526 0.307159 -1.61259
C 44.6486 -1.44761 -1.80096
C 42.1997 -1.56417 -1.77905
C 43.3977 -0.736028 -1.24436
C 44.6974 -2.90082 -1.27571
C 43.3772 0.714942 -1.81135
C 45.902 -0.665352 -1.35706
C 50.2715 -11.8738 -1.06475
C 51.5766 -12.5327 -1.58778
C 50.2926 -14.6778 -1.71143
C 51.5599 -14.0034 -1.12423
C 52.8785 -11.8598 -1.05692
C 52.8321 -14.6723 -1.7082
C 45.0209 -25.4954 -1.00314
C 43.7548 -26.2093 -1.50343
C 44.9969 -24.0444 -1.56164
C 42.5319 -25.4177 -0.973116
C 46.2304 -26.2747 -1.584
C 43.7409 -27.6803 -1.00841
C 29.7558 -25.4929 -0.62217
C 31.003 -26.2166 -1.1669
C 29.8155 -24.0538 -1.21707
C 32.2739 -25.4697 -0.70666
C 28.4839 -26.2278 -1.13627
C 30.9581 -27.6921 -0.670851
C 37.351 -12.094 -1.04
C 38.6356 -12.8331 -1.584
C 33.5231 -14.3888 -0.914
C 32.193 -15.1751 -1.234
C 33.504 -12.9229 -1.488
C 34.8007 -15.1209 -1.492
C 43.6583 -8.29877 -1.61465
C 44.9203 -7.50685 -1.16832
C 43.7067 -9.77838 -1.07976
C 30.8044 -4.08609 -1.46094
C 43.8144 -23.2062 -0.949999
C 42.5131 -23.9266 -1.43133
C 43.8165 -21.7086 -1.44733
C 36.0939 -14.3469 -0.983
C 34.8288 -16.5808 -0.905
C 44.9756 -10.5139 -1.58111
C 39.9158 -12.0671 -1.079
C 39.8746 -10.5833 -1.635
C 41.2025 -12.8121 -1.624
C 28.5512 -18.8321 -0.740826
C 29.8186 -19.5632 -1.23219
C 32.0736 -3.29562 -0.993215
C 30.8587 -5.54445 -0.920457
C 46.2349 -9.73732 -1.12051
C 36.1183 -17.3038 -1.464
C 42.4818 -12.0452 -1.1
C 41.2426 -14.2869 -1.055
C 28.4455 -8.58554 -1.39629
C 43.4938 -3.76376 -1.73515
C 37.1797 -3.31918 -1.11448
C 32.1473 -6.25917 -1.42745
C 32.3142 -19.5821 -1.23187
C 33.5677 -18.8306 -0.764
C 32.3384 -21.0487 -0.727408
C 42.5764 -15.0506 -1.424
C 37.4126 -16.5427 -0.965
C 37.3855 -15.0729 -1.527
C 38.7091 -17.2707 -1.511
C 47.6401 -11.8985 -1.079
C 33.4037 -5.48645 -0.966554
C 33.3541 -4.02834 -1.51061
C 34.6822 -6.21188 -1.48003
C 29.6677 -7.81359 -0.864143
C 28.4257 -10.0164 -0.809309
C 38.4521 -4.01629 -1.61962
C 43.8265 -14.2489 -1.016
C 43.7834 -12.7871 -1.574
C 45.1012 -14.9484 -1.51098
C 33.6119 -21.7647 -1.24093
C 39.9935 -16.5167 -0.998
C 38.7253 -18.7416 -0.933
C 25.8651 -12.9866 -1.24987
C 35.957 -5.47134 -1.02148
C 34.7174 -7.66529 -0.953
C 39.6771 -3.23129 -1.15277
C 40.976 -3.8627 -1.66454
C 29.6829 -10.7523 -1.31552
C 31.0522 -23.2653 -0.686523
C 38.7169 -21.6619 -1.31656
C 40.0219 -19.4856 -1.408
C 46.3822 -14.1575 -1.03388
C 45.0936 -16.4133 -0.997902
C 30.9429 -9.98657 -0.848184
C 30.9362 -8.5237 -1.36568
C 32.1902 -10.701 -1.418
C 42.2054 -3.03491 -1.20125
C 41.0612 -5.33487 -1.11854
C 27.135 -12.228 -0.762144
C 25.8739 -14.4798 -0.737157
C 36.0197 -8.34922 -1.41
C 36.1657 -21.6955 -1.27752
C 37.4467 -20.9479 -0.803517
C 36.1976 -23.1524 -0.762928
C 33.4855 -9.93298 -0.973
C 32.2244 -12.1869 -0.916
C 46.3331 -17.1053 -1.56756
C 34.8442 -19.5427 -1.315
C 42.3395 -6.0575 -1.6444
C 37.2941 -7.61329 -0.952
C 37.2418 -6.18725 -1.51513
C 38.5745 -8.31036 -1.452
C 27.1604 -15.2079 -1.23829
C 47.6067 -16.3284 -1.08983
C 47.6705 -14.8499 -1.5635
C 37.4668 -23.814 -1.33674
C 32.3352 -24.0006 -1.21188
C 42.5605 -19.4705 -1.41989
C 43.8178 -18.6946 -0.947089
C 42.5582 -20.9564 -0.908624
C 28.4142 -14.4433 -0.739888
C 28.4033 -12.9756 -1.26174
C 29.6879 -15.1743 -1.2477
C 39.871 -7.5893 -1.04
C 38.599 -9.84424 -1.075
C 43.5996 -5.25013 -1.19484
C 44.8236 -6.05089 -1.77652
C 38.7217 -23.1115 -0.807449
C 39.9666 -23.8044 -1.39715
C 31.0141 -17.3746 -1.21624
C 30.9392 -14.4119 -0.779
C 29.7494 -16.6319 -0.727895
C 34.7882 -12.1419 -0.987
C 34.768 -10.661 -1.545
C 36.0708 -12.872 -1.539
C 41.2627 -23.1677 -0.866505
C 41.1599 -9.82234 -1.109
C 41.1347 -8.32747 -1.59
C 42.4605 -10.5553 -1.6
C 46.3153 -18.5902 -1.0652
C 45.0591 -19.4134 -1.50228
C 32.245 -16.6258 -0.725
C 33.4966 -17.3651 -1.228
C 29.6837 -6.39587 -1.48887
C 38.6737 -14.3109 -1.029
C 39.9694 -15.0488 -1.584
C 34.6546 -3.3256 -1.06801
C 35.9146 -4.0455 -1.58047
C 34.8836 -20.9951 -0.769272
C 45.047 -11.9874 -1.06369
C 46.3532 -12.6917 -1.55111
C 29.8335 -21.0083 -0.714888
C 31.0655 -21.7964 -1.21524
C 27.2024 -10.7853 -1.35505
C 41.3262 -17.2795 -1.365
C 31.0613 -18.8364 -0.715783
C 36.1424 -18.7717 -0.885
C 37.433 -19.5157 -1.378
C 32.1858 -7.72746 -0.911245
C 33.4562 -8.44014 -1.458
C 42.5774 -16.5037 -0.913
C 43.8204 -17.2133 -1.4438
C 38.5081 -5.43564 -1.06252
C 39.8051 -6.13496 -1.57202
C 48.9775 -14.0886 -1.08195
C 45.0603 -20.8951 -0.990845
C 29.6776 -12.218 -0.801285
C 30.9262 -12.9569 -1.343
C 40.0039 -20.9436 -0.849412
C 41.2691 -21.6879 -1.36362
C 34.9391 -23.8808 -1.29358
C 36.0442 -9.8821 -1.03
C 37.3207 -10.6082 -1.607
C 41.3013 -18.7456 -0.901
C 27.2446 -16.6654 -0.74317
C 28.5194 -17.3817 -1.24904
C 33.6318 -23.2455 -0.725612
C 42.3949 -7.54593 -1.11122
C 47.5331 -10.4324 5.20281
C 48.9777 -12.6261 5.18572
C 46.2211 -8.2322 5.15255
C 23.4174 -12.9582 5.56972
C 24.6627 -12.2471 5.02508
C 23.4181 -14.4205 5.08617
C 24.7066 -15.0692 5.63205
C 20.915 -12.9788 5.68865
C 22.1346 -12.2449 5.0879
C 20.9172 -14.4101 5.13823
C 22.1771 -15.1134 5.6864
C 29.4785 -1.91323 5.30247
C 30.7095 -1.14463 4.78985
C 29.5974 -3.34628 4.78051
C 31.9872 -1.83348 5.34409
C 28.173 -1.22694 4.80664
C 30.5664 0.259001 5.40619
C 44.8365 -1.41035 5.02581
C 42.378 -1.5335 5.14358
C 43.5488 -0.715272 4.53811
C 44.845 -2.86551 4.52429
C 43.5681 0.71966 5.11778
C 46.0653 -0.6389 4.48958
C 50.3084 -11.9308 4.72268
C 51.5937 -12.658 5.23142
C 51.5805 -14.121 4.71617
C 50.2961 -14.7558 5.29372
C 52.9039 -11.9816 4.74883
C 52.8213 -14.8727 5.26093
C 45.1056 -25.4795 4.79758
C 43.8298 -26.1652 5.3297
C 45.0907 -24.0312 5.38063
C 42.6212 -25.3576 4.82611
C 46.326 -26.2735 5.32614
C 43.7866 -27.6354 4.83829
C 29.9136 -25.3673 5.16646
C 32.4225 -25.3286 5.08363
C 29.969 -23.916 5.69371
C 31.2058 -26.0668 5.65304
C 31.1895 -27.5405 5.19491
C 28.7247 -26.1317 5.79681
C 37.4544 -12.0084 4.803
C 38.7579 -12.7303 5.319
C 33.6296 -14.2992 4.896
C 34.928 -15.0141 5.45
C 43.743 -8.2152 5.03805
C 44.9989 -7.45209 4.54649
C 43.7816 -9.70377 4.56069
C 32.3123 -15.0704 5.288
C 32.3464 -16.5342 4.82
C 30.8959 -4.05104 5.27726
C 43.9276 -23.1634 4.79299
C 42.6276 -23.8731 5.32997
C 36.1994 -14.2592 4.866
C 34.9352 -16.4881 4.904
C 45.0505 -10.4429 5.07615
C 40.0143 -11.9815 4.742
C 41.3179 -12.7104 5.26
C 28.6452 -18.7378 5.01773
C 29.9221 -19.4561 5.47249
C 38.7772 -14.2222 4.809
C 34.7359 -3.24993 4.69473
C 39.992 -10.4836 5.255
C 41.2534 -9.74176 4.668
C 32.1484 -3.26743 4.75044
C 30.9629 -5.51871 4.79039
C 46.3065 -9.68466 4.5898
C 36.2446 -17.195 5.439
C 45.1157 -11.9317 4.59848
C 31.1535 -18.7374 4.90946
C 32.4216 -19.463 5.40706
C 42.5743 -11.9636 4.676
C 41.3381 -14.2013 4.737
C 29.91 -20.9069 4.98888
C 28.5894 -8.52323 5.44949
C 43.6352 -3.69633 5.04216
C 37.2869 -3.20492 4.63917
C 32.2788 -6.19287 5.24941
C 33.6691 -18.734 4.877
C 32.4193 -20.9404 4.93564
C 42.6758 -14.959 5.083
C 37.518 -16.4521 4.864
C 38.8335 -17.1639 5.382
C 47.6871 -11.8848 4.63919
C 36.2458 -18.677 4.9
C 33.5002 -5.4272 4.70729
C 34.8102 -6.12706 5.18147
C 32.2941 -7.66827 4.75209
C 29.7916 -7.76726 4.84488
C 28.5391 -9.96596 4.90068
C 38.5722 -3.91402 5.10851
C 43.909 -14.1694 4.616
C 45.1785 -14.883 5.13084
C 33.71 -21.6293 5.43203
C 42.6629 -16.4241 4.616
C 40.0929 -16.4281 4.794
C 38.8257 -18.649 4.847
C 25.9818 -12.9176 5.49103
C 36.0624 -5.38788 4.64095
C 34.8139 -7.58469 4.682
C 39.7939 -3.15816 4.58102
C 41.1041 -3.79076 5.0717
C 29.8193 -10.6784 5.34881
C 38.6009 -5.3514 4.58004
C 31.1644 -23.1441 5.03928
C 38.8326 -21.5555 5.35426
C 40.1342 -19.3799 5.296
C 49.0061 -14.1192 4.68501
C 34.9804 -20.8966 4.89561
C 36.2839 -21.5754 5.39435
C 33.7263 -23.1247 4.97832
C 31.0572 -9.91903 4.80158
C 32.3116 -10.6003 5.333
C 42.3309 -2.98964 4.55541
C 41.1562 -5.26125 4.54668
C 29.7866 -12.1383 4.86669
C 27.2343 -12.1689 4.94169
C 25.9735 -14.4085 5.00051
C 36.1301 -8.25653 5.11
C 41.3918 -18.6601 4.718
C 42.6785 -19.389 5.23188
C 40.1195 -20.859 4.80918
C 37.5478 -20.8546 4.84847
C 36.2931 -23.0508 4.94433
C 33.5889 -9.84834 4.817
C 32.3299 -12.0992 4.876
C 45.1717 -16.374 4.66242
C 46.4282 -17.0903 5.18799
C 34.9635 -19.43 5.402
C 42.433 -5.97155 5.03917
C 37.3847 -7.53573 4.586
C 38.6789 -8.21971 5.059
C 27.2794 -15.1061 5.48173
C 36.1457 -9.79847 4.776
C 47.6718 -16.3267 4.68267
C 37.5704 -23.6972 5.51351
C 46.444 -18.5723 4.69622
C 43.9287 -18.6297 4.70067
C 42.673 -20.8901 4.76118
C 28.5186 -14.3603 4.92108
C 29.8073 -15.0752 5.39019
C 39.9596 -7.51375 4.587
C 38.6965 -9.76163 4.723
C 27.3507 -16.5745 5.01274
C 43.6981 -5.19891 4.53647
C 44.9316 -5.99328 5.10934
C 33.6294 -12.8191 5.427
C 42.4734 -7.4708 4.55255
C 38.8228 -23.0252 4.90174
C 40.0905 -23.6821 5.46223
C 31.1225 -17.2689 5.37677
C 31.0417 -14.3232 4.851
C 29.8431 -16.5429 4.91249
C 43.9509 -21.6475 5.26442
C 34.8937 -12.0553 4.852
C 36.1961 -12.7682 5.377
C 45.1863 -20.8347 4.74637
C 41.3781 -23.087 4.84223
C 42.5659 -10.4626 5.137
C 37.5118 -14.9671 5.382
C 33.6169 -17.2563 5.301
C 29.8318 -6.35029 5.43493
C 33.4641 -3.96455 5.22739
C 43.8746 -12.7017 5.12503
C 40.0907 -14.9441 5.336
C 36.0324 -3.93941 5.1712
C 46.439 -14.1234 4.62662
C 46.4101 -12.6574 5.11468
C 31.1565 -21.657 5.49723
C 27.3347 -10.7275 5.51752
C 31.0756 -8.45781 5.29344
C 41.4306 -17.1828 5.134
C 37.5524 -19.4059 5.365
C 33.5746 -8.3434 5.257
C 37.3593 -6.08961 5.10205
C 43.9246 -17.1384 5.16307
C 32.4655 -23.8536 5.53748
C 47.7113 -14.8542 5.15995
C 39.9087 -6.02979 5.06945
C 28.5313 -12.8904 5.40809
C 35.0436 -23.7135 5.56088
C 31.0466 -12.8532 5.371
C 34.8924 -10.5593 5.365
C 41.4133 -21.5966 5.30093
C 45.1988 -19.3431 5.21495
C 41.2391 -8.23782 5.115
C 37.4431 -10.5064 5.325
C 28.6334 -17.2746 5.49584
C 37.5234 -11.9647 7.42724
C 38.7753 -12.6763 6.8913
C 33.8535 -14.1498 7.62684
C 33.7235 -12.7606 6.99503
C 34.9869 -14.9658 7.04791
C 36.2944 -14.1591 7.50623
C 35.1566 -16.3659 7.66587
C 40.0544 -11.9125 7.37734
C 40.0196 -10.5068 6.79521
C 41.2983 -12.6252 6.80545
C 36.3115 -17.0768 7.02666
C 41.2292 -14.0525 7.44952
C 37.5851 -16.3624 7.53577
C 37.5579 -14.9025 6.95639
C 38.8764 -17.0675 6.97326
C 40.0474 -16.2371 7.5688
C 38.7578 -9.83925 7.42972
C 34.9739 -11.9808 7.49215
C 34.9536 -10.568 6.91048
C 36.2612 -12.7341 6.93386
C 38.8248 -14.1223 7.43062
C 40.0894 -14.8656 6.93241
C 36.2477 -9.8704 7.50165
C 37.4857 -10.4777 6.90691
C 37.5603 -11.8982 9.01843
C 38.8474 -12.5943 9.51514
C 33.8554 -14.0873 9.28187
C 35.1314 -14.8254 9.75401
C 36.3445 -14.0877 9.08789
C 35.1398 -16.2679 9.27029
C 40.0975 -11.8485 8.94452
C 41.3406 -12.6125 9.48867
C 38.8542 -14.0751 9.03077
C 40.0572 -10.4061 9.50126
C 36.4064 -17.0019 9.76833
C 41.3175 -14.0716 9.03188
C 37.6175 -16.2986 9.12848
C 38.869 -16.95 9.71927
C 40.056 -16.2357 9.17091
C 36.319 -9.76564 9.0645
C 38.8101 -9.70975 8.99919
C 33.8549 -12.6299 9.74222
C 35.0297 -11.9051 9.08559
C 36.3403 -12.6368 9.59195
C 37.6071 -14.7994 9.59351
C 40.1077 -14.7926 9.60687
C 35.0753 -10.4285 9.63916
C 37.5735 -10.4243 9.5447
C 37.6618 -11.8638 11.6187
C 38.8922 -12.5765 11.0884
C 33.9744 -14.0493 11.8601
C 33.9123 -12.6464 11.2726
C 35.1677 -14.7904 11.2957
C 36.4366 -14.0455 11.7304
C 35.2365 -16.2092 11.8879
C 40.1707 -11.8172 11.5514
C 40.0995 -10.3895 11.0013
C 41.3847 -12.5336 11.0071
C 36.4444 -16.9467 11.3116
C 41.4313 -13.9335 11.5945
C 37.7028 -16.1979 11.7661
C 37.6606 -14.7702 11.1819
C 38.9388 -16.891 11.2202
C 40.1801 -16.114 11.7023
C 38.8966 -9.70923 11.5968
C 35.1619 -11.8673 11.7284
C 35.0959 -10.4484 11.1626
C 36.4014 -12.6185 11.1584
C 38.9288 -14.0026 11.6544
C 40.1729 -14.6937 11.1255
C 36.3668 -9.7441 11.6707
C 37.6298 -10.4133 11.091
C 37.6986 -11.8411 13.1909
C 38.9495 -12.5023 13.6979
C 34.0791 -13.9906 13.3852
C 35.3085 -14.7084 13.9142
C 36.5016 -13.9868 13.2865
C 35.3039 -16.1366 13.4333
C 40.1675 -11.788 13.1147
C 41.4186 -12.4506 13.6675
C 38.9568 -13.9361 13.2227
C 40.1279 -10.3738 13.6525
C 36.561 -16.8078 13.9365
C 41.4428 -13.8622 13.124
C 37.7434 -16.0862 13.3017
C 39.0108 -16.6979 13.8265
C 40.1999 -16.0044 13.2201
C 36.4473 -9.69013 13.2033
C 38.898 -9.71605 13.115
C 34.1313 -12.5791 13.909
C 35.2626 -11.831 13.2944
C 36.5182 -12.5452 13.7673
C 37.7487 -14.648 13.7846
C 40.2415 -14.5939 13.7068
C 35.2742 -10.4274 13.8416
C 37.6855 -10.3883 13.7016
C 37.7702 -11.7908 15.8123
C 38.9869 -12.4628 15.2512
C 34.2082 -13.9329 16.0597
C 34.1579 -12.5529 15.4325
C 35.3933 -14.669 15.4655
C 36.6046 -13.9305 15.9177
C 35.4683 -16.0583 16.0768
C 40.2168 -11.7419 15.7415
C 40.1633 -10.3582 15.168
C 41.4292 -12.4222 15.19
C 36.6595 -16.7434 15.444
C 41.4771 -13.7976 15.7863
C 37.8925 -16.0122 15.8983
C 37.8154 -14.606 15.3255
C 39.0961 -16.6666 15.3433
C 40.2963 -15.9248 15.8505
C 38.9676 -9.67601 15.783
C 35.3634 -11.821 15.93
C 35.3205 -10.431 15.3684
C 36.5748 -12.5252 15.3532
C 39.0305 -13.8634 15.802
C 40.2538 -14.5478 15.2633
C 36.5291 -9.69602 15.8748
C 37.7138 -10.3779 15.2807
C 37.8306 -11.7897 17.3569
C 39.052 -12.4285 17.8235
C 34.2855 -13.9405 17.574
C 35.527 -14.5859 18.0681
C 36.6937 -13.9219 17.431
C 35.5914 -16.0153 17.5911
C 40.2402 -11.7312 17.2852
C 41.4397 -12.4119 17.8463
C 39.0706 -13.8111 17.3279
C 40.2016 -10.3565 17.8391
C 36.8375 -16.5983 18.1056
C 41.4669 -13.7757 17.2921
C 37.9885 -15.9266 17.4482
C 39.2103 -16.5755 17.9775
C 40.3456 -15.889 17.35
C 36.5796 -9.74589 17.3855
C 39.0006 -9.70899 17.2992
C 34.2622 -12.5554 18.0799
C 35.4192 -11.8529 17.4701
C 36.6723 -12.5236 17.9206
C 37.9409 -14.5402 17.9277
C 40.2896 -14.4909 17.831
C 35.4499 -10.4719 18.0425
C 37.8121 -10.4084 17.8552
C 37.327 -12.1735 -3.65346
C 38.5942 -12.8812 -3.14167
C 33.6234 -14.4026 -3.52849
C 34.8381 -15.1622 -3.01879
C 36.0679 -14.4254 -3.58003
C 34.9777 -16.5395 -3.56982
C 39.8609 -12.1086 -3.71508
C 41.0982 -12.8246 -3.21458
C 38.5952 -14.3927 -3.65037
C 39.8189 -10.6558 -3.22046
C 36.1997 -17.3232 -2.95722
C 41.0286 -14.1989 -3.78878
C 37.4148 -16.5889 -3.54663
C 38.7191 -17.2344 -3.06848
C 39.8776 -16.4555 -3.75723
C 36.0306 -10.1551 -3.72843
C 38.5081 -10.1167 -3.8247
C 33.5317 -12.9728 -3.00607
C 34.7526 -12.2212 -3.60112
C 36.0214 -12.9239 -3.07901
C 37.3369 -15.104 -3.05093
C 39.9402 -15.048 -3.14864
C 34.7792 -10.758 -3.11427
C 37.2707 -10.7027 -3.1806
C 37.2377 -12.2823 -5.23958
C 38.4843 -12.971 -5.72758
C 33.5565 -14.4241 -5.11076
C 33.4618 -13.0506 -5.6551
C 34.7785 -15.1694 -5.62487
C 36.0341 -14.447 -5.13399
C 34.8738 -16.5795 -5.11114
C 39.7594 -12.201 -5.30508
C 39.6124 -10.8386 -5.98396
C 40.9061 -12.9354 -5.95512
C 36.0758 -17.3094 -5.62475
C 40.9422 -14.3208 -5.40643
C 37.342 -16.5534 -5.10224
C 37.2918 -15.1034 -5.65936
C 38.5973 -17.2118 -5.74201
C 39.812 -16.4186 -5.328
C 38.4016 -10.1785 -5.44419
C 34.7166 -12.2945 -5.16751
C 34.7426 -10.914 -5.74022
C 35.9991 -13.0356 -5.66004
C 38.5363 -14.3847 -5.19832
C 39.7281 -15.0316 -5.86179
C 35.9443 -10.1967 -5.29424
C 37.1736 -10.9049 -5.87936
C 37.1305 -12.3188 -7.85415
C 38.3451 -12.9988 -7.36153
C 33.528 -14.477 -7.66414
C 34.7561 -15.1748 -7.11327
C 35.9482 -14.4606 -7.68257
C 34.7615 -16.5903 -7.64521
C 39.5406 -12.2983 -7.99906
C 40.7376 -12.9879 -7.49314
C 38.363 -14.4596 -7.85416
C 39.549 -10.8922 -7.50252
C 36.0318 -17.2851 -7.12374
C 40.771 -14.3919 -8.03269
C 37.2146 -16.5501 -7.71359
C 38.4492 -17.2217 -7.22721
C 39.5913 -16.5058 -7.9077
C 35.9042 -10.2415 -7.84603
C 38.3028 -10.2285 -8.03103
C 33.5053 -13.0627 -7.1382
C 34.687 -12.3625 -7.75608
C 35.9343 -13.0235 -7.22772
C 37.2347 -15.1424 -7.1999
C 39.6028 -15.1274 -7.35398
C 34.7128 -10.9294 -7.24115
C 37.1307 -10.9024 -7.39086
C 37.0458 -12.3952 -9.41255
C 38.2294 -13.0786 -9.98182
C 33.4925 -14.4962 -9.16415
C 33.418 -13.1132 -9.75216
C 34.639 -15.2809 -9.72983
C 35.8653 -14.5202 -9.26273
C 34.7384 -16.6525 -9.12012
C 39.4148 -12.3337 -9.53898
C 39.3964 -10.9745 -10.1916
C 40.6026 -13.0536 -10.133
C 35.9183 -17.3153 -9.73996
C 40.6796 -14.4006 -9.53628
C 37.139 -16.5721 -9.25532
C 37.0453 -15.2039 -9.80551
C 38.3144 -17.2569 -9.87262
C 39.5173 -16.5596 -9.4339
C 38.2435 -10.2594 -9.55069
C 34.638 -12.4 -9.24284
C 34.6067 -10.9983 -9.82167
C 35.8187 -13.1183 -9.81368
C 38.2824 -14.4856 -9.41558
C 39.4848 -15.1757 -9.98472
C 35.834 -10.2942 -9.36426
C 37.0489 -10.9762 -9.98523
C 36.9373 -12.4722 -12.0071
C 38.1537 -13.1457 -11.531
C 33.3733 -14.527 -11.6931
C 34.5656 -15.2762 -11.2283
C 35.7661 -14.5671 -11.8192
C 34.5406 -16.6735 -11.7675
C 39.3544 -12.5139 -12.2295
C 40.5565 -13.1443 -11.6478
C 38.1325 -14.5466 -11.9766
C 39.3348 -11.0564 -11.7233
C 35.8085 -17.3636 -11.2924
C 40.5618 -14.5561 -12.2176
C 37.0125 -16.6426 -11.897
C 38.2219 -17.2873 -11.3654
C 39.373 -16.5951 -12.0338
C 35.6806 -10.3626 -11.9719
C 38.1428 -10.4199 -12.3309
C 33.3512 -13.1276 -11.2075
C 34.5557 -12.4559 -11.7767
C 35.7744 -13.1606 -11.3491
C 36.9637 -15.2301 -11.3371
C 39.3776 -15.2012 -11.541
C 34.5633 -11.0455 -11.3246
C 36.961 -11.0331 -11.5551
C 36.8442 -12.5268 -13.5234
C 37.9644 -13.2608 -14.1201
C 33.3438 -14.5477 -13.2356
C 33.345 -13.255 -13.8664
C 34.4711 -15.2637 -13.7519
C 35.6954 -14.6034 -13.319
C 34.4736 -16.648 -13.2229
C 39.2499 -12.5824 -13.7697
C 39.1287 -11.3889 -14.734
C 40.4387 -13.3449 -14.3843
C 35.6285 -17.3074 -13.8732
C 40.4263 -14.6634 -13.7107
C 36.8709 -16.6511 -13.4208
C 36.8199 -15.2814 -13.9343
C 38.003 -17.2995 -14.0955
C 39.1908 -16.6617 -13.5533
C 38.1134 -10.6085 -13.83
C 34.5141 -12.4966 -13.3036
C 34.4347 -11.1911 -13.953
C 35.6068 -13.2736 -13.8927
C 38.0303 -14.5915 -13.5296
C 39.1785 -15.3172 -14.1209
C 35.5993 -10.4636 -13.4272
C 36.7404 -11.2189 -14.1576
C 44.7871 1.48643 4.53139
C 44.7692 1.4727 2.96609
C 44.6931 1.4576 0.26667
C 46.0651 0.791563 5.05483
C 46.0108 0.764587 2.34759
C 45.9691 0.740179 0.786733
C 45.837 0.773474 -1.90872
C 44.6207 1.4867 -1.28249
C 28.1013 0.220536 5.36179
C 29.3337 0.972095 4.80552
C 29.3255 0.959144 3.24677
C 28.1116 0.18452 2.6747
C 28.1129 0.210336 1.10634
C 29.3166 0.992668 0.520133
C 29.289 0.983402 -1.03318
C 28.0769 0.204114 -1.57175
C 28.7098 -27.583 5.26941
C 28.6641 -27.6143 3.70714
C 28.5574 -27.6387 0.991932
C 28.4544 -27.6557 -0.553718
C 29.9859 -28.2709 5.80974
C 29.8964 -28.3257 3.09831
C 29.8387 -28.3539 1.53011
C 29.6555 -28.3827 -1.17749
C 46.2343 -27.7226 -1.01888
C 45.0185 -28.3936 5.3852
C 46.2659 -27.72 4.79231
C 44.9573 -28.4241 2.69101
C 46.2334 -27.741 3.23719
C 44.958 -28.4374 1.12657
C 46.2074 -27.7395 0.540691
C 44.9777 -28.4162 -1.58811
C 54.0891 -14.1914 4.69754
C 54.0935 -14.1597 3.14484
C 54.0836 -14.0728 0.437747
C 54.0977 -14.0251 -1.11547
C 54.1265 -12.7705 5.28972
C 54.105 -12.7038 2.61381
C 54.1121 -12.6505 1.05991
C 54.1303 -12.5816 -1.62838
H 24.5181 -11.2258 1.04925
H 24.5872 -16.1657 3.24278
H 24.5303 -16.1763 1.09056
H 24.5651 -11.2046 3.18426
H 22.0587 -11.2114 1.07046
H 22.1102 -16.18 3.28115
H 22.0604 -16.1979 1.14129
H 22.0934 -11.1931 3.24153
H 32.8316 -1.23801 0.801845
H 28.6805 -3.84963 2.96777
H 28.6395 -3.83372 0.858526
H 32.841 -1.21884 2.89439
H 31.4654 0.85599 0.760606
H 27.2926 -1.80285 2.96714
H 27.2996 -1.79853 0.835472
H 31.5013 0.757372 2.93586
H 45.7587 -3.33628 2.69776
H 45.7024 -3.37054 0.490704
H 41.4286 -0.980721 2.77712
H 41.3784 -0.995537 0.623536
H 46.9302 -1.18181 2.61654
H 46.9015 -1.20688 0.442253
H 42.6049 1.2486 2.73711
H 42.5418 1.22547 0.581175
H 50.3045 -15.7362 0.742941
H 50.3313 -10.877 2.89935
H 50.2882 -10.8491 0.774237
H 50.3818 -15.8156 2.85816
H 52.7513 -15.7584 0.640112
H 52.9099 -10.9088 2.92532
H 52.9253 -10.8492 0.8024
H 52.8063 -15.8729 2.78771
H 46.0508 -23.591 2.9551
H 45.9537 -23.5883 0.815226
H 41.7029 -25.9041 2.99241
H 41.6433 -25.9716 0.84372
H 47.2223 -25.8243 2.88886
H 54.0815 -12.8304 6.37814
H 55.0619 -12.2495 5.09983
H 39.912 -24.8546 0.984664
H 37.5674 -24.8313 3.18311
H 37.4986 -24.8591 1.0321
H 35.0858 -24.8963 3.21165
H 48.5728 -16.9243 2.85921
H 46.1211 -21.3539 2.9355
H 55.0455 -12.0658 -1.35626
H 46.0223 -21.3988 0.820602
H 47.3657 -19.0934 2.88849
H 47.2705 -19.0444 0.784066
H 45.8407 -5.51565 0.554255
H 45.8473 -5.45639 2.74501
H 34.7429 -2.2167 2.88157
H 34.7349 -2.20965 0.716209
H 37.2499 -2.18175 2.79265
H 37.2111 -2.1985 0.668274
H 39.6116 -2.13749 0.634952
H 39.6735 -2.12436 2.75941
H 28.9394 -21.4341 3.20836
H 28.8952 -21.4698 1.10968
H 26.4181 -17.2075 3.22945
H 27.6964 -19.3312 3.22988
H 27.6485 -19.3568 1.09381
H 26.3656 -17.2313 1.09419
H 28.7156 -5.90315 0.899903
H 26.392 -10.1644 3.16995
H 27.5994 -8.02796 3.10806
H 27.5436 -8.04562 0.987866
H 26.3397 -10.1732 1.02503
H 28.7708 -5.90537 3.08562
H 42.8491 -28.1971 -1.36059
H 33.1358 -26.0041 -1.09343
H 28.8751 -23.5611 -1.00356
H 31.8209 -28.2292 -1.06644
H 27.5731 -25.6795 -0.915465
H 47.0842 -7.74185 -1.58176
H 48.3462 -9.84579 -1.55824
H 24.5312 -16.2076 -1.10186
H 24.5013 -11.2993 -1.15061
H 22.0498 -16.2413 -1.03758
H 21.9828 -11.2887 -1.12997
H 28.6413 -3.85757 -1.32199
H 32.8089 -1.23576 -1.41284
H 27.2901 -1.78353 -1.34229
H 31.4422 0.903386 -1.41038
H 45.6079 -3.3389 -1.67376
H 41.2878 -1.03153 -1.54878
H 46.7964 -1.15949 -1.73266
H 42.4539 1.23653 -1.57385
H 50.2719 -10.8405 -1.39322
H 50.3425 -15.7456 -1.56642
H 52.9047 -10.8203 -1.38444
H 52.8154 -15.7297 -1.52849
H 45.9544 -23.5839 -1.37583
H 41.6672 -25.9524 -1.34463
H 47.1637 -25.765 -1.40761
H 39.9077 -24.8649 -1.19921
H 37.4723 -24.8867 -1.14548
H 35.0252 -24.9462 -1.09433
H 48.4614 -16.8377 -1.50405
H 45.9479 -21.3641 -1.39207
H 47.198 -19.0542 -1.49772
H 45.776 -5.53873 -1.64289
H 34.6981 -2.31399 -1.46624
H 37.1578 -2.29175 -1.49117
H 39.5536 -2.22725 -1.53556
H 28.926 -21.4656 -1.09072
H 26.3989 -17.2343 -1.10041
H 27.6695 -19.3691 -1.09126
H 26.3125 -10.2014 -1.15887
H 27.5126 -8.05174 -1.19042
H 28.7158 -5.9438 -1.31879
H 47.3429 -10.564 -2.78388
H 48.9621 -12.5662 -2.66535
H 46.0467 -8.36557 -2.81448
H 23.276 -13.0132 -2.34898
H 24.584 -15.0559 -2.39037
H 20.8035 -13.1083 -2.37043
H 22.0241 -15.115 -2.3634
H 29.4372 -1.95468 -2.58993
H 31.8619 -1.95292 -2.6758
H 30.4682 0.251464 -2.69928
H 44.6 -1.46856 -2.89115
H 42.2438 -1.61997 -2.86977
H 43.4128 0.675117 -2.90255
H 51.5684 -12.4661 -2.67747
H 50.2621 -14.5283 -2.79362
H 52.8312 -14.5477 -2.7885
H 43.7044 -26.2143 -2.59271
H 44.8831 -24.0727 -2.65086
H 46.1668 -26.2892 -2.67194
H 29.8724 -24.1171 -2.30758
H 30.9799 -26.2247 -2.25593
H 28.5084 -26.2834 -2.22834
H 43.6221 -8.34308 -2.70505
H 31.943 -15.3407 -2.274
H 30.7859 -4.12398 -2.55232
H 42.4586 -23.8875 -2.52234
H 44.9427 -10.552 -2.67094
H 29.8115 -19.568 -2.31749
H 32.2742 -19.5922 -2.32095
H 28.4892 -8.64268 -2.48582
H 43.4526 -3.81196 -2.82582
H 32.1409 -6.26793 -2.51854
H 42.7786 -15.2434 -2.469
H 34.6508 -6.23082 -2.56868
H 38.4377 -4.05182 -2.70299
H 45.1072 -14.9727 -2.60054
H 33.6109 -21.7611 -2.33184
H 25.8732 -13.0079 -2.34166
H 40.9597 -3.90493 -2.75432
H 29.678 -10.7908 -2.40605
H 38.7046 -21.674 -2.41106
H 40.0501 -19.5973 -2.47795
H 36.1364 -21.717 -2.37113
H 32.1051 -10.6846 -2.497
H 36.0381 -8.0911 -2.461
H 42.541 -19.4931 -2.50974
H 46.3206 -17.0868 -2.65375
H 34.7724 -19.5812 -2.394
H 42.3115 -6.08907 -2.73511
H 38.5339 -8.04961 -2.501
H 27.1655 -15.2017 -2.32829
H 37.4156 -23.7402 -2.43018
H 29.665 -15.1853 -2.33715
H 44.7167 -6.13149 -2.86267
H 39.9319 -23.7202 -2.4894
H 30.9901 -17.3782 -2.30411
H 43.8135 -21.7441 -2.53939
H 42.5064 -10.53 -2.681
H 33.2173 -17.4758 -2.267
H 29.7813 -6.47225 -2.57656
H 33.3217 -4.05988 -2.60133
H 43.8117 -12.8369 -2.654
H 35.9033 -4.07792 -2.6649
H 46.3348 -12.7172 -2.64126
H 31.0403 -21.816 -2.30455
H 27.2721 -10.8587 -2.44448
H 30.9204 -8.53772 -2.45693
H 41.5631 -17.419 -2.412
H 37.3932 -19.6423 -2.46011
H 33.446 -8.4012 -2.539
H 37.2225 -6.19734 -2.60417
H 43.8188 -17.227 -2.53396
H 32.3165 -24.009 -2.30261
H 47.6655 -14.8371 -2.65505
H 39.7853 -6.14913 -2.66142
H 28.3807 -13.0088 -2.35253
H 34.9133 -23.8221 -2.38614
H 30.8605 -13.0103 -2.422
H 41.2673 -21.7223 -2.45494
H 45.0136 -19.4275 -2.58747
H 41.1094 -8.28462 -2.671
H 28.5135 -17.3747 -2.33367
H 42.8893 -28.1134 5.21886
H 33.2867 -25.8543 5.463
H 29.0103 -23.4455 5.51043
H 32.0918 -28.0204 5.55832
H 27.7829 -25.6249 5.60425
H 48.434 -9.85482 5.06269
H 47.1503 -7.6783 4.97274
H 24.6132 -11.233 5.39785
H 24.6606 -16.1382 5.46201
H 22.1302 -11.2152 5.43788
H 22.1608 -16.1806 5.48085
H 32.86 -1.21787 5.16163
H 28.7206 -3.85599 5.14537
H 31.4668 0.831614 5.25929
H 27.3173 -1.78451 5.18608
H 45.7451 -3.33463 4.90465
H 41.4656 -0.974627 4.99259
H 46.9489 -1.14644 4.84445
H 42.6458 1.25884 4.92407
H 50.3335 -15.8272 5.14031
H 50.3414 -10.9185 5.10082
H 52.7969 -15.9294 5.0069
H 52.9446 -10.9575 5.12685
H 46.0597 -23.5616 5.22158
H 41.7527 -25.8848 5.20172
H 47.2602 -25.7912 5.06277
H 35.1321 -24.7894 5.43956
H 39.9871 -24.757 5.33927
H 37.5867 -24.7787 5.38674
H 48.5196 -16.8752 5.06425
H 46.104 -21.2945 5.11808
H 47.35 -19.0659 5.05594
H 45.8691 -5.49259 4.92034
H 34.7738 -2.22848 5.07215
H 37.2829 -2.18832 5.02206
H 39.7111 -2.1446 4.95825
H 29.0164 -21.3631 5.38816
H 27.7745 -19.2606 5.41489
H 26.5206 -17.1328 5.41508
H 28.8545 -5.90128 5.34085
H 27.6482 -7.99143 5.28197
H 26.4346 -10.148 5.3661
H 43.7316 -8.21254 6.12776
H 30.8908 -4.04172 6.36961
H 42.6241 -23.8561 6.42207
H 43.9726 -21.6419 6.35574
H 45.0459 -10.4509 6.16808
H 29.9629 -19.4576 6.5571
H 28.6963 -8.5536 6.5361
H 43.652 -3.69267 6.13424
H 32.3242 -6.20193 6.33994
H 32.43 -19.4388 6.4968
H 42.902 -15.1436 6.125
H 33.4698 -3.96174 6.31963
H 34.8239 -6.11152 6.27228
H 38.5961 -3.89917 6.19461
H 43.946 -12.7161 6.214
H 45.1783 -14.8731 6.22048
H 33.7439 -21.5828 6.52146
H 26.0216 -12.9065 6.58304
H 41.1276 -3.80241 6.16189
H 29.8896 -10.6638 6.43741
H 38.8388 -21.4988 6.44486
H 40.2113 -19.3854 6.375
H 31.133 -8.46161 6.38347
H 32.2683 -10.5516 6.413
H 36.1803 -7.96722 6.152
H 36.2766 -21.5344 6.48494
H 46.4223 -17.0865 6.27224
H 34.9325 -19.4332 6.484
H 42.445 -6.01027 6.13021
H 37.3818 -6.05454 6.1908
H 38.6591 -7.92683 6.1
H 27.3133 -15.091 6.57109
H 47.6881 -14.8356 6.2492
H 37.5971 -23.5645 6.59854
H 32.5066 -23.813 6.62698
H 42.6824 -19.36 6.32171
H 28.5592 -12.8749 6.49916
H 29.8139 -15.0607 6.48017
H 44.8467 -6.05467 6.19195
H 40.1242 -23.552 6.55079
H 31.1513 -17.2663 6.4639
H 41.2834 -8.11915 6.19388
H 42.6738 -10.3666 6.18857
H 45.2095 -19.3155 6.29821
H 33.3814 -17.3258 6.355
H 29.9938 -6.40638 6.51567
H 36.0539 -3.92916 6.25623
H 46.4005 -12.6608 6.20639
H 31.1731 -21.6216 6.58544
H 27.4719 -10.7786 6.60329
H 41.6974 -17.3041 6.176
H 37.5807 -19.4647 6.445
H 33.5953 -8.24784 6.33365
H 43.9241 -17.1258 6.25278
H 39.9247 -6.01122 6.16
H 31.0227 -12.8743 6.453
H 41.4338 -21.5658 6.39144
H 35.0575 -23.563 6.64884
H 28.6552 -17.2649 6.58051
H 46.0968 -8.29201 6.24338
H 47.4138 -10.5027 6.29172
H 48.9237 -12.6045 6.27633
H 23.4411 -12.9346 6.65959
H 24.7426 -14.9673 6.7198
H 20.9939 -12.9985 6.77535
H 22.1924 -15.0236 6.77402
H 29.4509 -1.92358 6.39193
H 31.9481 -1.91695 6.42701
H 30.4399 0.194237 6.48448
H 44.878 -1.41038 6.11574
H 42.5218 -1.60081 6.22484
H 43.6654 0.664657 6.20611
H 51.5942 -12.6534 6.3225
H 50.2761 -14.63 6.38145
H 52.8221 -14.8196 6.35174
H 43.8324 -26.1589 6.42016
H 44.9819 -24.0723 6.47146
H 46.3094 -26.2954 6.41842
H 31.2722 -26.073 6.74327
H 30.1056 -23.9299 6.7767
H 28.8571 -26.1364 6.87868
H 32.1041 -15.1927 6.343
H 19.9613 -12.4558 3.27448
H 19.9176 -12.4666 1.14912
H 19.8469 -12.5421 -1.04904
H 19.9833 -12.4616 5.47715
H 19.9707 -14.9287 3.32762
H 19.8961 -15.0227 -1.01591
H 20.0346 -14.9377 5.49388
H 44.7376 2.51785 4.8753
H 44.7037 2.50511 0.555752
H 46.9603 1.35058 4.79953
H 46.0487 0.761364 6.14443
H 46.9188 1.29706 2.62453
H 46.8559 1.28318 0.460662
H 45.7267 0.756921 -2.99152
H 46.7643 1.31423 -1.73259
H 44.5855 2.52688 -1.59968
H 28.1354 0.196896 6.45296
H 27.1514 0.695181 5.12528
H 29.3109 2.00731 5.14105
H 29.2736 2.00449 2.96109
H 27.1852 0.689855 2.94053
H 27.15 0.655403 0.849043
H 29.276 2.03879 0.809035
H 29.2478 2.02108 -1.36184
H 27.1271 0.692184 -1.35157
H 28.1072 0.164665 -2.66137
H 27.8183 -28.0804 5.64505
H 27.6796 -28.1787 1.33316
H 27.5223 -28.1308 -0.848982
H 30.0149 -28.1875 6.89384
H 29.997 -29.3356 5.59063
H 29.8994 -29.373 3.38772
H 29.8279 -29.4057 1.25926
H 29.6377 -29.4429 -0.936666
H 29.6184 -28.3163 -2.26437
H 47.1272 -28.2434 -1.36255
H 44.9701 -29.4541 5.16179
H 45.0386 -28.313 6.47044
H 47.1492 -28.2639 5.12372
H 44.9159 -29.4632 3.0063
H 47.1169 -28.2989 2.95198
H 44.9441 -29.4885 0.843046
H 47.1078 -28.2762 0.818456
H 44.9729 -28.3442 -2.67565
H 44.9835 -29.4795 -1.3538
H 54.9727 -14.726 5.03959
H 54.9888 -14.6918 2.83827
H 54.9792 -14.6189 0.715135
H 54.976 -14.5587 -1.47275
H 47.1099 -25.8229 0.767455
H 35.0528 -24.9295 1.06755
H 39.927 -24.8404 3.12199
H 55.0188 -12.1969 2.91435
H 55.0287 -12.1161 0.814552
H 48.533 -16.8399 0.756931
H 54.0833 -12.5794 -2.71718
H 32.8838 -14.6087 7.89617
H 32.8236 -12.2856 7.43939
H 38.9289 -17.999 9.43415
H 34.3644 -17.0868 7.8987
H 35.5546 -9.00934 7.65049
H 40.8955 -9.99631 7.13187
H 42.1847 -12.1447 7.09494
H 42.2461 -14.5941 9.24126
H 40.9758 -16.7226 9.42126
H 36.3349 -18.0925 7.35683
H 42.3438 -13.9791 7.58116
H 34.1711 -9.87379 9.38363
H 36.3633 -18.0735 9.50256
H 39.4493 -8.93307 7.50543
H 36.3004 -8.69188 9.26198
H 38.8139 -8.6528 9.21924
H 38.9148 -18.0641 7.35621
H 32.9369 -12.1077 9.53313
H 34.086 -10.0322 7.2858
H 41.1106 -16.5767 7.76823
H 32.9274 -14.65 9.60881
H 34.2387 -16.8456 9.60559
H 42.2495 -12.1068 9.18432
H 40.9459 -9.83466 9.22311
H 33.0588 -14.6042 11.7358
H 32.9788 -12.1686 11.561
H 39.0294 -17.7166 13.585
H 34.2976 -16.7222 11.6477
H 36.3325 -8.70378 11.3913
H 40.9925 -9.80826 11.2464
H 42.3072 -11.9998 11.2072
H 42.334 -14.3936 13.3676
H 41.0819 -16.477 13.4788
H 36.4216 -18.0069 11.5835
H 42.3737 -14.4528 11.3563
H 34.376 -9.94639 13.5719
H 36.5811 -17.8193 13.6263
H 38.9025 -8.65529 11.3364
H 36.4733 -8.66469 13.4664
H 38.8492 -8.71033 13.3701
H 38.9865 -17.9312 11.5471
H 33.2251 -12.0992 13.6476
H 34.1796 -9.93216 11.4712
H 41.1108 -16.6468 11.4376
H 33.2108 -14.4721 13.721
H 34.4124 -16.6259 13.76
H 42.2496 -11.8702 13.3284
H 40.9675 -9.84819 13.3206
H 40.2437 -10.3204 18.9197
H 41.4393 -12.4302 18.9468
H 37.9859 -14.4998 19.0138
H 39.2698 -16.5734 19.0659
H 36.7122 -12.4896 19.0114
H 35.5785 -14.5554 19.1559
H 34.2791 -12.4763 19.1563
H 35.5451 -10.4757 19.127
H 37.869 -10.3852 18.9454
H 36.8969 -16.5236 19.1789
H 39.1005 -12.4311 18.9062
H 40.3154 -14.4544 18.916
H 33.3631 -14.4922 15.8105
H 33.2797 -12.0385 15.6679
H 39.1649 -17.5516 17.6847
H 34.56 -16.5237 15.8638
H 36.5384 -8.6978 15.6206
H 41.0521 -9.86496 15.4082
H 42.2637 -11.8723 15.4689
H 42.2625 -14.3042 17.6968
H 41.241 -16.264 17.6325
H 36.7449 -17.7285 15.8002
H 42.2961 -14.3905 15.4622
H 34.5427 -10.0545 17.8051
H 36.9553 -17.5936 17.869
H 38.9104 -8.6935 15.451
H 36.661 -8.78146 17.753
H 38.8984 -8.7536 17.628
H 39.1021 -17.6575 15.6556
H 33.4405 -12.0328 17.7131
H 34.4533 -9.97705 15.696
H 41.1771 -16.3783 15.5157
H 33.4943 -14.4833 17.9275
H 34.7092 -16.3334 18.0273
H 42.2309 -11.8283 17.5676
H 41.0512 -9.92785 17.471
H 38.4149 -9.14949 -5.71275
H 33.1461 -15.4942 -3.69639
H 33.9562 -10.2622 -3.514
H 34.6072 -17.6451 -3.70341
H 41.9787 -12.3136 -3.5162
H 32.6241 -14.9949 -5.22013
H 32.51 -12.5385 -5.42385
H 40.619 -10.0707 -3.60877
H 36.0321 -9.07973 -3.94393
H 35.8815 -9.17024 -5.64252
H 33.9858 -17.1745 -5.31323
H 36.1819 -18.3429 -3.29757
H 40.492 -10.1985 -5.72986
H 41.8612 -12.4683 -5.76478
H 33.8479 -10.3988 -5.48345
H 42.0148 -14.626 -4.04641
H 36.091 -18.3347 -5.30209
H 41.8464 -14.8854 -5.69207
H 38.5538 -9.08704 -4.05335
H 38.7111 -18.2544 -5.44734
H 32.6195 -12.5435 -3.35457
H 38.7326 -18.2542 -3.36901
H 40.711 -16.8703 -5.64733
H 40.7827 -17.0925 -4.00783
H 38.1898 -9.28781 -9.87808
H 32.7063 -15.0123 -7.31624
H 33.7903 -10.4448 -7.43447
H 33.913 -17.1006 -7.31097
H 41.6183 -12.5083 -7.77186
H 32.6399 -15.0811 -9.31197
H 32.6061 -12.5619 -9.46505
H 40.4434 -10.4609 -7.78696
H 35.9656 -9.18014 -7.69944
H 35.8917 -9.29291 -9.6296
H 33.8889 -17.1953 -9.40271
H 36.089 -18.2718 -7.41299
H 40.2831 -10.519 -9.9173
H 41.472 -12.4882 -9.88536
H 33.7191 -10.5766 -9.50369
H 41.6355 -14.8731 -7.79069
H 36.017 -18.3367 -9.48804
H 41.5098 -14.9007 -9.87664
H 38.2078 -9.21762 -7.69917
H 38.2984 -18.223 -9.54115
H 32.6347 -12.5495 -7.40526
H 38.3628 -18.217 -7.52053
H 40.3998 -16.9871 -9.77992
H 40.5487 -16.9472 -7.68579
H 37.8269 -13.372 -15.1801
H 34.4047 -15.4163 -14.854
H 40.5308 -13.3791 -15.4561
H 38.5818 -11.4962 -15.6881
H 35.5416 -17.3116 -14.9548
H 37.9055 -17.3161 -15.2099
H 33.3845 -13.2793 -15.0315
H 35.4558 -13.3423 -14.9948
H 36.6425 -15.2733 -15.005
H 39.142 -15.3638 -15.2291
H 34.4306 -11.2699 -15.0672
H 36.5158 -11.2612 -15.2283
H 37.9724 -10.0509 -14.6818
H 32.5645 -15.024 -11.308
H 33.6337 -10.6196 -11.5457
H 33.6612 -17.1181 -11.405
H 41.4126 -12.6064 -11.8789
H 32.5649 -15.1668 -13.3225
H 32.6475 -12.6788 -13.5091
H 40.2505 -10.8782 -12.1673
H 35.8473 -9.38359 -11.597
H 35.9859 -9.63707 -13.9081
H 33.5879 -16.9657 -13.5392
H 35.8357 -18.3749 -11.5752
H 40.0718 -11.1562 -15.0514
H 41.0337 -12.5685 -13.9721
H 33.5464 -10.8473 -13.5797
H 41.3713 -15.0951 -11.9285
H 35.9307 -18.231 -13.5076
H 41.1677 -15.2788 -14.0121
H 37.9968 -9.43019 -12.0575
H 37.966 -18.224 -13.7728
H 32.5158 -12.5804 -11.5089
H 38.2609 -18.2242 -11.7143
H 40.0276 -17.0722 -13.9563
H 40.2798 -17.0578 -11.8303
H 19.9138 -14.947 1.16513
H 44.7581 2.52695 2.69884
H 27.7422 -28.1376 3.47241
H 42.8468 -28.1376 2.988
H 42.8217 -28.21 0.828974
H 33.2653 -25.9527 3.24507
H 33.23 -26.0074 1.07708
H 28.9663 -23.5403 3.31919
H 28.9329 -23.5635 1.17847
H 32.0387 -28.0926 3.34454
H 31.9692 -28.19 1.16333
H 27.7137 -25.6869 3.41058
H 27.6842 -25.6744 1.26996
H 48.3945 -9.85922 0.601766
H 47.1234 -7.76991 0.561212
H 47.1568 -7.7269 2.74783
H 48.4544 -9.84065 2.80923
C 31.3298 -16.8771 -21.2552
C 30.8294 -15.5911 -21.2634
C 30.8677 -14.7883 -20.1262
C 30.8373 -13.3735 -20.1483
C 31.0288 -12.6627 -18.9377
C 31.4834 -11.3202 -18.9676
C 31.825 -10.674 -17.763
C 32.713 -9.569 -17.804
C 33.269 -9.08 -16.588
C 34.484 -8.346 -16.631
C 35.163 -8.042 -15.415
C 36.562 -7.765 -15.456
C 37.305 -7.669 -14.242
C 38.73 -7.88 -14.277
C 39.5604 -7.83824 -13.0927
C 40.7994 -8.61881 -13.101
C 41.5349 -8.95717 -11.8894
C 42.4335 -10.1693 -11.9017
C 43.0346 -10.7578 -10.6833
C 43.676 -12.1812 -10.6506
C 43.8913 -12.9162 -9.42345
C 43.875 -14.5105 -9.3492
C 43.8472 -15.2966 -8.09588
C 43.2305 -16.7961 -8.03314
C 42.8707 -17.5955 -6.88834
C 42.0195 -18.7573 -6.85448
C 30.7637 -12.6075 -21.3084
C 31.2063 -11.3008 -21.3382
C 31.7463 -10.6901 -20.2092
C 32.6329 -9.58785 -20.247
C 33.2322 -9.14547 -19.0416
C 34.4438 -8.41043 -19.08
C 35.116 -8.114 -17.878
C 36.507 -7.838 -17.919
C 37.243 -7.798 -16.7
C 38.646 -8.012 -16.734
C 39.358 -8.189 -15.513
C 40.61 -8.874 -15.535
C 41.236 -9.251 -14.311
C 42.183 -10.339 -14.317
C 42.736 -10.8866 -13.1265
C 43.3348 -12.2409 -13.1217
C 43.7599 -12.9448 -11.8942
C 43.6826 -14.5245 -11.8403
C 43.6179 -15.268 -10.5677
C 43.0775 -16.7073 -10.5102
C 42.7703 -17.4147 -9.26957
C 41.8142 -18.7188 -9.23502
C 41.304 -19.2867 -7.99243
C 39.9357 -20.0863 -7.97428
C 39.1243 -20.4707 -6.85072
C 37.7024 -20.6536 -6.7928
C 33.0731 -8.97385 -21.4164
C 34.2523 -8.25814 -21.4545
C 35.0548 -8.11888 -20.3247
C 36.4429 -7.84582 -20.3625
C 37.1816 -7.86935 -19.1536
C 38.5827 -8.08399 -19.1821
C 39.285 -8.264 -17.974
C 40.528 -8.945 -17.996
C 41.114 -9.362 -16.767
C 42.049 -10.43 -16.775
C 42.472 -11.001 -15.54
C 42.989 -12.332 -15.535
C 43.22 -13.002 -14.297
C 43.247 -14.442 -14.279
C 43.3825 -15.2378 -13.0629
C 42.9174 -16.6822 -12.9945
C 42.635 -17.4041 -11.7111
C 41.748 -18.7003 -11.7298
C 41.1221 -19.1823 -10.4635
C 39.8199 -19.9971 -10.4553
C 39.1643 -20.3208 -9.21888
C 37.5665 -20.5627 -9.1805
C 36.8345 -20.5742 -7.92433
C 35.318 -20.3749 -7.90228
C 34.5434 -20.1323 -6.71247
C 33.2814 -19.4448 -6.7055
C 37.1791 -7.68178 -21.5326
C 38.5425 -7.89177 -21.561
C 39.243 -8.27693 -20.4208
C 40.4831 -8.95831 -20.4402
C 41.0295 -9.42683 -19.2198
C 41.9658 -10.4913 -19.2243
C 42.382 -11.057 -18.003
C 42.895 -12.379 -17.998
C 43.067 -13.053 -16.754
C 43.097 -14.472 -16.737
C 43.047 -15.158 -15.489
C 42.588 -16.509 -15.462
C 42.4692 -17.3215 -14.2351
C 41.6224 -18.5456 -14.1938
C 41.1178 -19.1725 -12.9763
C 39.8067 -19.8858 -12.906
C 39.1275 -20.2447 -11.6645
C 37.5877 -20.5425 -11.6014
C 36.7697 -20.6104 -10.3662
C 35.2662 -20.5164 -10.3812
C 34.5621 -20.1895 -9.14347
C 33.1853 -19.3804 -9.1279
C 32.6256 -18.8879 -7.8492
C 31.6099 -17.6796 -7.82919
C 31.1458 -16.9409 -6.715
C 30.5262 -15.673 -6.70174
C 41.1583 -9.32683 -21.6004
C 42.0687 -10.3637 -21.6058
C 42.3532 -11.0869 -20.4503
C 42.8651 -12.4062 -20.442
C 42.9759 -13.0933 -19.2079
C 43.0072 -14.5104 -19.1856
C 42.955 -15.189 -17.952
C 42.499 -16.531 -17.925
C 42.192 -17.135 -16.672
C 41.305 -18.244 -16.64
C 40.823 -18.719 -15.386
C 39.604 -19.46 -15.351
C 39.0632 -20.0595 -14.1467
C 37.6046 -20.39 -14.1301
C 36.7985 -20.5209 -12.8646
C 35.2715 -20.4079 -12.8467
C 34.5025 -20.2569 -11.6145
C 33.119 -19.4064 -11.5875
C 32.5219 -18.9297 -10.3622
C 31.5365 -17.6874 -10.306
C 31.1453 -17.0263 -9.08652
C 30.4802 -15.5148 -9.08358
C 30.3696 -14.784 -7.82983
C 30.2991 -13.1361 -7.87168
C 30.3572 -12.2522 -6.72904
C 30.8114 -10.9181 -6.81623
C 43.1506 -13.1443 -21.5873
C 43.1815 -14.5237 -21.5663
C 42.9273 -15.2385 -20.3986
C 42.4708 -16.5775 -20.3685
C 42.1079 -17.1527 -19.1256
C 41.2221 -18.2591 -19.0878
C 40.741 -18.724 -17.848
C 39.53 -19.46 -17.813
C 38.903 -19.705 -16.558
C 37.51 -19.981 -16.525
C 36.831 -20.008 -15.272
C 35.421 -19.79 -15.246
C 34.603 -19.9345 -14.0843
C 33.2671 -19.1929 -14.0335
C 32.5022 -18.8536 -12.8148
C 31.5196 -17.656 -12.7595
C 31.1024 -16.9992 -11.5159
C 30.394 -15.5118 -11.5717
C 30.2621 -14.7083 -10.3188
C 30.2703 -13.1829 -10.3438
C 30.3704 -12.4202 -9.09131
C 30.919 -10.9061 -9.18102
C 31.2614 -10.1951 -7.96152
C 32.3054 -8.84488 -7.97281
C 32.903 -8.0942 -6.91005
C 34.0863 -7.31236 -6.91292
C 42.2207 -17.347 -21.5014
C 41.3575 -18.4229 -21.4652
C 40.6983 -18.7872 -20.294
C 39.4877 -19.5189 -20.2559
C 38.8355 -19.7059 -19.012
C 37.4457 -19.9836 -18.9742
C 36.774 -20.008 -17.736
C 35.373 -19.791 -17.71
C 34.731 -19.55 -16.462
C 33.487 -18.866 -16.447
C 32.944 -18.427 -15.205
C 32.003 -17.353 -15.203
C 31.2549 -16.9391 -14.0243
C 30.6151 -15.537 -14.0688
C 30.3222 -14.7837 -12.8257
C 30.3096 -13.1885 -12.8459
C 30.2981 -12.3933 -11.5995
C 30.8796 -10.8612 -11.6602
C 31.32 -10.1992 -10.4237
C 32.2813 -8.93781 -10.4756
C 32.8728 -8.38555 -9.26199
C 34.2604 -7.57106 -9.29351
C 34.9647 -7.10974 -8.04606
C 36.6355 -6.89498 -8.09738
C 37.5988 -6.81758 -7.00651
C 39.0044 -7.03356 -7.09248
C 38.8051 -19.9656 -21.3839
C 37.4525 -20.2357 -21.3478
C 36.7093 -20.0731 -20.1815
C 35.311 -19.8577 -20.1522
C 34.6872 -19.5567 -18.9162
C 33.4444 -18.8751 -18.8967
C 32.91 -18.437 -17.669
C 31.975 -17.372 -17.668
C 31.632 -16.751 -16.432
C 31.115 -15.428 -16.446
C 30.971 -14.72 -15.218
C 30.938 -13.293 -15.243
C 30.5683 -12.4823 -14.0976
C 31.1549 -11.0314 -14.0907
C 31.3872 -10.2554 -12.8695
C 32.3501 -9.02585 -12.9478
C 32.9085 -8.47999 -11.7414
C 34.2711 -7.6876 -11.7689
C 34.9832 -7.3585 -10.5541
C 36.5443 -7.11415 -10.6149
C 37.3781 -7.02395 -9.36653
C 38.9791 -7.22229 -9.43249
C 39.7705 -7.3936 -8.24277
C 41.1242 -8.21278 -8.26618
C 41.95 -8.62239 -7.11832
C 42.8255 -9.75473 -7.09931
C 34.5037 -19.7868 -21.2842
C 33.2941 -19.1228 -21.266
C 32.8269 -18.4949 -20.114
C 31.8955 -17.4295 -20.1097
C 31.6051 -16.7745 -18.8873
C 31.09 -15.4537 -18.895
C 30.954 -14.752 -17.681
C 30.921 -13.335 -17.706
C 31.05 -12.616 -16.483
C 31.507 -11.272 -16.518
C 31.85 -10.617 -15.299
C 32.743 -9.505 -15.341
C 33.0698 -8.70988 -14.167
C 34.3291 -7.99011 -14.1972
C 35.0311 -7.5817 -12.9969
C 36.5676 -7.41979 -13.0456
C 37.3279 -7.13941 -11.8382
C 38.846 -7.38217 -11.86
C 39.6732 -7.57246 -10.6736
C 41.0011 -8.33347 -10.7037
C 41.684 -8.79986 -9.4684
C 42.6596 -10.0186 -9.48457
C 43.1014 -10.6064 -8.21845
C 43.7491 -12.1282 -8.19293
C 44.1041 -12.9892 -7.07405
C 44.1471 -14.4257 -7.01402
H 32.7049 -19.1338 -22.1811
H 31.2379 -17.4535 -22.1739
H 41.7495 -19.1155 -5.84218
H 39.6558 -20.5744 -5.90114
H 30.3766 -15.2377 -22.1879
H 30.3271 -13.0073 -22.2217
H 37.2491 -20.7024 -5.7969
H 34.8653 -20.5832 -5.76131
H 31.0899 -10.7559 -22.2733
H 32.4848 -9.01491 -22.3312
H 32.8606 -19.3548 -5.7017
H 31.3777 -17.3838 -5.73537
H 34.5172 -7.78223 -22.397
H 36.7059 -7.35366 -22.4564
H 30.1567 -15.3123 -5.74251
H 30.0407 -12.6623 -5.77124
H 39.0552 -7.71571 -22.5048
H 41.0105 -8.78833 -22.5347
H 30.9288 -10.427 -5.84728
H 32.4425 -8.17506 -5.91102
H 42.5785 -10.5757 -22.5437
H 43.3877 -12.6543 -22.5298
H 34.4628 -6.96376 -5.95139
H 37.2226 -6.54683 -6.02604
H 43.4409 -15.0312 -22.4935
H 42.7224 -17.1415 -22.4451
H 39.5459 -7.04283 -6.15483
H 41.89 -8.04138 -6.2004
H 41.2343 -18.995 -22.3829
H 39.3243 -20.1441 -22.3237
H 43.2905 -10.0003 -6.15743
H 44.3534 -12.4696 -6.14643
H 36.9939 -20.6096 -22.2612
H 34.7885 -20.2795 -22.212
H 44.3427 -14.8606 -6.01858
H 43.1941 -17.1612 -5.91082
C 31.6433 -16.3405 13.9295
C 30.9973 -15.0632 13.9422
C 30.921 -14.1665 15.058
C 30.8867 -12.593 15.0096
C 31.0115 -11.8178 16.2295
C 31.6227 -10.3004 16.1337
C 32.1567 -9.63519 17.2899
C 33.0484 -8.38323 17.2145
C 33.7867 -7.95459 18.395
C 35.0783 -7.1894 18.3234
C 35.9686 -7.22565 19.4387
C 37.3823 -6.96305 19.3737
C 38.1434 -7.18349 20.5242
C 39.5316 -7.31126 20.4875
C 40.2 -7.58691 21.6761
C 41.4265 -8.22566 21.6472
C 42.0402 -8.59953 22.8501
C 42.9133 -9.68919 22.8664
C 43.46 -10.176 24.065
C 43.975 -11.497 24.09
C 44.173 -12.149 25.338
C 44.206 -13.574 25.38
C 44.196 -14.2586 26.6163
C 43.7426 -15.6017 26.6727
C 43.5366 -16.3243 27.8492
C 42.6832 -17.4077 27.9082
C 30.9308 -11.7279 13.8784
C 31.4878 -10.4198 13.7984
C 31.9846 -9.64778 14.8739
C 32.9619 -8.35398 14.7772
C 33.5565 -7.82636 15.9964
C 34.9248 -7.01503 15.9371
C 35.7207 -6.76935 17.1023
C 37.2549 -6.49634 17.0343
C 38.0856 -6.59756 18.2002
C 39.6196 -6.7087 18.1663
C 40.2683 -7.28018 19.307
C 41.5418 -7.96424 19.2797
C 41.9533 -8.63904 20.4329
C 42.784 -9.75399 20.4232
C 43.1148 -10.3457 21.6514
C 43.6833 -11.6145 21.683
C 43.9717 -12.234 22.9031
C 44.003 -13.6291 22.9442
C 44.04 -14.307 24.174
C 43.588 -15.65 24.229
C 43.308 -16.243 25.49
C 42.421 -17.357 25.552
C 41.9597 -17.8433 26.7957
C 40.7478 -18.5786 26.8567
C 40.1103 -18.9612 28.038
C 38.7586 -19.2355 28.0885
C 33.5313 -7.71872 13.6178
C 34.7225 -6.98476 13.5617
C 35.5854 -6.7384 14.661
C 37.2091 -6.46555 14.6506
C 38.0158 -6.40422 15.8347
C 39.6533 -6.54777 15.7984
C 40.4162 -6.84499 16.9623
C 41.775 -7.57111 16.9344
C 42.3067 -8.22121 18.1141
C 43.2604 -9.4332 18.0941
C 43.3406 -10.2685 19.2456
C 43.9211 -11.5843 19.277
C 43.8962 -12.2882 20.4869
C 43.9442 -13.6865 20.5231
C 43.8094 -14.3251 21.7591
C 43.3411 -15.6252 21.8152
C 43.0887 -16.2214 23.0521
C 42.2442 -17.3258 23.1144
C 41.839 -17.848 24.351
C 40.63 -18.586 24.411
C 40.018 -18.825 25.672
C 38.621 -19.105 25.724
C 37.9394 -19.1419 26.9615
C 36.5377 -18.9288 26.9974
C 35.7851 -18.787 28.1649
C 34.5769 -18.1206 28.1837
C 38.044 -6.43515 13.4909
C 39.4723 -6.50585 13.4396
C 40.3572 -6.79083 14.5354
C 41.7613 -7.53625 14.5051
C 42.4 -8.0068 15.7186
C 43.41 -9.32271 15.7112
C 43.8174 -10.0267 16.9125
C 44.4428 -11.4733 16.9347
C 44.4226 -12.283 18.1386
C 44.4694 -13.768 18.1883
C 44.0467 -14.4675 19.3669
C 43.5644 -15.8189 19.4246
C 43.0501 -16.3185 20.6345
C 42.2115 -17.4459 20.7023
C 41.6895 -17.7979 21.9379
C 40.5038 -18.5036 22.0022
C 39.9073 -18.7781 23.2306
C 38.5376 -19.0404 23.2764
C 37.876 -19.139 24.514
C 36.475 -18.924 24.551
C 35.836 -18.679 25.797
C 34.586 -17.995 25.815
C 34.0248 -17.5523 27.0345
C 33.0861 -16.4883 27.0304
C 32.579 -15.8687 28.1751
C 32.0741 -14.5846 28.1521
C 42.4357 -8.0724 13.3862
C 43.2584 -9.22624 13.3557
C 43.7367 -9.99224 14.4626
C 44.3863 -11.5189 14.4995
C 44.5651 -12.2631 15.7373
C 44.5959 -13.8344 15.7723
C 44.5042 -14.5805 17.0055
C 43.9431 -16.047 17.078
C 43.4213 -16.6432 18.277
C 42.522 -17.9047 18.3908
C 41.7735 -18.1346 19.5723
C 40.5545 -18.8705 19.6358
C 39.8328 -18.8393 20.8345
C 38.4517 -19.0373 20.8703
C 37.8018 -19.0124 22.0932
C 36.4153 -18.8723 22.1304
C 35.7872 -18.6981 23.3615
C 34.5816 -17.9832 23.3777
C 34.009 -17.574 24.586
C 33.071 -16.51 24.582
C 32.722 -15.88 25.808
C 32.201 -14.554 25.784
C 32.0374 -13.8231 26.9825
C 32.0038 -12.4052 26.9405
C 32.0054 -11.5762 28.0638
C 32.4435 -10.2685 28.0106
C 44.6053 -12.3691 13.3623
C 44.627 -13.7844 13.4042
C 44.4648 -14.6005 14.5575
C 43.9012 -16.1382 14.6602
C 43.6115 -16.8037 15.9178
C 42.6085 -18.1143 16.0202
C 41.9915 -18.5789 17.2331
C 40.6891 -19.374 17.2945
C 39.9185 -19.4614 18.503
C 38.3982 -19.6465 18.5448
C 37.7007 -19.2605 19.7189
C 36.2866 -19.0978 19.7499
C 35.7064 -18.6898 20.9478
C 34.4833 -18.0395 20.9573
C 34.015 -17.5451 22.1719
C 33.1326 -16.4732 22.1719
C 32.8068 -15.864 23.3765
C 32.2795 -14.5824 23.3573
C 32.042 -13.895 24.535
C 32.006 -12.478 24.493
C 32.129 -11.738 25.701
C 32.584 -10.388 25.646
C 32.9174 -9.69188 26.8299
C 33.8031 -8.5862 26.7682
C 34.327 -7.92548 27.8809
C 35.5056 -7.2102 27.8216
C 43.4518 -16.9138 13.5635
C 42.6929 -18.1231 13.6448
C 41.9904 -18.6333 14.814
C 40.6473 -19.456 14.8719
C 39.954 -19.7159 16.1308
C 38.3083 -19.9266 16.1711
C 37.556 -19.8721 17.3911
C 36.03 -19.6653 17.4284
C 35.4175 -19.2048 18.6345
C 34.1193 -18.5081 18.6489
C 33.7466 -17.7808 19.7999
C 32.7857 -16.7168 19.794
C 32.6374 -15.9692 20.9677
C 32.1221 -14.664 20.9471
C 32.1118 -13.935 22.1397
C 32.0567 -12.5532 22.1037
C 32.16 -11.834 23.2696
C 32.6447 -10.5379 23.224
C 32.902 -9.816 24.384
C 33.788 -8.71 24.323
C 34.344 -8.19 25.524
C 35.561 -7.45 25.463
C 36.2496 -7.09774 26.6457
C 37.6381 -6.81335 26.5931
C 38.4507 -6.60684 27.71
C 39.8143 -6.81834 27.6741
C 39.8092 -19.8637 13.7593
C 38.3842 -20.0252 13.8031
C 37.516 -19.9658 14.948
C 35.9055 -19.7992 15.0008
C 35.2111 -19.4963 16.2525
C 33.8611 -18.7469 16.2732
C 33.3456 -18.1663 17.4798
C 32.3329 -16.9963 17.4632
C 32.0873 -16.2354 18.653
C 31.4456 -14.8518 18.6582
C 31.6714 -14.034 19.7819
C 31.6553 -12.6008 19.7514
C 32.0675 -11.9095 20.8798
C 32.5832 -10.6213 20.8155
C 32.9861 -10.0062 21.9932
C 33.8332 -8.91623 21.9239
C 34.3171 -8.33454 23.0939
C 35.515 -7.62939 23.0426
C 36.188 -7.251 24.203
C 37.578 -6.971 24.151
C 38.322 -6.894 25.359
C 39.731 -7.106 25.322
C 40.4715 -7.24202 26.5181
C 41.7191 -7.91802 26.4995
C 42.4602 -8.25252 27.6351
C 43.3705 -9.29008 27.6385
C 35.0345 -19.6251 13.8917
C 33.802 -18.939 13.9086
C 33.2127 -18.2918 15.0415
C 32.1948 -17.0439 15.038
C 31.803 -16.381 16.2775
C 31.1402 -14.9265 16.2943
C 31.0968 -14.1293 17.4857
C 31.0417 -12.5816 17.4433
C 31.4004 -11.8085 18.5944
C 31.9923 -10.4134 18.4855
C 32.6747 -9.8955 19.6118
C 33.4826 -8.72833 19.5565
C 34.2698 -8.46466 20.678
C 35.4587 -7.74379 20.631
C 36.1485 -7.51282 21.8159
C 37.5119 -7.26581 21.7724
C 38.2374 -7.14833 22.9472
C 39.605 -7.33069 22.902
C 40.357 -7.389 24.077
C 41.602 -8.067 24.059
C 42.206 -8.454 25.286
C 43.148 -9.524 25.289
C 43.6133 -10.0709 26.5067
C 44.1301 -11.3921 26.5311
C 44.4662 -12.0943 27.69
C 44.499 -13.4734 27.7308
H 33.2972 -18.7808 12.9437
H 31.8178 -16.7892 12.9442
H 42.5867 -17.9403 28.8518
H 40.6918 -19.06 28.9518
H 30.5843 -14.726 12.9802
H 30.5633 -12.1234 12.9245
H 38.3278 -19.5415 29.0391
H 36.1518 -19.2251 29.0904
H 31.5675 -9.98842 12.7952
H 32.9391 -7.77551 12.6927
H 34.0378 -18.0527 29.1259
H 32.5655 -16.4143 29.116
H 35.0643 -6.65672 12.5703
H 37.5253 -6.38938 12.5246
H 31.6823 -14.1665 29.0768
H 31.6367 -11.9599 29.0125
H 39.9377 -6.47637 12.4453
H 42.2172 -7.61528 12.4127
H 32.4032 -9.66934 28.9176
H 33.7893 -7.96212 28.8257
H 43.4967 -9.60755 12.3569
H 44.7516 -11.8934 12.382
H 35.853 -6.70743 28.7214
H 38.0046 -6.26 28.6396
H 44.7554 -14.3032 12.4437
H 43.6455 -16.5181 12.5553
H 40.3884 -6.63227 28.579
H 42.3283 -7.67514 28.5475
H 42.4924 -18.625 12.6864
H 40.2979 -19.9662 12.7788
H 43.9199 -9.4925 28.5551
H 44.722 -11.5424 28.5916
H 37.8918 -20.0906 12.8237
H 35.3674 -20.0244 12.9232
H 44.7821 -13.9592 28.6619
H 44.0722 -16.0407 28.7523
C 49.702 -1.68798 1.90547
C 49.7951 -3.15619 1.32703
C 52.5114 -5.83108 1.67455
C 52.5783 -7.24266 1.10844
C 51.1681 -5.21054 1.27622
C 53.927 -7.8671 1.45456
C 52.3077 -2.95713 1.29611
C 52.1767 -1.52921 1.83346
C 53.5779 -3.64012 1.74806
C 51.1373 -3.79135 1.81798
C 50.8897 -0.930772 1.31897
C 53.7015 -5.03783 1.15129
C 55.0088 -5.71791 1.5875
C 55.0821 -7.06752 0.865991
C 57.6509 -5.53911 1.4121
C 56.4013 -4.91734 1.95387
C 58.9019 -4.59129 1.46266
C 60.1287 -5.23063 2.09034
C 58.6776 -3.22285 2.14949
C 53.451 -0.613169 2.1975
C 55.8295 0.917662 2.14838
C 54.9687 -2.73861 2.01679
C 57.2325 -1.14946 2.16513
C 54.5758 1.57762 1.50096
C 53.2551 0.778921 1.6828
C 54.7347 -1.31578 1.59971
C 56.0491 -0.469906 1.49226
C 56.1945 -3.40746 1.45628
C 57.4888 -2.52479 1.49257
C 61.3265 -2.98372 1.45517
C 61.4834 -4.39325 1.92777
C 60.0526 -2.33382 1.96674
C 57.1266 1.88719 2.04323
C 58.6015 -0.234082 2.0491
C 56.9105 3.36118 1.55849
C 58.4533 1.23505 1.56903
C 59.8719 -0.889621 1.52326
C 52.5821 -5.90697 3.23372
C 51.3257 -5.25788 3.8576
C 52.7286 -7.38679 3.6175
C 49.7388 -1.76443 3.4245
C 49.8774 -3.20773 3.9
C 55.1117 -5.79318 3.19193
C 55.2119 -7.27518 3.58726
C 54.0132 -7.98821 2.98921
C 52.3475 -3.01514 3.91875
C 53.6801 -3.65421 3.31841
C 52.2096 -1.5394 3.45479
C 51.1717 -3.83142 3.35598
C 53.8198 -5.13636 3.75832
C 50.9042 -0.995524 4.06685
C 56.4516 -4.94375 3.55932
C 58.5489 -3.35624 3.78306
C 59.9795 -5.3257 3.74387
C 54.9859 -2.81646 3.63103
C 57.1164 -1.29521 3.81111
C 53.5109 -0.677926 3.77012
C 55.6924 0.793042 3.83441
C 57.3737 -2.65645 4.41365
C 58.7957 -4.70884 4.47128
C 56.1063 -3.60467 4.28108
C 57.5382 -5.63367 4.34411
C 54.6677 -1.46486 4.34882
C 55.9398 -0.564737 4.53158
C 53.2421 0.616659 4.53498
C 54.5204 1.48303 4.48466
C 61.3568 -4.49749 3.53515
C 59.9155 -2.44174 3.57157
C 58.4317 -0.385822 3.59444
C 56.9483 1.70947 3.62614
C 59.7379 -1.02288 4.12176
C 61.2071 -3.08183 4.11964
C 58.2134 1.02004 4.19361
C 56.7652 3.09931 4.21882
C 58.9984 -2.90978 -0.567598
C 60.1827 -5.095 -0.719105
C 57.5812 -0.862758 -0.525176
C 56.1007 1.11331 -0.524979
C 57.7479 -2.27747 -0.0274711
C 59.0758 -4.37536 -0.0850214
C 56.2902 -0.316829 -0.0769464
C 54.7641 1.64939 -0.0230635
C 61.6053 -4.25727 -0.786746
C 60.3342 -2.04862 -0.701976
C 58.8941 0.0491063 -0.605999
C 57.3693 2.10943 -0.586262
C 60.0822 -0.686203 -0.00801056
C 61.5227 -2.8514 -0.136336
C 58.5933 1.4205 0.0587895
C 57.0016 3.49343 0.0358443
C 62.5729 -5.38574 1.36226
C 62.5369 -5.35211 4.14038
C 60.5143 -6.57766 1.40575
C 60.5615 -6.67612 4.3217
C 62.0134 -6.76881 1.94486
C 61.9687 -6.75393 3.65139
C 58.9097 1.70569 -2.73718
C 57.6065 2.31072 -2.19256
C 59.1638 0.280114 -2.20751
C 57.228 3.71737 -2.79004
C 60.372 -0.473601 -2.78695
C 60.5369 -1.88199 -2.25323
C 61.8332 -4.12263 -2.39276
C 61.7992 -2.64775 -2.83413
C 60.4114 -4.91949 -2.28461
C 59.166 -2.75686 -2.17102
C 59.3049 -4.07189 -2.88861
C 56.6449 -0.01297 -2.80214
C 57.813 -0.674533 -2.12354
C 56.3276 1.30846 -2.0939
C 58.0512 -2.00412 -2.84565
C 55.1508 1.93608 -2.82094
C 59.0457 -4.51911 5.98123
C 60.324 -5.17392 6.40982
C 58.9806 -3.06841 6.42205
C 56.0978 1.01549 6.52049
C 57.5832 -1.00285 6.45704
C 54.7917 1.64914 6.01918
C 56.2135 -0.390522 6.08762
C 57.6668 -2.45491 5.99271
C 61.4063 -2.96372 5.67299
C 61.6461 -4.309 6.3666
C 60.2948 -2.16393 6.38576
C 57.3765 1.97551 6.4527
C 58.8739 -0.0537096 6.39492
C 56.9833 3.28559 5.78728
C 58.5159 1.24249 5.71143
C 60.0109 -0.80886 5.69345
C 62.0532 -4.16274 7.9247
C 60.7011 -1.96991 7.92328
C 61.9764 -2.70577 8.40434
C 58.9952 1.63147 8.4775
C 59.2181 0.174026 7.95585
C 57.6815 2.29714 7.98455
C 60.5234 -0.480128 8.4315
C 57.4179 3.75881 8.4707
C 56.8236 -0.0453823 8.8085
C 56.4233 1.26619 8.08446
C 57.9461 -0.800096 8.04711
C 55.2231 1.93993 8.81255
C 58.2912 -2.1525 8.75658
C 59.3492 -2.88442 7.97997
C 60.659 -4.99637 7.95408
C 59.5943 -4.21159 8.67657
C 62.6556 -5.29079 5.63242
C 60.6418 -6.54781 5.85267
C 63.1214 -5.24898 8.4664
C 60.9507 -6.37114 8.62483
C 62.2061 -6.62104 6.35177
C 62.3725 -6.54442 8.00051
C 60.4531 -6.52764 -0.135462
C 62.5832 -5.38086 -0.207969
C 60.5658 -6.27513 -3.01018
C 62.7611 -5.34188 -3.05354
C 61.8998 -6.68736 -0.801513
C 62.0137 -6.67673 -2.45461
C 48.7177 -5.41793 1.32459
C 48.6291 -4.03501 1.8976
C 49.9853 -6.08026 1.79092
C 50.0698 -7.48995 1.21166
C 51.4271 -8.10728 1.68335
C 51.4882 -8.17167 3.20347
C 48.803 -5.44538 4.01401
C 50.0744 -6.0849 3.40765
C 48.68 -4.03485 3.44196
C 50.2797 -7.52593 3.91582
C 54.2764 2.80922 3.81473
C 55.5288 3.78532 3.66898
C 54.395 2.90538 2.16401
C 55.6404 3.91902 2.09114
C 54.5003 3.01245 6.53537
C 55.8008 3.9771 6.45759
C 55.0043 5.16111 4.25533
C 54.8979 5.20946 1.53819
C 53.1893 3.69021 4.39407
C 53.2217 3.72955 1.51641
C 53.4464 5.1302 3.73162
C 53.4545 5.13374 2.12347
C 56.0405 4.24257 8.01582
C 54.8007 3.20997 8.07732
C 54.5194 3.01364 -0.546956
C 55.7299 4.02713 -0.618144
C 55.9333 4.3359 -2.20734
C 54.7344 3.2115 -2.15048
C 54.9239 5.25046 0.0207581
C 53.3081 3.71951 0.0102642
C 55.0981 5.55567 -2.73614
C 53.4773 3.80162 -2.8878
C 53.4592 5.15658 -0.641911
C 53.6307 5.19443 -2.25401
C 53.2964 3.79354 5.93101
C 55.1714 5.25409 5.77568
C 53.5942 3.97555 8.71435
C 55.3806 5.52345 8.54719
C 53.7719 5.22746 6.40015
C 53.849 5.43691 8.04481
C 32.9178 3.07261 2.19718
C 34.2566 2.52679 1.5962
C 37.9155 3.76673 2.07589
C 39.2549 3.22018 1.49928
C 36.7529 2.88296 1.60868
C 40.4339 4.0529 2.00723
C 35.164 4.90444 1.72354
C 33.7511 5.37416 2.27059
C 36.3211 5.75924 2.24552
C 35.4108 3.39366 2.12975
C 32.628 4.51953 1.71686
C 37.6602 5.26423 1.65475
C 38.8774 6.08989 2.19539
C 40.2188 5.55683 1.54458
C 39.6402 8.40857 1.32877
C 38.5685 7.68053 2.02871
C 39.4461 9.93591 1.42697
C 40.5775 10.6415 2.21172
C 38.1218 10.2644 2.15761
C 33.408 6.92945 2.10894
C 33.0398 9.57752 2.13886
C 36.0383 7.28302 2.01271
C 35.5941 9.90884 2.12704
C 31.8018 8.95515 1.41263
C 32.0321 7.3903 1.50468
C 34.6188 7.6423 1.46798
C 34.3702 9.21012 1.42812
C 37.1651 8.01877 1.41016
C 36.9366 9.57382 1.43968
C 38.9905 12.7478 2.00857
C 40.3489 12.1867 2.4948
C 37.8786 11.8332 2.52346
C 32.8627 11.1681 2.55433
C 35.3888 11.4418 2.49692
C 31.5308 11.711 2.11266
C 34.0278 11.9601 2.11838
C 36.5528 12.349 2.07785
C 38.0064 3.7082 3.62335
C 36.8308 2.76945 4.13082
C 39.3793 3.10454 4.01032
C 32.9411 2.98173 3.717
C 34.3055 2.38693 4.22537
C 38.9123 5.94679 3.8248
C 40.2952 5.35828 4.27228
C 40.5248 4.01752 3.53863
C 35.2381 4.70457 4.28131
C 36.4013 5.60762 3.82612
C 33.8792 5.20333 3.86709
C 35.433 3.30143 3.65261
C 37.7706 5.05333 4.27989
C 32.7964 4.30475 4.47025
C 38.6156 7.56832 3.59931
C 38.0174 10.3002 3.83898
C 40.5114 10.6944 3.8263
C 36.0607 7.17894 3.62392
C 35.5511 9.92091 3.80848
C 33.5083 6.79063 3.64834
C 33.0243 9.62159 3.82162
C 36.8892 9.48087 4.42369
C 39.3566 9.85667 4.51156
C 37.237 7.96352 4.19746
C 39.7552 8.35451 4.24997
C 34.6781 7.61401 4.24467
C 34.3846 9.11967 4.42756
C 32.1488 7.23514 4.35214
C 31.8679 8.75181 4.44376
C 40.3166 12.2401 4.15377
C 37.8215 11.8749 4.20465
C 35.32 11.5249 4.12171
C 32.7801 11.2219 4.15067
C 36.4699 12.3326 4.71298
C 38.9576 12.6688 4.75418
C 33.9566 11.9505 4.70773
C 31.4754 11.6322 4.71784
C 37.9762 11.0181 -0.428488
C 40.4768 11.235 -0.437732
C 35.4537 10.7042 -0.382657
C 32.9122 10.409 -0.464322
C 36.8286 10.0795 -0.0384913
C 39.3331 10.435 -0.00540365
C 34.3143 9.79843 -0.0708542
C 31.7585 9.46623 -0.123943
C 40.3011 12.8047 -0.204725
C 37.765 12.5448 -0.197069
C 35.3241 12.2758 -0.12648
C 32.7804 11.9768 -0.158251
C 36.5018 12.8586 0.598041
C 39.0038 13.1878 0.496266
C 33.964 12.5054 0.600021
C 31.4866 12.264 0.622889
C 41.6762 12.84 1.94406
C 41.7127 12.7312 4.69787
C 41.9326 10.5754 1.58641
C 41.8839 10.3592 4.46247
C 42.7829 11.7291 2.31743
C 42.6861 11.6694 3.97673
C 33.8642 13.5641 -2.09798
C 32.6784 12.6444 -1.61961
C 35.2329 12.9399 -1.65298
C 31.3207 13.2832 -1.97557
C 36.4199 13.8151 -2.08683
C 37.7722 13.1885 -1.70675
C 40.3711 13.3503 -1.71785
C 39.0805 14.0165 -2.08761
C 40.3883 11.7683 -1.90418
C 37.876 11.5474 -1.93268
C 39.1957 11.252 -2.68358
C 34.1757 10.8525 -2.68319
C 35.3477 11.3427 -1.88739
C 32.8188 11.0319 -1.89084
C 36.6401 11.0336 -2.6753
C 31.582 10.5424 -2.70798
C 39.2921 9.85389 6.07484
C 40.4449 10.5092 6.68222
C 37.9118 10.3389 6.65217
C 32.9588 9.67871 6.59281
C 35.4394 10.0117 6.62774
C 31.8305 8.9027 6.01803
C 34.3306 9.24743 5.99388
C 36.8249 9.58484 5.94809
C 38.9736 12.7327 6.35096
C 40.3033 12.1465 6.84716
C 37.8127 11.9153 6.89937
C 32.7315 11.2211 6.88296
C 35.2836 11.5863 6.86941
C 31.3991 11.6663 6.26116
C 33.9243 12.0345 6.2845
C 36.463 12.4009 6.32805
C 40.3378 12.2212 8.48667
C 37.7585 11.964 8.51088
C 38.9922 12.666 9.12777
C 33.8575 12.1431 9.04285
C 35.2326 11.6725 8.52224
C 32.6534 11.3895 8.46648
C 36.4042 12.4046 9.11456
C 31.3019 11.7 9.05685
C 34.2825 9.34585 8.8607
C 32.9365 9.77253 8.24322
C 35.4383 10.1083 8.20195
C 31.8079 8.99475 8.89973
C 36.7566 9.60349 8.82786
C 37.9089 10.3688 8.2331
C 40.4219 10.6417 8.2514
C 39.2526 9.90629 8.83122
C 41.6632 12.6526 6.23707
C 41.8075 10.2674 5.94691
C 41.8059 12.555 8.97639
C 41.7763 10.0568 8.86821
C 42.6542 11.4405 6.67976
C 42.5533 11.2813 8.37379
C 41.8747 10.8559 0.0715451
C 41.6616 13.1367 0.406005
C 41.7799 11.4884 -2.60333
C 41.849 13.6858 -2.30574
C 42.7063 12.158 -0.290305
C 42.7974 12.4591 -1.85125
C 35.8164 0.54902 1.55956
C 34.5317 1.09881 2.12102
C 36.9733 1.41321 2.05638
C 38.2666 0.921305 1.3969
C 39.4591 1.73208 1.94951
C 39.5824 1.682 3.48518
C 35.9421 0.456067 4.16281
C 37.0859 1.3004 3.56326
C 34.5501 0.987419 3.6699
C 38.4885 0.765644 4.06851
C 30.5681 9.22674 3.8408
C 30.299 10.7939 4.12662
C 30.4946 9.31316 2.15177
C 30.3549 10.8563 2.5519
C 30.4826 9.19609 6.62852
C 30.2346 10.7964 6.83138
C 28.8219 11.0558 4.70256
C 28.9619 11.3456 2.02566
C 29.2644 8.69982 4.46681
C 29.0891 9.10131 1.53854
C 28.2444 9.77854 3.99451
C 28.1153 10.0429 2.40756
C 30.1744 10.917 8.45056
C 30.5086 9.35196 8.24785
C 30.434 10.0958 -0.422682
C 30.2483 11.7167 -0.142941
C 30.1397 12.4275 -1.6434
C 30.3077 10.7824 -1.89783
C 28.8759 11.7343 0.549658
C 29.0375 9.44316 0.053024
C 28.6802 12.6947 -2.02058
C 28.9611 10.3544 -2.62554
C 28.083 10.6884 -0.235727
C 27.919 11.2075 -1.78109
C 29.2404 8.57591 6.00239
C 28.7717 10.9319 6.25286
C 29.3418 8.54449 8.95762
C 28.7181 11.0269 9.10927
C 28.2361 9.5987 6.77809
C 28.3723 9.64129 8.41135
C 50.6063 7.8619 2.16736
C 48.8904 9.67403 2.12692
C 48.1272 10.9005 1.50397
C 50.1855 9.2305 1.50832
C 50.827 8.09064 3.7869
C 49.0018 9.81643 3.66914
C 50.3544 9.44849 4.35807
C 48.1965 11.0228 4.299
C 50.5283 7.77229 -0.546562
C 48.6837 9.46983 -0.526322
C 50.1548 9.20392 -0.0376252
C 48.0696 10.7884 -0.0798218
C 51.9181 7.26444 1.57582
C 52.093 7.46962 4.38771
C 52.0724 5.88193 2.33292
C 52.1007 6.03119 3.95119
C 49.8388 8.8427 -2.72539
C 48.4988 9.24958 -2.11478
C 47.7319 10.3724 -2.84322
C 50.4349 7.60341 -2.07951
C 50.8652 8.09942 6.49148
C 48.8932 9.68661 6.41032
C 48.1047 10.9006 5.85816
C 50.3611 9.4494 5.89006
C 50.7055 7.9277 8.1094
C 50.0826 9.28366 8.66213
C 48.7563 9.51507 7.93292
C 47.966 10.6816 8.58917
C 52.164 7.61882 5.90859
C 51.9227 7.39146 9.00237
C 52.5519 6.27971 6.6987
C 53.0495 6.88142 8.14807
C 51.8897 7.29101 0.029123
C 51.8043 7.17755 -2.72594
C 52.0668 5.90604 -0.507181
C 52.2041 5.82029 -2.09207
C 46.7298 10.8609 3.64977
C 46.707 10.8483 2.10043
C 46.6434 10.732 6.3415
C 45.6233 11.755 4.23762
C 45.7236 11.936 1.49277
C 44.2809 11.3696 3.63588
C 44.3827 11.4443 2.0336
C 46.5804 10.6794 7.92873
C 46.5553 10.8198 -0.61571
C 46.3779 10.7036 -2.1241
C 45.744 12.0067 -0.0283388
C 45.3942 11.6991 -2.95651
C 44.3471 11.9713 -0.669938
C 44.4037 12.5362 -2.14477
C 45.5721 11.6641 5.80103
C 45.4342 11.5049 8.53875
C 44.2614 11.0695 6.32591
C 44.1691 10.9997 7.94454
C 54.1017 -18.4547 -0.837891
C 53.0435 -19.3134 -1.57568
C 51.577 -22.8128 -0.823898
C 50.4075 -23.6584 -1.47473
C 51.7418 -21.5049 -1.55505
C 50.1831 -24.9622 -0.660944
C 54.1924 -21.4203 -0.887685
C 55.2045 -20.5133 -0.170119
C 53.9228 -22.7818 -0.231098
C 52.8489 -20.6713 -0.862139
C 55.4155 -19.2038 -0.943459
C 52.8314 -23.6316 -0.880601
C 52.575 -24.9606 -0.184797
C 51.4557 -25.7574 -0.858004
C 53.711 -27.1712 0.203939
C 53.7593 -25.707 0.581679
C 55.0395 -27.8532 0.37674
C 54.7689 -29.1312 1.14018
C 56.1276 -27.0393 1.1331
C 56.4284 -21.2935 0.559486
C 58.6795 -22.7444 1.25263
C 55.1443 -23.4961 0.492919
C 57.438 -24.9109 1.18724
C 58.9419 -21.4603 0.469463
C 57.6889 -20.5627 0.279478
C 56.4357 -22.8013 0.145775
C 57.7383 -23.588 0.423335
C 55.1053 -24.9398 0.134565
C 56.407 -25.7295 0.386146
C 57.3611 -29.4184 0.881525
C 56.0762 -30.0632 1.30061
C 57.476 -27.9323 1.3011
C 60.1309 -23.5315 1.41298
C 58.8055 -25.7505 1.32045
C 61.4436 -22.8627 1.06993
C 60.1505 -25.039 1.0231
C 58.7845 -27.2477 0.949798
C 51.1949 -22.5536 0.702567
C 51.0687 -21.0237 0.875102
C 49.8251 -23.154 0.96646
C 53.7307 -18.2799 0.62629
C 52.3632 -18.855 0.820609
C 52.2473 -24.688 1.38285
C 50.9075 -25.2534 1.75165
C 49.8884 -24.6492 0.835224
C 53.5268 -21.0505 1.60836
C 53.6049 -22.5283 1.31073
C 54.8741 -20.3249 1.37418
C 52.4653 -20.3871 0.628465
C 52.2439 -23.1971 1.63788
C 54.7737 -18.847 1.68604
C 53.4639 -25.4736 2.07846
C 55.6957 -26.81 2.74202
C 54.3997 -28.9739 2.73336
C 54.8435 -23.3219 2.041
C 56.9603 -24.6222 2.77096
C 56.0587 -21.0967 2.09607
C 58.2798 -22.4664 2.84242
C 55.7059 -25.3754 3.28974
C 54.4509 -27.5158 3.27157
C 54.4455 -24.5725 2.82696
C 53.1349 -26.7644 2.91999
C 55.7434 -22.4271 2.84001
C 57.0175 -23.2152 3.324
C 56.9428 -20.3112 3.09895
C 58.2795 -21.0641 3.41825
C 55.7624 -29.781 2.81758
C 57.0273 -27.6509 2.82809
C 58.3675 -25.4688 2.8704
C 59.6952 -23.3053 2.88803
C 58.1481 -26.8526 3.49013
C 56.8652 -29.0073 3.51392
C 59.4974 -24.6495 3.51454
C 60.786 -22.4904 3.60916
C 56.8232 -27.4526 -1.50571
C 55.2204 -29.4204 -1.56607
C 58.2394 -25.3899 -1.48659
C 59.4751 -23.2517 -1.39779
C 56.8841 -26.0679 -1.08538
C 55.4342 -28.0514 -1.09165
C 58.2556 -23.9389 -1.01298
C 59.414 -21.7584 -0.959529
C 56.4934 -30.374 -1.40346
C 58.1126 -28.3607 -1.30519
C 59.5872 -26.21 -1.24792
C 60.8731 -24.0257 -1.1638
C 59.2515 -27.531 -0.544107
C 57.6744 -29.7068 -0.615221
C 60.6358 -25.3401 -0.453263
C 61.8611 -23.0757 -0.404597
C 55.5387 -31.4319 0.77766
C 55.2948 -31.1508 3.54919
C 53.7583 -30.0663 0.432807
C 53.2849 -29.851 3.3027
C 54.0744 -31.4077 1.18283
C 53.8317 -31.2978 2.85691
C 61.4506 -25.7443 -3.11854
C 61.4225 -24.2809 -2.67721
C 60.1157 -26.5058 -2.74735
C 62.643 -23.3858 -3.07476
C 59.9864 -28.0121 -3.19377
C 58.5891 -28.7218 -2.81026
C 56.9373 -30.7506 -2.91898
C 58.3352 -30.1956 -3.27898
C 55.7118 -29.7193 -3.11739
C 57.2553 -27.7964 -3.02821
C 56.1186 -28.4703 -3.80567
C 59.0752 -24.39 -3.71805
C 58.7736 -25.6696 -2.98263
C 59.9963 -23.4873 -2.91206
C 57.7092 -26.5067 -3.75686
C 60.207 -22.2233 -3.71283
C 54.4708 -27.5563 4.86638
C 54.3266 -28.9308 5.44088
C 55.7008 -26.8243 5.40992
C 58.1999 -22.5318 5.51602
C 56.9804 -24.7386 5.42845
C 58.2503 -21.0997 4.97749
C 57.0367 -23.3003 4.88793
C 55.7824 -25.4332 4.83719
C 56.9089 -29.0919 5.07703
C 55.6515 -29.7777 5.69556
C 57.0536 -27.7012 5.67467
C 59.5815 -23.3248 5.76604
C 58.3721 -25.5476 5.64016
C 60.7572 -22.5247 5.18096
C 59.565 -24.7411 5.09038
C 58.2914 -26.9662 5.06606
C 55.7611 -29.8725 7.28767
C 57.1772 -27.7981 7.28432
C 56.9402 -29.1801 7.90657
C 59.612 -24.7938 7.88632
C 58.4851 -25.6165 7.27199
C 59.7128 -23.3897 7.35468
C 58.3802 -27.0407 7.88899
C 60.7822 -22.5688 8.03444
C 57.1709 -23.4759 7.71038
C 58.3031 -22.6515 7.14015
C 57.1224 -24.8303 7.06989
C 58.3 -21.2781 7.74712
C 55.9626 -25.558 7.72229
C 55.8312 -26.9133 7.07912
C 54.4184 -28.9465 7.03454
C 54.6187 -27.5607 7.65842
C 55.2262 -31.1256 5.08135
C 53.2013 -29.8034 4.85598
C 55.1929 -31.189 7.90056
C 53.192 -29.6707 7.7666
C 53.7557 -31.0788 5.64938
C 53.7109 -31.0997 7.27677
C 53.9352 -30.1364 -1.09586
C 55.6428 -31.5568 -0.779961
C 54.5567 -30.4495 -3.87743
C 56.1719 -32.0298 -3.47378
C 54.2378 -31.6167 -1.58945
C 54.551 -31.8567 -3.14232
C 50.7254 -19.4078 -2.42543
C 51.7403 -18.5601 -1.67249
C 50.4253 -20.6957 -1.59179
C 49.3623 -21.5183 -2.34831
C 49.1319 -22.837 -1.49431
C 48.7871 -22.5523 -0.0138805
C 49.9633 -18.927 0.160314
C 50.0163 -20.4077 -0.113737
C 51.3162 -18.2868 -0.196563
C 48.6974 -21.0985 0.241804
C 59.4807 -20.4117 2.84454
C 60.9501 -21.1425 2.95756
C 59.9864 -20.6594 1.26829
C 61.4312 -21.3986 1.46902
C 59.393 -20.3893 5.57511
C 60.7495 -21.1827 5.8287
C 61.9662 -20.1712 3.79333
C 62.5177 -20.3871 1.02706
C 59.7599 -19.0178 3.44845
C 60.3114 -19.3096 0.526418
C 61.2804 -18.9887 2.99287
C 61.5846 -19.2032 1.39672
C 60.8373 -21.2034 7.43691
C 59.4145 -20.4683 7.18221
C 60.5833 -21.0092 -1.40899
C 62.0027 -21.7431 -1.14797
C 62.5017 -21.9662 -2.67311
C 61.0648 -21.269 -2.90017
C 62.7853 -20.5138 -0.448413
C 60.5903 -19.5421 -0.938832
C 63.493 -20.8355 -3.14515
C 61.1992 -19.9177 -3.73242
C 62.1575 -19.3812 -1.31657
C 62.5055 -19.6464 -2.88882
C 59.6624 -18.9867 4.95019
C 61.8149 -20.1569 5.27584
C 59.4241 -19.0626 7.8158
C 61.6621 -20.0149 8.07233
C 61.027 -18.9372 5.72927
C 60.9106 -18.8224 7.38576
C 63.1233 -15.473 1.69166
C 63.4957 -12.9808 1.69909
C 64.0138 -11.667 1.05083
C 64.0619 -14.3468 1.12396
C 62.9005 -15.3864 3.31349
C 63.4337 -12.9364 3.25001
C 63.8017 -14.3094 3.90982
C 64.1368 -11.6568 3.83953
C 63.1104 -15.4937 -0.997399
C 63.2426 -13.0284 -1.03187
C 63.9791 -14.3019 -0.461922
C 63.8711 -11.7092 -0.554504
C 63.252 -16.9148 1.13566
C 62.8623 -16.8055 3.95458
C 61.9516 -17.651 1.68308
C 61.7046 -17.4391 3.25105
C 63.8082 -14.3425 -3.25407
C 63.1878 -13.059 -2.58082
C 63.771 -11.7973 -3.27997
C 63.171 -15.5973 -2.55183
C 62.6494 -15.2493 5.99254
C 63.3485 -12.8379 5.99452
C 64.1056 -11.598 5.3818
C 63.7502 -14.2605 5.4694
C 62.5343 -15.1507 7.58306
C 63.5687 -14.2306 8.20578
C 63.2736 -12.8078 7.58128
C 64.0872 -11.6209 8.15683
C 62.7452 -16.7664 5.49716
C 62.4476 -16.5491 8.23631
C 61.4125 -17.4091 6.06308
C 61.2718 -17.3019 7.68451
C 63.4604 -16.9042 -0.380412
C 63.7955 -16.8895 -3.13697
C 62.489 -17.807 -1.12894
C 62.8294 -18.0305 -2.67526
C 63.4021 -10.4428 3.26962
C 63.1719 -10.5655 1.66325
C 63.3867 -10.3666 5.9264
C 63.6144 -8.96766 3.80097
C 63.3236 -9.19038 0.992167
C 62.3529 -8.26828 3.21335
C 62.2791 -8.31275 1.61127
C 63.4566 -10.3612 7.50327
C 62.9902 -10.5878 -1.12367
C 62.9988 -10.5954 -2.69546
C 63.233 -9.16107 -0.591725
C 63.3556 -9.26445 -3.32754
C 62.1588 -8.23817 -1.23642
C 62.3757 -8.2034 -2.86413
C 63.6899 -8.92072 5.35528
C 63.7147 -9.01789 8.19459
C 62.568 -8.17433 6.0512
C 62.618 -8.07649 7.65654
C 40.911 -31.5369 1.98408
C 39.6595 -30.6986 1.63734
C 35.9124 -31.0146 2.66339
C 34.6683 -30.1268 2.32399
C 37.169 -30.4442 1.96095
C 33.4131 -30.7295 3.02708
C 38.0863 -32.7189 1.8484
C 39.3758 -33.4673 2.15642
C 36.8748 -33.3176 2.55664
C 38.3792 -31.3063 2.31881
C 40.5975 -32.9297 1.36434
C 35.6017 -32.5032 2.1975
C 34.329 -33.0458 2.87344
C 33.1493 -32.1487 2.49907
C 32.7601 -35.0502 1.9589
C 34.0817 -34.6423 2.60558
C 32.6117 -36.5856 1.75009
C 31.3461 -37.1508 2.43416
C 33.8366 -37.397 2.3542
C 39.2133 -35.0594 2.41845
C 38.7962 -37.854 2.29389
C 36.6972 -34.8873 2.46128
C 36.3215 -37.6816 2.32458
C 40.1224 -37.3038 1.63536
C 40.3295 -35.7368 1.73816
C 37.813 -35.5992 1.83934
C 37.5975 -37.131 1.69512
C 35.3345 -35.3464 1.94862
C 35.125 -36.8838 1.69445
C 32.2589 -39.5186 1.55407
C 31.0696 -38.7664 2.1523
C 33.6066 -39.0083 2.11449
C 38.6912 -39.4813 2.04633
C 36.1542 -39.2862 2.08759
C 39.969 -40.2451 1.48036
C 37.4025 -40.0631 1.52541
C 34.8043 -39.8192 1.56703
C 36.1369 -30.9784 4.22868
C 37.5445 -30.3626 4.55679
C 35.0787 -30.0696 4.85586
C 41.1308 -31.622 3.52911
C 40.0326 -30.7184 4.20414
C 34.5741 -32.9689 4.46523
C 33.5819 -32.0933 5.21505
C 33.6787 -30.6703 4.59315
C 38.5064 -32.7328 4.43673
C 37.0819 -33.2233 4.11673
C 39.592 -33.5881 3.71567
C 38.5999 -31.2826 3.88105
C 35.9904 -32.4199 4.7711
C 41.0022 -33.0642 4.02467
C 34.1964 -34.5141 4.21133
C 33.8787 -37.2519 4.02255
C 31.3361 -37.0945 4.06217
C 36.8152 -34.7895 4.0811
C 36.3957 -37.52 3.9869
C 39.2909 -35.1719 4.00811
C 38.9082 -37.737 3.92399
C 35.2015 -36.8674 4.68613
C 32.6512 -36.6393 4.78926
C 35.436 -35.2769 4.72836
C 32.8501 -35.1119 4.87001
C 37.9729 -35.5081 4.73158
C 37.6966 -37.1325 4.6584
C 40.4328 -35.8656 4.63729
C 40.1934 -37.3872 4.64271
C 31.1769 -38.6589 3.77314
C 33.7078 -38.8802 3.73611
C 36.2421 -39.116 3.72105
C 38.7677 -39.3485 3.63623
C 34.899 -39.6359 4.26658
C 32.3856 -39.4498 4.25195
C 37.4804 -39.8848 4.24013
C 39.9845 -40.1448 4.18706
C 33.7388 -37.625 -0.3856
C 31.2252 -37.1722 -0.357634
C 36.1918 -37.8569 -0.395773
C 38.6938 -38.0174 -0.49204
C 35.0197 -37.0731 0.117568
C 32.5633 -36.8091 0.201305
C 37.5129 -37.3252 0.114224
C 40.0201 -37.4322 0.0564896
C 30.9879 -38.7436 -0.616629
C 33.4841 -39.1825 -0.626083
C 36.0513 -39.4938 -0.596899
C 38.6362 -39.6363 -0.669519
C 34.6923 -39.9413 0.00871833
C 32.1307 -39.5969 -0.00515692
C 37.3087 -40.1797 -0.0272187
C 39.925 -40.3236 -0.0810077
C 29.599 -38.8903 1.55564
C 29.7835 -39.1498 4.33636
C 30.0012 -36.4928 1.79807
C 29.9612 -36.8569 4.75671
C 29.0541 -37.6201 2.29099
C 28.9436 -37.8286 3.92866
C 37.2601 -40.3562 -2.7558
C 38.6194 -39.8553 -2.2375
C 35.9968 -39.661 -2.16669
C 39.9054 -40.4401 -2.88106
C 34.6453 -40.1467 -2.75146
C 33.46 -39.3269 -2.20586
C 30.9261 -38.8684 -2.18734
C 32.0851 -39.6944 -2.82087
C 31.2298 -37.3053 -2.0119
C 33.7029 -37.7647 -2.0398
C 32.5574 -36.9552 -2.63697
C 37.4153 -37.5674 -2.70531
C 36.1619 -38.0815 -1.99766
C 38.6509 -38.2019 -2.08035
C 35.0095 -37.3819 -2.69777
C 39.9013 -37.5859 -2.79964
C 32.595 -37.1371 6.28552
C 31.2907 -37.8439 6.70127
C 33.8086 -37.9505 6.67289
C 38.8478 -38.3377 6.64563
C 36.3121 -38.1709 6.63866
C 40.1606 -37.7514 6.12433
C 37.6738 -37.5993 6.16697
C 35.113 -37.336 6.24959
C 32.4155 -39.9315 5.77309
C 31.1674 -39.3939 6.5001
C 33.7027 -39.5643 6.52237
C 38.7648 -39.9593 6.48113
C 36.206 -39.7764 6.52711
C 40.0175 -40.5173 5.75297
C 37.458 -40.3468 5.7801
C 34.8709 -40.1413 5.7906
C 31.1131 -40.0421 7.96481
C 33.688 -40.1268 8.0499
C 32.3386 -40.8371 8.39782
C 37.4016 -41.0798 8.51264
C 36.2043 -40.2833 8.03895
C 38.7553 -40.5049 8.03173
C 34.9044 -40.8789 8.55194
C 40.0589 -41.2155 8.50953
C 37.6258 -38.3025 8.95572
C 38.8512 -38.8608 8.17407
C 36.3053 -38.6793 8.22124
C 40.1514 -38.4825 8.89118
C 35.0807 -38.1955 8.99703
C 33.7677 -38.5359 8.25205
C 31.2797 -38.4368 8.24859
C 32.5135 -38.0975 9.06818
C 29.7091 -39.4998 5.79197
C 29.9518 -37.2434 6.28527
C 29.6627 -40.3717 8.47102
C 29.9309 -38.174 8.97737
C 28.8985 -38.4824 6.65252
C 28.8268 -39.0566 8.20236
C 30.0514 -36.4113 0.260395
C 29.5418 -38.7612 0.0104294
C 30.0631 -36.4753 -2.71292
C 29.4647 -38.7815 -2.72521
C 28.9719 -37.3612 -0.424044
C 28.9403 -37.3907 -2.0663
C 38.6768 -28.4759 1.60576
C 39.8943 -29.2803 2.07841
C 37.4194 -28.959 2.37394
C 36.1763 -28.1439 1.97928
C 34.9506 -28.688 2.77035
C 35.1714 -28.6364 4.28115
C 39.0444 -28.3477 4.27277
C 37.6556 -28.9222 3.92793
C 40.105 -29.2624 3.62384
C 36.5557 -28.0726 4.58433
C 41.3516 -38.0101 3.91066
C 41.2953 -39.5751 3.6403
C 41.2764 -38.0738 2.24821
C 41.2435 -39.719 2.05784
C 41.3945 -38.4706 6.56311
C 41.328 -40.0747 6.44628
C 42.6732 -40.0763 4.17432
C 42.6384 -40.0325 1.42442
C 42.7425 -37.8441 4.49896
C 42.5855 -37.7153 1.60465
C 43.6177 -38.8882 3.69671
C 43.5922 -38.8254 2.04195
C 41.3382 -40.5623 8.01207
C 41.3489 -38.983 8.11826
C 41.1991 -38.0361 -0.505982
C 41.1463 -39.6367 -0.702431
C 41.1434 -39.7421 -2.26335
C 41.1087 -38.1714 -2.12225
C 42.5838 -40.0195 -0.118283
C 42.534 -37.5811 0.102753
C 42.5004 -39.9866 -2.93734
C 42.3997 -37.6402 -2.73791
C 43.3292 -38.7671 -0.640023
C 43.3723 -38.7392 -2.25211
C 42.7462 -38.0158 6.0452
C 42.7457 -40.2199 5.73656
C 42.693 -38.6229 8.78089
C 42.8805 -40.8684 8.41153
C 43.7377 -39.1786 6.44246
C 43.7204 -39.5552 8.0355
C 47.4423 -37.5145 1.64642
C 49.5064 -36.0478 1.61296
C 50.8502 -35.6597 0.900346
C 48.7833 -37.2573 0.92627
C 47.4767 -37.5261 3.29759
C 49.6364 -36.2043 3.20341
C 48.9621 -37.4502 3.79209
C 51.0237 -35.796 3.81014
C 46.9249 -36.9252 -0.917387
C 49.0784 -35.5266 -1.05064
C 48.468 -36.9049 -0.592863
C 50.5961 -35.4658 -0.634442
C 46.3998 -38.4844 1.00721
C 46.468 -38.618 3.76653
C 45.0388 -38.1387 1.6004
C 45.0757 -38.2862 3.26747
C 47.7649 -36.1328 -3.15559
C 48.7677 -35.147 -2.56117
C 50.1085 -35.036 -3.41073
C 46.5721 -36.6218 -2.36117
C 47.4426 -37.632 5.94375
C 49.5954 -36.1531 5.94112
C 51.0198 -35.7619 5.36376
C 48.9291 -37.4492 5.31801
C 47.5081 -37.6929 7.5445
C 48.9581 -37.4673 8.12727
C 49.5917 -36.2139 7.46456
C 50.9278 -35.7112 8.15302
C 46.5938 -38.7902 5.3052
C 46.739 -38.989 8.09395
C 45.1877 -38.6582 6.07838
C 45.259 -38.909 7.67576
C 46.351 -38.364 -0.5275
C 45.6024 -37.4971 -3.29163
C 44.9223 -38.4296 -1.04314
C 44.9238 -38.7502 -2.67362
C 51.3832 -34.3863 3.23771
C 51.3909 -34.3839 1.62697
C 51.4046 -34.3663 5.94919
C 52.6667 -33.7185 3.83505
C 52.6347 -33.7339 0.946766
C 52.6421 -32.3547 3.14282
C 52.7809 -32.3182 1.51789
C 51.3595 -34.3172 7.58034
C 51.1939 -34.1059 -1.16845
C 51.027 -33.9981 -2.74747
C 52.603 -33.8021 -0.644355
C 52.454 -33.7524 -3.486
C 52.8691 -32.4621 -1.32261
C 53.01 -32.4416 -2.9387
C 52.5913 -33.603 5.39704
C 52.6384 -33.6428 8.20193
C 52.5664 -32.1253 5.99854
C 52.5737 -32.2127 7.63358
C -60.9677 -1.28618 4.61999
C -60.9137 -2.76138 4.96257
C -63.5728 -5.55678 4.59666
C -63.5056 -7.04893 4.9723
C -62.2521 -4.88751 4.96653
C -64.8512 -7.71729 4.52356
C -63.4757 -2.7128 5.3099
C -63.4396 -1.24417 4.85991
C -64.7644 -3.38214 4.83526
C -62.2779 -3.42063 4.57244
C -62.1303 -0.638065 5.37679
C -64.8032 -4.83629 5.29227
C -66.0988 -5.58056 4.82586
C -66.0101 -7.02178 5.28778
C -68.6918 -5.52604 5.26174
C -67.5149 -4.76618 4.61448
C -69.9792 -4.64535 5.48141
C -71.1887 -5.27122 4.78269
C -69.8472 -3.22397 4.82425
C -64.8249 -0.346201 4.66928
C -67.2067 1.07138 4.90216
C -66.1999 -2.54711 4.65258
C -68.5665 -1.0896 4.83404
C -66.0159 1.834 5.49999
C -64.6977 1.02789 5.34276
C -66.0426 -1.22875 5.29338
C -67.3345 -0.360012 5.49175
C -67.3701 -3.31801 5.24912
C -68.649 -2.4876 5.46325
C -72.4589 -3.03881 5.47209
C -72.6074 -4.43899 4.90388
C -71.1963 -2.36556 4.99349
C -68.6078 1.98592 5.06382
C -69.9119 -0.177363 5.03742
C -68.4687 3.40048 5.72284
C -69.791 1.21727 5.58259
C -71.0945 -0.935293 5.54733
C -63.7264 -5.42482 3.02754
C -62.5109 -4.68998 2.42352
C -63.8099 -6.85058 2.39705
C -61.0991 -1.13293 3.06126
C -61.1637 -2.53017 2.44222
C -66.2674 -5.46448 3.19321
C -66.3016 -6.90463 2.57268
C -64.9999 -7.64451 2.99216
C -63.7126 -2.46499 2.67893
C -64.9338 -3.20154 3.25373
C -63.6005 -1.05688 3.26947
C -62.4242 -3.2963 3.01157
C -65.0544 -4.6796 2.67692
C -62.3666 -0.343745 2.71743
C -67.6575 -4.6037 3.0328
C -69.8937 -3.17863 3.12953
C -71.2549 -5.22018 3.11803
C -66.295 -2.40683 3.09237
C -68.5696 -1.03929 3.15829
C -64.9851 -0.26497 3.04197
C -67.2299 1.05323 3.24976
C -68.7931 -2.35538 2.4799
C -70.1391 -4.51006 2.33513
C -67.4807 -3.18125 2.49626
C -68.7891 -5.30452 2.29653
C -66.1407 -1.06226 2.42865
C -67.4782 -0.240419 2.49158
C -64.8208 1.09143 2.40487
C -66.1548 1.85464 2.52572
C -72.6143 -4.40271 3.32784
C -71.2702 -2.3457 3.38514
C -69.8664 -0.177961 3.4228
C -68.5582 1.98476 3.48895
C -71.1498 -0.869971 2.93745
C -72.5496 -2.99924 2.82211
C -69.806 1.24363 3.0004
C -68.4829 3.41024 2.98626
C -70.1171 -3.1024 7.5482
C -71.4516 -5.24794 7.56654
C -68.7929 -0.95027 7.52278
C -67.3815 1.1095 7.62132
C -68.8684 -2.39111 6.98092
C -70.2159 -4.53092 7.03506
C -67.5113 -0.278097 7.04904
C -66.1273 1.86485 7.04578
C -72.8296 -4.34606 7.59442
C -71.4856 -2.22281 7.64241
C -70.117 -0.102009 7.72341
C -68.7136 2.02623 7.78714
C -71.2852 -0.844535 7.06419
C -72.6712 -2.96678 6.98068
C -69.9638 1.31374 7.15836
C -68.5324 3.46039 7.26467
C -73.7853 -5.31661 5.43042
C -73.8134 -5.195 2.66643
C -71.688 -6.64011 5.3576
C -71.7299 -6.56168 2.43049
C -73.1532 -6.59608 4.79011
C -73.1348 -6.51872 3.11046
C -70.0976 1.41448 9.94629
C -68.8636 2.0972 9.42353
C -70.3391 0.036319 9.31009
C -68.6465 3.49493 10.0364
C -71.5764 -0.685191 9.85445
C -71.7177 -2.09046 9.28211
C -73.0249 -4.27619 9.15769
C -72.908 -2.89545 9.78429
C -71.6988 -5.14993 9.1459
C -70.357 -2.95261 9.12874
C -70.5893 -4.34709 9.78297
C -67.7414 -0.155105 9.80998
C -68.9725 -0.846974 9.1772
C -67.5621 1.22912 9.20908
C -69.2034 -2.22213 9.79335
C -66.3284 1.87933 9.9106
C -70.4476 -4.20287 0.826564
C -71.6831 -4.90201 0.423044
C -70.4805 -2.71477 0.533805
C -67.8885 1.48632 0.622888
C -69.2026 -0.636751 0.585089
C -66.5563 2.13575 1.1005
C -67.903 0.0342662 0.979206
C -69.2002 -2.08223 0.942099
C -72.91 -2.79368 1.28815
C -73.0567 -4.0693 0.525918
C -71.8847 -1.89196 0.67918
C -69.1841 2.36297 0.772298
C -70.5532 0.239171 0.742558
C -68.8471 3.70286 1.48762
C -70.2721 1.54528 1.49596
C -71.639 -0.595858 1.43473
C -73.4894 -3.83332 -0.963409
C -72.3321 -1.60493 -0.826255
C -73.5372 -2.38868 -1.3489
C -70.956 2.07371 -1.09692
C -71.0272 0.574475 -0.750913
C -69.644 2.73157 -0.72426
C -72.2983 -0.157812 -1.24138
C -69.4671 4.1941 -1.20187
C -68.6325 0.557118 -1.72495
C -68.3238 1.82279 -0.948248
C -69.6486 -0.284352 -0.952463
C -67.2222 2.53705 -1.69044
C -69.8828 -1.56617 -1.70536
C -70.943 -2.39827 -0.985641
C -72.0744 -4.54697 -1.12607
C -71.1002 -3.65844 -1.81037
C -74.017 -5.13009 1.18555
C -71.811 -6.32567 0.935218
C -74.5002 -4.87545 -1.56402
C -72.2261 -5.87625 -1.95558
C -73.3417 -6.34413 0.443841
C -73.569 -6.06023 -1.16908
C -71.7944 -6.64973 6.89987
C -73.8649 -5.27596 6.89695
C -71.9931 -6.62092 9.79406
C -74.067 -5.22353 9.70661
C -73.2069 -6.53256 7.50449
C -73.414 -6.53596 9.14468
C -59.7214 -4.88459 4.71008
C -59.7413 -3.44416 4.2332
C -61.0138 -5.56182 4.2348
C -61.0141 -7.03558 4.63398
C -62.2878 -7.69369 4.21184
C -62.4855 -7.57336 2.67923
C -60.0223 -4.75334 2.07892
C -61.2132 -5.44247 2.69812
C -59.8907 -3.36339 2.73026
C -61.3415 -6.81464 1.99907
C -65.9695 3.17519 3.26091
C -67.2709 4.06567 3.56604
C -65.9943 3.18669 4.89122
C -67.3179 4.13358 5.17533
C -66.4362 3.5233 0.617812
C -67.7365 4.47041 0.736864
C -66.9994 5.5181 2.95865
C -66.8512 5.47615 5.74028
C -65.0336 4.16816 2.60846
C -64.9205 4.14572 5.53938
C -65.5055 5.4631 3.40312
C -65.4016 5.53561 5.03344
C -68.1277 4.74734 -0.786158
C -66.8479 3.76828 -0.942371
C -65.9168 3.23326 7.67555
C -67.269 4.13404 7.86921
C -67.4278 4.22256 9.46304
C -66.1266 3.26177 9.27101
C -66.7892 5.51087 7.27065
C -64.8442 4.14949 7.0689
C -66.8184 5.55839 9.99724
C -64.9977 4.10114 9.88598
C -65.3367 5.50857 7.81222
C -65.3271 5.54318 9.41456
C -65.1835 4.23478 1.13451
C -67.1473 5.68788 1.43134
C -65.7222 4.52776 -1.71623
C -67.4464 6.07264 -1.26034
C -65.7257 5.69436 0.716635
C -65.9597 5.83416 -0.89145
C -43.5119 4.34256 3.45236
C -44.7671 3.52299 3.83683
C -48.6164 4.2598 3.36513
C -49.8914 3.43644 3.62353
C -47.3407 3.4725 3.73777
C -51.1515 4.17529 3.17253
C -46.0782 5.64907 4.23951
C -44.7868 6.40759 3.83399
C -47.3602 6.3963 3.86362
C -46.0499 4.29274 3.43965
C -43.5651 5.64935 4.24246
C -48.6379 5.5755 4.16972
C -49.924 6.29768 3.70914
C -51.1484 5.46969 4.09067
C -51.088 8.41476 4.5068
C -49.8342 7.89556 3.80182
C -50.9746 9.93319 4.9705
C -52.272 10.6334 4.46572
C -49.7794 10.7326 4.38735
C -44.692 8.04944 3.76498
C -44.7796 10.8123 4.25736
C -47.2966 8.02099 3.80658
C -47.2694 10.7892 4.31171
C -43.4972 10.0941 4.77948
C -43.4255 8.5833 4.4622
C -46.0091 8.58137 4.47117
C -46.0116 10.0851 4.86433
C -48.5376 8.55061 4.47933
C -48.4813 10.0466 4.88251
C -51.1335 12.7865 5.55044
C -52.363 12.1645 4.91237
C -49.8309 12.305 4.83191
C -44.7443 12.4269 4.6942
C -47.2783 12.3986 4.75751
C -43.467 13.0332 5.35296
C -46.0212 12.9954 5.36136
C -48.561 12.9197 5.41371
C -48.5392 4.54483 1.84071
C -47.2522 3.91361 1.2485
C -49.7276 3.88961 1.1287
C -43.524 4.58764 1.94196
C -44.7508 3.9259 1.31645
C -49.8363 6.65039 2.12868
C -51.0721 6.00188 1.38908
C -51.0185 4.45641 1.65212
C -46.0152 6.09344 1.61987
C -47.3026 6.70834 2.22916
C -44.7413 6.71304 2.25291
C -46.0055 4.57467 1.90151
C -48.5509 6.07486 1.57175
C -43.4999 6.07559 1.60833
C -49.8007 8.25883 2.23526
C -49.8602 10.8878 2.72572
C -52.3356 10.7831 2.83951
C -47.2868 8.32545 2.24846
C -47.3174 10.9636 2.62797
C -44.7427 8.31443 2.21214
C -44.7827 10.9823 2.59222
C -48.5833 10.5061 1.92187
C -51.0945 10.4508 1.99288
C -48.5422 8.96759 1.75771
C -51.03 8.89955 1.58782
C -46.0544 8.98243 1.68944
C -46.0617 10.5613 1.87266
C -43.5033 9.00868 1.58544
C -43.5304 10.5837 1.82771
C -52.3985 12.3417 3.38139
C -49.8875 12.4438 3.2072
C -47.3623 12.5162 3.12166
C -44.7845 12.527 3.0908
C -48.6579 13.2073 2.76385
C -51.1831 13.1256 2.86588
C -46.1038 13.2867 2.68847
C -43.5093 13.2891 2.6266
C -49.6428 10.5473 7.16752
C -52.085 10.1511 7.25594
C -47.2059 10.6755 7.09553
C -44.7548 10.6877 7.06924
C -48.4029 10.0221 6.51188
C -50.8279 9.83167 6.5335
C -45.9794 10.0762 6.47112
C -43.4703 10.1373 6.39041
C -52.2697 11.6985 7.62302
C -49.767 12.0676 7.55314
C -47.2571 12.2021 7.4494
C -44.6667 12.2384 7.4006
C -48.5653 12.8179 6.93985
C -51.14 12.5862 7.08945
C -45.991 12.9018 6.88949
C -43.4096 12.9217 6.86658
C -53.7293 12.2811 5.56246
C -53.8259 12.881 2.91329
C -53.5207 9.83984 5.11051
C -53.7011 10.5395 2.18395
C -54.3631 11.1432 4.76116
C -54.5668 11.4815 3.16256
C -45.9145 12.8353 9.66383
C -44.6392 12.2526 9.02998
C -47.1793 12.2382 9.07537
C -43.3138 12.7296 9.67543
C -48.4926 12.6687 9.77591
C -49.775 12.0664 9.18717
C -52.2584 11.6123 9.27603
C -51.1035 12.3753 9.90498
C -51.9797 10.1036 8.83613
C -49.6186 10.4805 8.81915
C -50.6927 9.60059 9.35938
C -45.8745 9.99036 9.28421
C -47.1221 10.6694 8.70156
C -44.651 10.6869 8.66367
C -48.31 9.92947 9.31518
C -43.4302 9.93734 9.18279
C -51.1821 11.1079 0.609124
C -52.4642 11.8184 0.328896
C -49.9221 11.938 0.211885
C -44.8195 12.0016 0.102567
C -47.402 11.9781 0.171529
C -43.5482 11.1521 0.340319
C -46.1008 11.2231 0.455778
C -48.6532 11.162 0.467746
C -51.286 13.8156 1.43995
C -52.562 13.4016 0.689458
C -49.9929 13.5007 0.588074
C -44.8303 13.5819 0.446323
C -47.4175 13.55 0.518077
C -43.5397 13.9187 1.15897
C -46.0753 13.9655 1.24053
C -48.7128 13.8948 1.309
C -52.68 14.044 -0.774266
C -50.0863 14.2166 -0.859112
C -51.4819 14.9234 -1.16938
C -46.1774 15.0171 -1.33351
C -47.5049 14.2535 -0.926688
C -44.8716 14.2835 -1.01867
C -48.8179 14.9947 -1.26788
C -43.5664 15.0357 -1.45857
C -46.1839 12.2884 -2.07064
C -44.8693 12.6852 -1.33241
C -47.4324 12.6867 -1.30462
C -43.6833 12.2809 -2.2484
C -48.7664 12.3607 -2.0673
C -50.0051 12.643 -1.21759
C -52.5415 12.4917 -1.11007
C -51.2993 12.256 -1.98701
C -53.9367 13.3989 1.47461
C -53.7578 11.0053 0.752035
C -54.168 14.3786 -1.08008
C -53.8529 12.1845 -1.90595
C -54.613 12.3366 0.592206
C -54.8907 12.9183 -0.90418
C -53.3379 9.58961 6.57891
C -53.7161 12.0574 7.06457
C -53.0602 9.20334 9.4593
C -53.6753 11.6422 9.91268
C -54.1283 10.6234 7.48888
C -53.9711 10.3787 9.05281
C -46.0604 1.37261 3.53414
C -44.7874 2.14038 3.14909
C -47.282 2.11 3.02215
C -48.5886 1.34922 3.43422
C -49.8023 2.09432 2.87724
C -49.7063 2.34376 1.34633
C -45.9547 1.70508 0.946212
C -47.2593 2.3241 1.47635
C -44.7344 2.39808 1.62362
C -48.4596 1.72303 0.74093
C -42.3017 11.0378 2.57141
C -42.2558 12.5787 3.10088
C -42.2703 10.8661 4.21626
C -42.2043 12.4544 4.6775
C -42.3184 11.9378 -0.0121293
C -42.3133 13.5166 0.320609
C -40.9319 13.2003 2.49134
C -40.8029 12.8218 5.29
C -40.8763 10.9912 1.93127
C -40.8835 10.4403 4.81271
C -39.9631 11.9733 2.84309
C -40.0828 11.7208 4.46373
C -42.3198 14.1941 -1.17269
C -42.3846 12.6016 -1.45548
C -42.186 10.617 6.9953
C -42.1537 12.1716 7.3795
C -42.0719 12.1327 8.97356
C -42.1822 10.5713 8.58353
C -40.755 12.633 6.789
C -40.906 10.175 6.32905
C -40.5993 12.3348 9.63427
C -40.9546 9.7992 9.20146
C -40.0517 11.2789 7.15835
C -40.1506 11.092 8.81138
C -40.9406 11.3768 0.438866
C -40.8664 13.6316 1.0197
C -41.0572 12.3745 -2.26567
C -40.8976 14.5926 -1.68082
C -40.0136 12.6869 0.104537
C -39.9608 13.1888 -1.41985
C -62.5869 8.38935 5.28454
C -60.5874 9.82951 5.1238
C -59.6461 10.9198 5.65263
C -61.9738 9.7117 5.8476
C -62.6907 8.37398 3.67351
C -60.7559 10.0449 3.4871
C -62.1925 9.69573 2.9902
C -59.9568 11.1698 2.87316
C -62.3653 8.28311 8.06499
C -60.3067 9.63802 7.79168
C -61.8094 9.6605 7.3725
C -59.4616 10.7736 7.19076
C -63.898 7.91565 5.98089
C -64.0484 7.8005 3.09694
C -64.1594 6.53247 5.39669
C -64.1737 6.42424 3.74844
C -61.5033 9.66911 10.0789
C -60.1881 9.60259 9.35815
C -59.0675 10.509 9.89662
C -62.2451 8.34163 9.62145
C -62.638 8.22083 0.965855
C -60.7105 9.87115 0.86333
C -59.9965 11.1469 1.33731
C -62.1646 9.64105 1.46135
C -62.6582 8.13684 -0.596924
C -62.0864 9.39465 -1.28835
C -60.6847 9.76828 -0.719682
C -60.0041 11.0055 -1.41444
C -64.0538 7.84999 1.55715
C -64.0205 7.75672 -1.22897
C -64.3237 6.47427 0.964575
C -64.4468 6.42866 -0.62404
C -63.8056 7.91656 7.56204
C -63.5868 7.98939 10.3879
C -64.1051 6.5192 8.19064
C -64.2325 6.69246 9.83416
C -58.5125 11.0128 3.31191
C -58.3054 10.6635 4.88755
C -58.5374 11.1212 0.681084
C -57.404 11.9042 2.67708
C -56.9742 11.3534 5.37259
C -56.1004 11.0677 2.89296
C -55.8857 10.6937 4.45473
C -58.5301 11.1646 -0.913479
C -57.9987 10.4305 7.51773
C -57.8018 10.1425 9.05185
C -56.7642 11.1108 6.86728
C -56.4923 10.7181 9.59876
C -55.6476 10.1574 7.21927
C -55.4612 9.93786 8.80494
C -57.6184 12.1917 1.20462
C -57.6844 12.255 -1.75109
C -56.2542 12.1819 0.36461
C -56.5344 12.9247 -1.01703
C -64.5159 -17.9663 6.28421
C -63.2802 -18.7549 6.81241
C -61.9809 -22.4078 6.05263
C -60.7307 -23.1982 6.63752
C -62.0352 -21.0038 6.73775
C -60.6888 -24.6047 5.98311
C -64.5772 -20.9655 6.52876
C -65.7333 -20.1056 6.00592
C -64.4899 -22.3305 5.86175
C -63.2573 -20.1958 6.1959
C -65.7314 -18.7957 6.74761
C -63.32 -23.1582 6.41021
C -63.1955 -24.5399 5.76699
C -61.99 -25.2924 6.42968
C -64.4927 -26.7314 5.73175
C -64.5704 -25.2899 5.25345
C -65.8294 -27.4391 5.68674
C -65.6852 -28.7706 4.9172
C -66.9618 -26.6283 5.01711
C -67.1676 -20.7886 5.45728
C -69.5346 -22.2774 5.11957
C -65.8667 -23.0864 5.35359
C -68.2483 -24.4518 5.07303
C -69.7248 -20.9166 5.85699
C -68.419 -20.0893 6.0414
C -67.0855 -22.3551 5.87627
C -68.4426 -23.1157 5.80824
C -65.8193 -24.5222 5.79918
C -67.1432 -25.2869 5.76126
C -68.3307 -28.9904 5.40281
C -67.0379 -29.6516 4.93703
C -68.3447 -27.5011 5.01842
C -70.9635 -23.1285 5.05847
C -69.6324 -25.3258 5.02493
C -72.258 -22.4489 5.50945
C -70.899 -24.6339 5.47119
C -69.6356 -26.8182 5.47842
C -61.8639 -22.26 4.53771
C -61.8136 -20.7484 4.19155
C -60.5573 -22.9359 4.09377
C -64.399 -17.8328 4.75559
C -63.0813 -18.5536 4.26747
C -63.1033 -24.416 4.17348
C -61.7708 -25.0604 3.70653
C -60.5694 -24.4294 4.45841
C -64.3645 -20.7218 3.91887
C -64.3761 -22.1872 4.25942
C -65.6368 -20.0026 4.40784
C -63.1156 -20.0375 4.62103
C -63.0917 -22.8834 3.84802
C -65.5807 -18.4724 4.046
C -64.4243 -25.1054 3.66836
C -66.6783 -26.3965 3.38101
C -65.4802 -28.5453 3.35646
C -65.7125 -22.9209 3.79482
C -67.9284 -24.1939 3.45257
C -66.9983 -20.6587 3.87833
C -69.2308 -22.0437 3.48766
C -66.8015 -25.0017 2.78704
C -65.5321 -27.1769 2.72583
C -65.5021 -24.2372 3.02345
C -64.1528 -26.3579 2.81569
C -66.7606 -22.0263 3.16593
C -68.04 -22.7818 2.86592
C -68.0515 -19.8213 3.13447
C -69.332 -20.6208 2.85495
C -66.8202 -29.4224 3.36791
C -68.0617 -27.2577 3.45723
C -69.3269 -24.9939 3.47218
C -70.6481 -22.8302 3.50133
C -69.2191 -26.3988 2.86596
C -67.9573 -28.6416 2.81325
C -70.4881 -24.2258 2.88757
C -71.8454 -22.0824 2.84701
C -67.4655 -26.9496 7.72072
C -66.0258 -29.0092 7.69556
C -68.8526 -24.8391 7.75279
C -70.1323 -22.6966 7.8145
C -67.5323 -25.516 7.24484
C -66.1703 -27.655 7.20674
C -68.8594 -23.3896 7.35917
C -70.1255 -21.1887 7.3497
C -67.3617 -29.8893 7.62194
C -68.7824 -27.8433 7.64266
C -70.176 -25.6829 7.6798
C -71.506 -23.4784 7.66542
C -69.9238 -27.0375 6.97971
C -68.521 -29.1495 6.92875
C -71.2588 -24.8316 6.99154
C -72.5865 -22.6406 7.01889
C -66.5586 -31.081 5.43202
C -66.4497 -30.8318 2.68769
C -64.6549 -29.6976 5.64967
C -64.4939 -29.5544 2.75337
C -65.0003 -31.0428 4.94728
C -64.9824 -30.9677 3.27089
C -71.883 -25.2525 9.60939
C -71.9293 -23.734 9.22003
C -70.5872 -25.9503 9.20672
C -73.2232 -22.9574 9.72449
C -70.4032 -27.4077 9.74229
C -69.1233 -28.0835 9.19012
C -67.6343 -30.1831 9.18047
C -68.9025 -29.5582 9.70523
C -66.3426 -29.2287 9.26208
C -67.8258 -27.1649 9.27841
C -66.6726 -27.9156 9.97132
C -69.5163 -23.7713 10.1052
C -69.2532 -25.0846 9.33437
C -70.5412 -22.917 9.3679
C -68.0762 -25.8572 10.0322
C -70.7559 -21.6319 10.0984
C -65.7455 -27.2441 1.19361
C -65.6417 -28.6445 0.66315
C -67.0149 -26.5694 0.674332
C -69.4397 -22.1244 0.760062
C -68.288 -24.333 0.767924
C -69.4521 -20.7037 1.3097
C -68.2184 -22.9308 1.27532
C -67.0998 -25.1005 1.23584
C -68.1946 -28.7633 1.26395
C -67.0207 -29.495 0.59121
C -68.3641 -27.4122 0.608139
C -70.8393 -22.894 0.628698
C -69.6587 -25.1308 0.609734
C -71.9856 -22.0521 1.25285
C -70.7827 -24.312 1.24103
C -69.5044 -26.52 1.22725
C -67.2452 -29.6463 -1.02051
C -68.6646 -27.5339 -0.981023
C -68.4668 -28.9675 -1.56434
C -71.0529 -24.4284 -1.53997
C -69.8811 -25.2769 -0.995479
C -71.1192 -22.9787 -0.984299
C -69.8488 -26.723 -1.54006
C -72.2749 -22.0624 -1.51196
C -68.5543 -23.0931 -1.47244
C -69.6665 -22.2615 -0.826045
C -68.4699 -24.4976 -0.860393
C -69.7161 -20.8561 -1.46019
C -67.3789 -25.3042 -1.53659
C -67.2629 -26.6775 -0.89247
C -65.9278 -28.7585 -0.918126
C -66.1314 -27.4033 -1.58643
C -66.4456 -30.8363 1.18598
C -64.5269 -29.4988 1.22223
C -66.633 -30.9791 -1.57673
C -64.7218 -29.4355 -1.69373
C -64.9612 -30.9087 0.57041
C -65.0997 -30.8643 -1.08207
C -64.7983 -29.771 7.16331
C -66.694 -31.1319 6.95345
C -65.2311 -30.0656 10.0071
C -66.987 -31.5462 9.69142
C -65.2872 -31.2175 7.63182
C -65.4561 -31.4392 9.26047
C -60.8295 -18.8153 7.12284
C -62.002 -18.0287 6.47224
C -60.7326 -20.2012 6.43368
C -59.5413 -20.9667 6.9935
C -59.454 -22.3615 6.30561
C -59.353 -22.2262 4.76693
C -60.5468 -18.5538 4.40777
C -60.5893 -20.0556 4.86824
C -61.8316 -17.8918 4.94019
C -59.3124 -20.7584 4.35043
C -70.5861 -20.0002 3.51501
C -72.0016 -20.7571 3.52811
C -70.8402 -20.1734 5.12842
C -72.2951 -20.9924 5.0933
C -70.6136 -19.9316 0.819887
C -72.0217 -20.6434 0.670181
C -73.0825 -19.7805 2.8563
C -73.4014 -19.9934 5.57512
C -70.9851 -18.6236 2.99738
C -71.3395 -18.8862 5.82429
C -72.475 -18.5055 3.53682
C -72.6945 -18.6559 5.12506
C -72.2597 -20.6431 -0.916964
C -70.7612 -20.029 -0.761092
C -71.3418 -20.4972 7.82054
C -72.785 -21.2496 7.72667
C -73.2296 -21.4765 9.3093
C -71.7511 -20.7559 9.36221
C -73.6078 -20.0754 7.05592
C -71.5098 -19.0597 7.33943
C -74.1719 -20.275 9.80524
C -71.9094 -19.4105 10.1428
C -72.9827 -18.8479 7.77022
C -73.2824 -19.1166 9.37788
C -70.8969 -18.5785 1.45407
C -73.086 -19.6904 1.37361
C -70.8221 -18.607 -1.36942
C -73.1872 -19.468 -1.45117
C -72.3136 -18.4642 0.834075
C -72.289 -18.349 -0.805244
C -74.394 -15.0356 4.79394
C -74.9601 -12.5871 4.85861
C -75.6208 -11.3605 5.48956
C -75.3157 -14.0052 5.41538
C -74.2528 -14.9447 3.23033
C -74.8746 -12.5952 3.28825
C -75.2445 -13.9237 2.62086
C -75.5318 -11.3084 2.70099
C -74.3999 -15.0898 7.57114
C -74.7745 -12.6804 7.59039
C -75.3022 -14.0141 6.98633
C -75.5249 -11.4067 7.00741
C -74.3439 -16.4944 5.37477
C -74.1363 -16.358 2.59876
C -73.0214 -17.1109 4.86082
C -72.9203 -16.9729 3.26183
C -75.356 -14.0811 9.69775
C -74.7061 -12.7799 9.15246
C -75.1597 -11.4815 9.83837
C -74.5658 -15.1853 9.05272
C -73.9212 -14.7742 0.596068
C -74.5771 -12.426 0.622157
C -75.3439 -11.2518 1.18493
C -75.0844 -13.8632 1.0749
C -73.765 -14.7327 -0.989374
C -74.6278 -13.6456 -1.65354
C -74.2766 -12.3373 -0.910131
C -74.9646 -11.1424 -1.63033
C -73.9939 -16.2619 1.06594
C -73.7495 -16.1047 -1.68645
C -72.7261 -16.9716 0.552643
C -72.5928 -16.7992 -1.04098
C -74.4948 -16.4489 6.92286
C -74.7741 -16.6898 9.63975
C -73.37 -17.2622 7.59366
C -73.6361 -17.5253 9.11616
C -74.715 -10.1478 3.34801
C -74.9004 -10.1433 4.95697
C -74.5386 -10.0355 0.645435
C -74.8648 -8.67602 2.77321
C -75.1142 -8.72821 5.62479
C -73.6913 -7.96399 3.45921
C -73.8434 -8.05597 5.08748
C -74.4037 -9.89417 -0.951491
C -74.671 -10.2029 7.61297
C -74.3792 -10.2959 9.12841
C -75.0844 -8.82478 7.1432
C -74.1354 -9.01828 10.1069
C -74.1164 -7.87798 7.81581
C -74.4676 -7.7593 9.34589
C -74.8451 -8.63345 1.23638
C -74.9343 -8.59549 -1.57812
C -73.7225 -7.87098 0.603799
C -73.9583 -7.61544 -0.995049
C -51.3066 -30.7617 5.9643
C -50.1075 -29.9472 6.46711
C -46.3234 -30.2772 5.74262
C -45.0995 -29.4911 6.20198
C -47.6144 -29.7174 6.39859
C -43.8575 -30.1244 5.59583
C -48.644 -32.0484 6.21083
C -49.8786 -32.832 5.67674
C -47.3474 -32.6018 5.64257
C -48.8121 -30.5263 5.85571
C -51.1077 -32.2439 6.39447
C -46.1568 -31.7934 6.1215
C -44.8815 -32.3529 5.48371
C -43.7475 -31.5693 6.0866
C -43.3504 -34.4998 6.09733
C -44.6638 -34.0119 5.62434
C -43.163 -36.079 5.97313
C -41.935 -36.4578 5.16846
C -44.4632 -36.6026 5.27019
C -49.6935 -34.433 5.79833
C -49.4626 -37.004 5.47608
C -47.1926 -34.2176 5.73472
C -46.961 -36.8646 5.42688
C -50.6784 -36.6171 6.27218
C -50.8097 -35.0961 6.55294
C -48.3799 -34.9041 6.36999
C -48.21 -36.47 6.23573
C -45.8335 -34.7314 6.27683
C -45.7058 -36.2979 6.11548
C -42.9766 -38.825 5.25051
C -41.7765 -38.0447 4.78028
C -44.3148 -38.1979 4.87434
C -49.3786 -38.5757 5.07786
C -46.8505 -38.3779 5.01626
C -50.6319 -39.3806 5.5895
C -48.0399 -39.2244 5.49768
C -45.4944 -39.0275 5.3556
C -46.3939 -30.1474 4.15799
C -47.7661 -29.4957 3.81383
C -45.266 -29.2669 3.64993
C -51.4462 -30.5942 4.41291
C -50.2879 -29.7251 3.9385
C -44.9273 -32.1517 3.9015
C -43.8218 -31.3273 3.30555
C -43.9374 -29.9731 4.04434
C -48.8162 -31.8033 3.61246
C -47.4636 -32.385 4.03264
C -49.9539 -32.636 4.09887
C -48.8955 -30.3555 4.31069
C -46.2972 -31.5449 3.51144
C -51.3212 -31.9678 3.6788
C -44.8152 -33.7776 4.08382
C -44.4729 -36.6143 3.62495
C -41.9884 -36.4054 3.5661
C -47.2948 -33.981 4.17905
C -46.9952 -36.8316 3.76079
C -49.7876 -34.2531 4.24069
C -49.4743 -36.9817 3.82264
C -45.8421 -36.0092 3.13346
C -43.3076 -35.8207 3.00134
C -46.0005 -34.4742 3.48794
C -43.517 -34.307 3.30172
C -48.4729 -34.6877 3.54049
C -48.3009 -36.1928 3.19487
C -51.0075 -34.8574 3.64528
C -50.774 -36.3718 3.27359
C -41.7533 -38.0114 3.16549
C -44.3608 -38.2142 3.2823
C -46.8652 -38.4316 3.3882
C -49.3759 -38.5582 3.43701
C -45.5657 -38.9283 2.72258
C -43.0046 -38.7118 2.59132
C -48.1254 -39.0736 2.81744
C -50.7257 -39.1979 2.8515
C -44.2313 -37.5842 7.84751
C -41.7495 -37.2495 7.78254
C -46.7397 -37.7988 7.96292
C -49.2394 -37.9101 8.05223
C -45.5576 -36.8911 7.60117
C -43.0795 -36.6218 7.44359
C -48.076 -37.0574 7.65391
C -50.5777 -37.1503 7.68103
C -41.6392 -38.8286 7.44024
C -44.092 -39.1979 7.53938
C -46.6455 -39.4113 7.61871
C -49.2509 -39.4839 7.80312
C -45.3358 -39.7029 6.80262
C -42.8167 -39.4257 6.73188
C -47.9933 -39.8564 6.94455
C -50.6406 -39.8468 7.08312
C -40.3408 -38.4895 5.2648
C -40.3075 -38.057 2.52671
C -40.5444 -36.2185 5.79291
C -40.7062 -35.7188 2.96429
C -39.5524 -37.1255 4.90559
C -39.6932 -36.8506 3.31963
C -47.908 -40.8597 9.60269
C -49.2477 -40.1045 9.33534
C -46.5857 -40.0667 9.11457
C -50.6405 -40.7117 9.84629
C -45.2527 -40.7816 9.39683
C -44.0043 -39.9446 8.95501
C -41.4975 -39.4975 8.9082
C -42.6227 -40.5287 9.21721
C -41.7156 -37.9223 9.22353
C -44.1318 -38.2805 9.32137
C -42.9121 -37.7541 10.0684
C -47.9075 -38.1067 10.3356
C -46.6922 -38.4536 9.43884
C -49.1739 -38.5208 9.56003
C -45.3997 -38.0068 10.1518
C -50.3952 -38.0448 10.3494
C -43.2777 -35.8266 1.43373
C -41.9178 -36.2133 0.698377
C -44.4699 -36.4386 0.762753
C -49.4992 -36.7314 0.940965
C -47.007 -36.6166 0.840586
C -50.7694 -36.2908 1.73769
C -48.2765 -36.202 1.63248
C -45.8163 -36.0408 1.55229
C -42.9884 -38.6291 1.03932
C -41.7971 -37.8197 0.55364
C -44.3392 -38.0454 0.629605
C -49.4643 -38.3345 0.794771
C -46.9346 -38.2143 0.763024
C -50.7365 -39.069 1.28914
C -48.1598 -38.9329 1.24451
C -45.5918 -38.7973 1.17711
C -41.9119 -37.4017 -1.00208
C -44.42 -37.5681 -0.906331
C -43.1612 -38.0147 -1.67288
C -48.2558 -38.2332 -1.55147
C -47.0018 -37.7314 -0.829386
C -49.5404 -37.8411 -0.765497
C -45.684 -38.1633 -1.58523
C -50.8342 -38.349 -1.41673
C -48.4049 -35.4579 -1.11761
C -49.6439 -36.2132 -0.600395
C -47.1028 -36.1147 -0.668779
C -50.9294 -35.5591 -1.13176
C -45.9117 -35.3821 -1.31712
C -44.5765 -35.9221 -0.804274
C -42.0653 -35.7496 -0.880834
C -43.3911 -35.2154 -1.38223
C -40.2913 -37.8864 0.993274
C -40.7144 -35.5397 1.38518
C -40.5353 -37.6577 -1.68999
C -40.7867 -35.1894 -1.52977
C -39.6603 -36.4598 0.553215
C -39.82 -36.3817 -1.11016
C -40.4305 -36.5902 7.29365
C -40.226 -38.8785 6.73803
C -40.4246 -37.4827 9.9237
C -40.0027 -39.7127 9.40058
C -39.4766 -37.8066 7.56372
C -39.3307 -38.2934 9.09861
C -49.0627 -27.7009 6.66756
C -50.2867 -28.4655 6.11112
C -47.8039 -28.2323 6.00364
C -46.5278 -27.4934 6.54126
C -45.2814 -28.0274 5.79809
C -45.3446 -27.8782 4.27687
C -49.2704 -27.4624 4.02467
C -47.8982 -28.0852 4.44528
C -50.4012 -28.3519 4.57218
C -46.699 -27.2185 3.85074
C -51.9293 -37.1386 3.81726
C -51.9909 -38.7106 3.53234
C -51.8883 -37.1299 5.46964
C -51.8884 -38.6739 5.1035
C -52.0107 -36.7826 1.06423
C -52.0192 -38.3964 0.902304
C -53.4657 -38.8887 3.03248
C -53.3265 -39.1213 5.71605
C -53.2994 -36.5697 3.3351
C -53.2398 -36.9196 6.18595
C -54.3043 -37.728 3.76539
C -54.2374 -37.8887 5.34241
C -52.0325 -37.9063 -0.606067
C -52.0831 -36.2886 -0.527719
C -51.7948 -37.7688 8.14395
C -51.8702 -39.3187 7.88489
C -51.8876 -39.8818 9.42373
C -51.6735 -38.3094 9.61244
C -53.3235 -39.3615 7.26238
C -53.1024 -37.1652 7.66834
C -53.3793 -39.963 10.0387
C -52.9 -37.7702 10.3946
C -54.1768 -38.242 8.09063
C -54.1134 -38.5686 9.6996
C -53.3172 -36.3616 1.80119
C -53.4507 -38.7631 1.49876
C -53.509 -35.893 -0.926539
C -53.3773 -38.2432 -1.31684
C -54.136 -37.4653 1.11488
C -54.3021 -37.2271 -0.51365
C -58.059 -36.5739 5.10355
C -60.2368 -35.3853 5.09638
C -61.6397 -35.1467 5.75127
C -59.4873 -36.5419 5.7245
C -58.096 -36.6449 3.48573
C -60.2228 -35.3339 3.49724
C -59.5064 -36.5959 2.91896
C -61.5726 -35.0316 2.88815
C -57.8616 -36.4066 7.77141
C -60.0827 -35.1907 7.81291
C -59.3749 -36.5068 7.30731
C -61.5509 -35.1078 7.29483
C -56.9656 -37.6397 5.71572
C -57.0576 -37.6749 2.87356
C -55.6685 -37.1392 5.09546
C -55.7483 -37.0954 3.48493
C -59.081 -36.1116 10.0365
C -59.9498 -35.0104 9.3538
C -61.3679 -35.0277 10.035
C -57.7285 -36.3297 9.33211
C -58.01 -36.4279 0.782778
C -60.1683 -35.2493 0.838313
C -61.6074 -34.9763 1.31004
C -59.4814 -36.5325 1.30953
C -57.8805 -36.2807 -0.739498
C -59.2691 -36.2644 -1.30619
C -60.1258 -35.076 -0.735307
C -61.5344 -34.7943 -1.42809
C -57.142 -37.6313 1.35504
C -57.0002 -37.2446 -1.53391
C -55.7804 -37.3929 0.784493
C -55.7837 -37.8145 -0.755871
C -56.9822 -37.5955 7.25817
C -56.9171 -37.5564 9.96756
C -55.5435 -37.3533 7.87168
C -55.5176 -37.6226 9.46736
C -62.0377 -33.728 3.51907
C -62.2251 -33.8566 5.12051
C -62.0576 -33.6148 0.812176
C -63.3868 -33.2099 2.92332
C -63.5447 -33.414 5.70406
C -63.7615 -31.909 3.62189
C -63.7581 -32.0038 5.25592
C -62.1747 -33.5257 -0.773875
C -62.1873 -33.809 7.88651
C -62.1963 -33.8586 9.40346
C -63.6161 -33.5492 7.26595
C -63.6316 -33.8979 10.0015
C -64.0985 -32.2258 7.98655
C -64.2798 -32.5999 9.58016
C -63.4133 -33.1375 1.40312
C -63.5622 -33.0853 -1.41374
C -63.6168 -31.7851 0.81584
C -63.7344 -31.6935 -0.807798
C -16.5809 3.5808 4.19089
C -17.9311 2.90204 4.29134
C -21.5241 3.96614 3.0879
C -22.8886 3.19113 3.11208
C -20.3913 3.06159 3.70267
C -24.0042 4.08749 2.49313
C -19.1294 5.11748 4.48862
C -17.6913 5.7729 4.41588
C -20.2321 5.985 3.86093
C -19.0124 3.7973 3.69758
C -16.6344 4.89748 5.06055
C -21.6217 5.29238 3.92895
C -22.7441 6.15025 3.29915
C -24.1135 5.38404 3.3545
C -24.0318 8.12308 4.51644
C -22.7493 7.64668 3.89299
C -23.8815 9.5926 5.05526
C -24.9805 10.4331 4.42972
C -22.5514 10.2973 4.70093
C -17.605 7.38403 4.45435
C -17.5348 10.0829 5.20068
C -20.1515 7.57982 4.25644
C -20.0845 10.2028 4.95916
C -16.3882 9.224 5.84533
C -16.3745 7.7704 5.32073
C -18.955 7.96913 5.05233
C -18.9115 9.38212 5.59505
C -21.4861 8.04548 4.77345
C -21.4071 9.47966 5.30199
C -23.8699 12.3799 5.83758
C -25.0266 11.9494 4.9713
C -22.5678 11.8398 5.28854
C -17.5086 11.5974 5.85081
C -20.0208 11.7635 5.54916
C -16.2866 12.013 6.70553
C -18.778 12.1802 6.3821
C -21.3246 12.3356 6.09544
C -21.1436 4.25527 1.60234
C -19.8105 3.57592 1.28191
C -22.289 3.70625 0.68593
C -16.2773 3.92112 2.70483
C -17.3965 3.41939 1.80539
C -22.3712 6.42421 1.75767
C -23.445 5.89451 0.813931
C -23.6177 4.41382 1.0411
C -18.5548 5.63183 1.97119
C -19.8842 6.27894 2.30628
C -17.4162 6.1803 2.89956
C -18.6887 4.11439 2.18592
C -21.0231 5.79885 1.41565
C -16.1162 5.46988 2.45924
C -22.4333 7.9259 2.3948
C -22.3926 10.5833 3.04198
C -24.8218 10.7338 2.76946
C -19.8979 7.84298 2.74003
C -19.8904 10.523 3.32187
C -17.3483 7.84298 2.9437
C -17.3379 10.435 3.56344
C -21.0616 10.1857 2.3943
C -23.53 10.273 2.11314
C -21.0981 8.61995 2.08803
C -23.6042 8.78402 1.74588
C -18.5831 8.58046 2.33343
C -18.5526 10.0844 2.6573
C -16.0586 8.54601 2.44078
C -16.0113 10.0753 2.86333
C -24.863 12.1951 3.415
C -22.3768 12.0946 3.69592
C -19.8825 12.0088 3.97518
C -17.3674 11.8868 4.28562
C -21.0653 12.8417 3.49284
C -23.5848 12.9804 3.20372
C -18.5354 12.7126 3.78556
C -16.0547 12.6504 4.12139
C -22.8394 9.85344 7.42516
C -25.3461 9.79945 7.11133
C -20.3408 9.85096 7.70442
C -17.8873 9.62534 7.98528
C -21.5668 9.34807 6.88108
C -24.0377 9.37811 6.55111
C -19.0775 9.27136 7.17006
C -16.5679 9.06547 7.35852
C -25.3545 11.31 7.62605
C -22.8816 11.3654 7.9251
C -20.3399 11.3646 8.24613
C -17.8311 11.1434 8.5394
C -21.5418 12.0976 7.63035
C -24.0906 12.0887 7.33056
C -18.991 12.0067 7.92891
C -16.4018 11.7224 8.24388
C -26.477 12.2671 5.48034
C -26.1054 12.8994 2.72491
C -26.4612 9.95488 4.81011
C -26.1475 10.6254 1.98064
C -27.2266 11.291 4.45403
C -26.9876 11.6214 2.87263
C -19.3107 11.6391 10.6926
C -17.9474 11.0301 10.1425
C -20.5312 11.2148 9.84529
C -16.6113 11.2363 10.9737
C -21.8839 11.6625 10.4226
C -23.042 11.2402 9.52996
C -25.5445 11.1403 9.21227
C -24.4007 11.6319 10.1004
C -25.4754 9.62899 8.7077
C -23.0188 9.7066 9.03949
C -24.2948 8.9778 9.39771
C -19.3792 8.89811 9.95795
C -20.5222 9.67407 9.31921
C -18.0131 9.46339 9.59862
C -21.8288 8.99622 9.70236
C -16.887 8.58157 10.2
C -23.3365 10.9988 0.721966
C -24.5361 11.7713 0.336957
C -22.0563 11.7975 0.640597
C -17.0593 11.7373 1.22559
C -19.5767 11.7832 0.982518
C -15.8354 10.9171 1.5597
C -18.379 10.8979 1.32648
C -20.8834 10.9617 1.03853
C -23.465 13.6575 1.74591
C -24.5975 13.2894 0.780136
C -22.1233 13.3815 1.11918
C -17.0816 13.2157 1.77678
C -19.5733 13.2749 1.43116
C -15.9568 13.5085 2.78719
C -18.4259 13.5662 2.43151
C -20.9252 13.6517 2.0792
C -24.5316 14.1227 -0.631597
C -21.9961 14.214 -0.270871
C -23.2663 15.0002 -0.714313
C -18.1403 14.9098 -0.00137367
C -19.4124 14.1222 0.0737207
C -16.9251 14.1665 0.488072
C -20.6623 14.9262 -0.472918
C -15.6422 15.004 0.513754
C -18.0258 12.3378 -1.10999
C -16.9058 12.6339 -0.11426
C -19.3912 12.5935 -0.432568
C -15.5485 12.4513 -0.826981
C -20.5166 12.291 -1.37951
C -21.9135 12.6677 -0.719147
C -24.3167 12.5135 -1.04756
C -22.9987 12.2996 -1.73745
C -26.036 13.3893 1.29512
C -25.8963 11.1455 0.513669
C -25.9235 14.4447 -1.26006
C -25.4687 12.1795 -2.05181
C -26.7808 12.4476 0.254241
C -26.5647 13.0361 -1.29845
C -26.5822 9.54234 6.25198
C -26.6319 12.0052 6.92093
C -26.8579 9.00612 9.18265
C -26.9361 11.4115 9.66819
C -27.3271 10.6166 7.18827
C -27.5794 10.3174 8.7339
C -19.2191 0.849751 3.59175
C -17.882 1.56871 3.5143
C -20.3172 1.72139 2.94404
C -21.6795 1.00069 3.0126
C -22.7258 1.85673 2.37324
C -22.4297 2.16721 0.917199
C -18.6042 1.34593 1.07424
C -19.9808 2.02096 1.44623
C -17.5159 1.88401 2.01292
C -21.0901 1.55583 0.45336
C -14.8427 10.3435 3.82955
C -14.9085 11.8023 4.5558
C -15.0748 9.95721 5.46153
C -15.0087 11.4589 6.08728
C -14.5848 11.7456 1.51035
C -14.6257 13.2296 2.09775
C -13.5023 12.524 4.31301
C -13.6487 11.5249 6.88263
C -13.386 10.3966 3.28646
C -13.8024 9.36484 6.08565
C -12.5705 11.1773 4.43652
C -12.7907 10.5501 5.97991
C -14.4217 14.1664 0.833598
C -14.4401 12.6498 0.170954
C -15.3422 9.33598 8.14597
C -15.2453 10.8137 8.76318
C -15.3326 10.6342 10.3463
C -15.5169 9.10421 9.75681
C -13.7633 11.0847 8.3217
C -13.9942 8.92247 7.57487
C -13.8469 10.5236 10.9736
C -14.299 8.30281 10.3377
C -12.9524 9.6772 8.59054
C -13.1509 9.33776 10.1712
C -13.2176 11.1143 1.94795
C -13.3476 13.293 3.02924
C -13.0241 12.5866 -0.504883
C -12.9412 14.6831 0.657835
C -12.4307 12.4939 2.06467
C -12.2149 13.3165 0.668386
C -36.0426 11.9729 4.26796
C -33.5306 12.045 4.42151
C -32.2432 12.5541 5.19159
C -34.8578 12.618 5.03329
C -35.9656 12.2247 2.70454
C -33.4227 12.3419 2.86796
C -34.7147 13.0284 2.30024
C -32.0543 12.9486 2.40641
C -36.169 11.4783 6.99061
C -33.7197 11.5584 7.09257
C -34.9472 12.3371 6.56765
C -32.3601 12.2202 6.73527
C -37.4458 12.2956 4.89326
C -37.3033 12.7657 2.12849
C -38.5332 11.4578 4.12481
C -38.3742 11.7586 2.48968
C -35.1006 11.8298 9.26877
C -33.828 11.3123 8.66315
C -32.5658 11.8217 9.40336
C -36.263 11.1576 8.51253
C -35.8882 12.5812 -0.0517404
C -33.3228 12.6556 0.106038
C -32.0152 13.1303 0.796126
C -34.6322 13.2189 0.720249
C -35.856 12.9755 -1.59351
C -34.5057 13.6517 -1.94403
C -33.2892 12.7885 -1.46995
C -31.9334 13.3909 -1.93087
C -37.2844 13.0325 0.560476
C -37.0932 13.777 -2.13781
C -38.4616 12.4315 -0.298128
C -38.3798 12.92 -1.87609
C -37.4709 12.0591 6.4157
C -37.5686 11.462 9.20941
C -38.5033 11.0439 6.86741
C -38.6584 10.7226 8.45277
C -30.9318 12.001 2.95277
C -31.0471 11.8693 4.58065
C -30.7469 12.4591 0.170221
C -29.5052 12.4663 2.46492
C -29.7161 11.9388 5.2697
C -28.5361 11.3418 2.94608
C -28.7752 11.0381 4.51507
C -30.6518 12.6999 -1.37372
C -31.2717 11.2053 7.24321
C -31.4244 10.9853 8.82746
C -29.8211 11.5843 6.80382
C -30.0645 11.091 9.5669
C -28.9374 10.3935 7.27176
C -29.1326 10.1369 8.89192
C -29.4024 12.7903 0.928691
C -29.2881 13.321 -1.80015
C -28.3081 12.0077 0.207853
C -28.0727 12.4862 -1.30792
C 11.6901 2.7269 3.10927
C 10.5618 1.88511 3.66557
C 6.76785 2.45769 4.06948
C 5.63241 1.55808 4.69379
C 8.12432 1.74005 4.15461
C 4.27813 2.30068 4.55353
C 9.24599 3.97097 4.39367
C 10.4166 4.76714 3.83176
C 7.90806 4.63885 4.18472
C 9.22435 2.63675 3.57172
C 11.7604 4.041 3.97424
C 6.79119 3.81954 4.77673
C 5.41838 4.53623 4.61082
C 4.38488 3.6666 5.30921
C 3.9329 6.69475 5.23512
C 5.13205 6.18184 4.44672
C 3.95929 8.22125 5.60314
C 2.6352 8.88002 5.1228
C 5.10992 8.97444 4.91652
C 10.3206 6.3559 3.85219
C 10.1667 9.16794 4.38463
C 7.77812 6.27511 4.19728
C 7.63048 9.10106 4.62245
C 11.4733 8.44711 4.82862
C 11.6052 6.94212 4.35833
C 9.03169 6.9077 4.6733
C 8.97115 8.45837 5.0628
C 6.50842 6.76288 4.94464
C 6.46694 8.31055 5.31371
C 3.84936 11.0605 6.04909
C 2.55 10.4569 5.53879
C 5.10812 10.5627 5.28411
C 10.2058 10.7382 4.83303
C 7.6341 10.6743 5.08636
C 11.5429 11.3777 5.34633
C 8.93724 11.3034 5.5868
C 6.40893 11.2086 5.84269
C 6.47629 2.68582 2.58665
C 7.63518 2.15649 1.73106
C 5.1707 1.93767 2.19334
C 11.4297 2.96598 1.60213
C 10.0708 2.31488 1.19282
C 5.12812 4.79289 3.02292
C 3.87767 4.04889 2.65103
C 4.00734 2.55978 3.02177
C 8.83974 4.41017 1.84911
C 7.64561 4.96758 2.67629
C 10.2055 5.06867 2.26043
C 8.91929 2.88427 2.06776
C 6.3323 4.20444 2.28676
C 11.3135 4.45713 1.34142
C 5.03179 6.42936 2.86634
C 4.96653 9.07805 3.21619
C 2.46399 9.0191 3.47742
C 7.57862 6.57449 2.62161
C 7.51385 9.17966 2.99354
C 10.0956 6.67349 2.23955
C 10.0385 9.2565 2.69537
C 6.19205 8.71863 2.34622
C 3.67297 8.56879 2.53547
C 6.24476 7.13089 2.19916
C 3.7393 7.0298 2.29264
C 8.72127 7.23218 1.89026
C 8.69715 8.80789 2.08819
C 11.2054 7.38803 1.45842
C 11.2665 8.86833 1.8245
C 2.4889 10.5557 3.93797
C 4.98551 10.6186 3.69125
C 7.53568 10.7165 3.46171
C 10.0989 10.8106 3.25388
C 6.24653 11.4034 3.15514
C 3.69708 11.3085 3.38552
C 8.77914 11.4923 2.9162
C 11.3428 11.5529 2.6938
C 5.38195 8.83803 7.73918
C 2.85516 8.664 7.8965
C 7.84863 9.01022 7.4364
C 10.3478 9.01506 7.20581
C 6.57687 8.3425 6.95115
C 4.03543 8.22413 7.14608
C 9.08471 8.49057 6.63676
C 11.5258 8.37867 6.38599
C 2.75329 10.2423 8.27648
C 5.33761 10.4471 8.07252
C 7.84562 10.5905 7.80701
C 10.4274 10.584 7.50181
C 6.50138 11.2087 7.39446
C 3.92728 11.0398 7.60487
C 9.09424 11.2749 7.09168
C 11.7007 11.2032 6.87882
C 1.20878 10.6953 6.26808
C 1.12441 11.322 3.53001
C 1.29756 8.42128 5.77821
C 1.04266 8.96044 2.87574
C 0.32168 9.61569 5.48719
C 0.328977 9.99158 3.87123
C 9.37082 11.2043 9.88178
C 10.569 10.6282 9.13412
C 7.991 10.6292 9.41546
C 11.99 11.0191 9.69379
C 6.7447 11.1523 10.1429
C 5.4305 10.5077 9.69039
C 2.87606 10.2589 9.84361
C 4.1349 10.9913 10.4023
C 2.99439 8.67474 9.51718
C 5.50831 8.89897 9.36067
C 4.3487 8.16621 10.016
C 9.29458 8.42814 9.52719
C 7.97442 9.06942 9.09669
C 10.4788 9.05187 8.7795
C 6.82732 8.38086 9.85831
C 11.7418 8.24981 9.20779
C 3.56905 9.22397 1.09659
C 2.3288 10.0212 0.854704
C 4.81511 10.1149 0.70991
C 9.87043 10.23 0.161073
C 7.32599 10.1775 0.47136
C 11.1583 9.46635 0.40439
C 8.61552 9.45503 0.705939
C 6.08933 9.33863 0.882467
C 3.60956 11.9925 1.96271
C 2.33903 11.5694 1.25711
C 4.86307 11.6764 1.08741
C 9.9055 11.7946 0.549978
C 7.34998 11.7645 0.832646
C 11.299 12.1324 1.20389
C 8.72187 12.1259 1.49379
C 6.15471 12.0995 1.74236
C 2.20208 12.3152 -0.189685
C 4.68576 12.4325 -0.359292
C 3.4032 13.1673 -0.569499
C 8.46538 13.389 -1.05413
C 7.20789 12.556 -0.614811
C 9.80825 12.5678 -0.904485
C 5.90057 13.2629 -0.772348
C 11.1204 13.251 -1.4047
C 8.43161 10.6955 -1.94198
C 9.76282 10.978 -1.25768
C 7.23792 10.9971 -0.998801
C 10.938 10.5527 -2.17105
C 5.93141 10.5624 -1.64588
C 4.748 10.8597 -0.737836
C 2.24043 10.7409 -0.589201
C 3.44468 10.5047 -1.48678
C 1.0258 11.7509 2.1142
C 1.01202 9.41228 1.36265
C 0.751532 12.8325 -0.516096
C 0.86682 10.4877 -1.31213
C 0.174931 10.7666 1.22532
C 0.159353 11.426 -0.247376
C 1.46877 8.25183 7.31344
C 1.26733 10.4675 7.76894
C 1.75598 7.99803 10.2221
C 1.4031 10.2001 10.5899
C 0.524628 9.17145 8.2051
C 0.52869 9.03082 9.85045
C 9.45027 -0.397579 3.57431
C 10.5306 0.50859 2.92401
C 8.08902 0.341279 3.42836
C 6.95797 -0.501633 4.14133
C 5.61032 0.184969 3.95126
C 5.32156 0.444743 2.46551
C 8.87956 0.108825 1.01534
C 7.73533 0.624075 1.93053
C 10.1987 0.798147 1.45656
C 6.44869 -0.0695585 1.55273
C 12.5487 9.2959 2.52795
C 12.6245 10.8616 3.02799
C 12.6777 9.20066 4.1665
C 12.7416 10.7749 4.60263
C 12.4487 10.1852 -0.0561536
C 12.4542 11.7236 0.300774
C 13.9931 11.4191 2.37981
C 14.2278 10.9157 5.10386
C 13.939 9.07816 1.78814
C 14.0989 8.65784 4.69359
C 14.9023 10.1324 2.60591
C 15.0697 9.82331 4.2288
C 12.3838 12.4147 -1.16905
C 12.3046 10.8408 -1.53281
C 12.8624 8.78731 6.94256
C 12.9485 10.3812 7.32348
C 13.1212 10.3699 8.90916
C 12.9679 8.79982 8.53531
C 14.3712 10.7029 6.63787
C 14.1689 8.42754 6.24282
C 14.6381 10.3045 9.39518
C 14.2592 8.02932 8.96985
C 15.1613 9.40969 6.9624
C 15.3109 9.13604 8.53699
C 13.79 9.54048 0.297677
C 13.9341 11.8356 0.892406
C 13.5389 10.4656 -2.43753
C 13.8426 12.6901 -1.72835
C 14.7013 10.8151 -0.0164311
C 14.5587 11.3074 -1.5302
C -2.18919 10.8642 4.02443
C -2.22527 9.93701 6.67446
C -1.2303 9.6739 4.23511
C -1.23028 9.21231 5.77598
C -2.26006 9.41486 8.14099
C -2.33149 8.59501 10.7931
C -0.984584 8.54907 8.55079
C -0.968603 8.29678 10.1615
C -2.14255 11.4287 2.58277
C -2.1629 12.5997 0.0416162
C -1.43754 10.5866 1.52238
C -1.40064 11.2687 0.0777464
C -8.70871 10.499 5.97766
C -6.12364 10.257 6.05829
C -4.79066 10.3483 6.84543
C -7.39572 10.639 6.85404
C -8.59951 11.3216 4.61477
C -6.07765 11.0527 4.7202
C -7.26316 12.1214 4.55364
C -4.62495 11.6298 4.46466
C -8.87734 9.0936 8.32729
C -6.25259 8.86036 8.36888
C -7.48702 9.81723 8.214
C -4.87727 9.59955 8.2137
C -10.051 10.8138 6.75808
C -9.9029 12.0405 4.2325
C -11.1995 10.3143 5.74993
C -10.9682 10.9907 4.27328
C -7.59897 8.40444 10.5904
C -6.29768 8.11078 9.76146
C -4.96179 8.30304 10.6419
C -8.94951 8.35271 9.75524
C -8.36805 12.6707 2.2774
C -5.89123 12.4902 2.42409
C -4.54301 12.3856 3.10112
C -7.15707 12.8942 3.2628
C -8.27993 13.5483 0.991485
C -6.91682 14.2844 0.869667
C -5.84958 13.1771 1.00258
C -4.43217 13.6074 0.623598
C -9.8451 12.8066 2.87336
C -9.54643 14.3684 0.582676
C -10.8323 12.3445 1.76511
C -10.6322 13.3102 0.407685
C -10.1086 10.055 8.09593
C -10.2748 8.7903 10.5561
C -11.3553 9.26085 8.27608
C -11.6338 8.67659 9.75797
C -3.64508 10.4095 4.50772
C -3.59937 9.81578 5.96077
C -3.57813 11.6529 2.0995
C -3.57074 12.3481 0.650093
C -3.6206 8.64862 8.4692
C -3.55628 8.04879 9.92185
C 25.4115 10.65 1.87588
C 25.5024 10.0309 4.61035
C 26.5365 9.66685 2.22998
C 26.6604 9.38406 3.7803
C 25.5373 9.90739 6.15234
C 25.7174 9.81156 8.88989
C 26.7423 9.1199 6.60589
C 26.9229 9.05381 8.1892
C 25.3383 10.9645 0.323159
C 25.1235 11.9537 -2.24532
C 26.5131 10.4126 -0.594757
C 26.3104 11.0057 -2.12424
C 19.0576 9.78094 4.34176
C 21.5529 9.73345 4.15791
C 22.9419 10.1283 4.74632
C 20.3539 10.2898 4.99156
C 18.9564 10.1445 2.78524
C 21.5056 10.1367 2.61993
C 20.2294 10.9713 2.36009
C 22.8284 10.8494 2.14095
C 19.2186 9.09436 6.98919
C 21.6848 9.26746 6.89695
C 20.3944 9.97676 6.49991
C 22.9855 10.0089 6.34618
C 17.7723 10.1514 5.10275
C 17.5771 10.7982 2.40133
C 16.6574 9.4403 4.39157
C 16.4936 9.81601 2.83248
C 20.5437 9.51062 9.22111
C 21.8033 9.05544 8.49468
C 23.0916 9.80334 9.07119
C 19.2966 8.84216 8.51849
C 18.7938 10.9365 0.172767
C 21.3663 10.9793 -0.00507203
C 22.7952 11.2959 0.570818
C 20.1178 11.4503 0.889808
C 18.7467 11.3277 -1.31035
C 19.9653 12.2232 -1.74445
C 21.2938 11.4144 -1.46702
C 22.5471 12.1115 -2.09419
C 17.4355 11.233 0.924617
C 17.328 11.9206 -1.75095
C 16.2788 10.494 0.225316
C 16.1457 10.9202 -1.37138
C 17.8704 9.78072 6.63401
C 17.9777 9.20092 9.35614
C 16.667 8.88813 7.10159
C 16.7995 8.55445 8.68614
C 24.0524 9.99918 2.42364
C 24.1585 9.59182 3.955
C 23.9008 10.7404 -0.328688
C 23.8047 11.2545 -1.82394
C 24.2701 9.26112 6.79589
C 24.3806 9.17198 8.41098
C -15.2523 -30.4447 3.11457
C -16.4854 -29.7334 2.58019
C -20.2731 -30.1589 3.41442
C -21.5226 -29.3611 2.93463
C -18.9876 -29.5777 2.80425
C -22.788 -29.996 3.55481
C -17.8721 -31.8345 2.7988
C -16.5868 -32.5292 3.3217
C -19.166 -32.4402 3.38421
C -17.7385 -30.3385 3.23631
C -15.3724 -31.9097 2.66256
C -20.4152 -31.6487 2.94889
C -21.6847 -32.3019 3.53099
C -22.8922 -31.4365 3.05163
C -23.0853 -34.4101 2.66502
C -21.7872 -33.9076 3.24331
C -23.1177 -35.9578 2.44736
C -24.3123 -36.5197 3.15068
C -21.8724 -36.6657 3.09172
C -16.6487 -34.1161 3.18122
C -16.826 -36.836 2.99442
C -19.241 -34.0497 3.15944
C -19.3723 -36.7741 3.07584
C -15.5475 -36.2377 2.28242
C -15.4542 -34.6792 2.44735
C -18.0192 -34.6669 2.57832
C -18.1112 -36.1924 2.35258
C -20.5063 -34.5234 2.57011
C -20.5932 -36.067 2.39417
C -23.2661 -38.9217 2.43845
C -24.4507 -38.1514 3.00735
C -21.9561 -38.3141 2.91724
C -16.8819 -38.4899 2.80555
C -19.4188 -38.4306 2.8604
C -15.6125 -39.1526 2.2604
C -18.1727 -39.1697 2.32233
C -20.7514 -39.0646 2.35216
C -20.1853 -30.0524 4.94321
C -18.8325 -29.3778 5.32937
C -21.3442 -29.1764 5.47078
C -15.1112 -30.3203 4.62377
C -16.2697 -29.4322 5.13174
C -21.6162 -32.1221 5.13957
C -22.7705 -31.2683 5.67875
C -22.6739 -29.8642 5.06962
C -17.7293 -31.6533 5.41104
C -19.0863 -32.2901 4.98141
C -16.4688 -32.3602 4.89656
C -17.6437 -30.1987 4.80162
C -20.2795 -31.5428 5.55647
C -15.218 -31.6653 5.34423
C -21.6655 -33.7744 4.87894
C -21.7832 -36.558 4.79936
C -24.2673 -36.3756 4.81806
C -19.1544 -33.9296 4.71735
C -19.272 -36.6419 4.75138
C -16.5871 -33.9773 4.78244
C -16.7867 -36.6654 4.65431
C -20.4806 -36.0699 5.44166
C -23.0009 -35.9237 5.541
C -20.4359 -34.4619 5.40283
C -22.9328 -34.3851 5.56181
C -17.9361 -34.5588 5.34889
C -17.9922 -36.1221 5.39749
C -15.3373 -34.627 5.3246
C -15.4836 -36.1832 5.32673
C -24.3659 -37.989 4.60119
C -21.8635 -38.1678 4.55218
C -19.3486 -38.2376 4.50279
C -16.8321 -38.2754 4.43601
C -20.6232 -38.859 5.06005
C -23.1461 -38.7207 5.14226
C -18.0914 -38.8971 5.03329
C -15.5632 -38.9723 4.92063
C -21.9109 -36.9631 0.304676
C -24.3951 -36.7042 0.294404
C -19.423 -37.1455 0.294472
C -16.9188 -37.1545 0.226274
C -20.6148 -36.3522 0.818482
C -23.0999 -36.1552 0.829342
C -18.1067 -36.5374 0.824934
C -15.5961 -36.4605 0.753791
C -24.5036 -38.2898 0.266933
C -22.0521 -38.5467 0.218551
C -19.5047 -38.7307 0.159755
C -16.9279 -38.764 0.117418
C -20.7871 -39.2436 0.792207
C -23.3537 -39.0161 0.883097
C -18.1984 -39.3651 0.764053
C -15.6073 -39.3121 0.731717
C -25.874 -38.4369 2.45987
C -25.7626 -38.5 5.27528
C -25.6812 -36.0648 2.48763
C -25.6231 -36.0792 5.48926
C -26.6253 -37.1608 3.12479
C -26.4864 -37.21 4.77271
C -18.2225 -39.6651 -2.03317
C -16.8874 -39.0788 -1.46347
C -19.5603 -39.0206 -1.42779
C -15.552 -39.7079 -1.94857
C -20.8582 -39.5253 -2.00662
C -22.1277 -38.8529 -1.38389
C -24.6505 -38.6084 -1.35378
C -23.4823 -39.37 -1.9585
C -24.4195 -37.0005 -1.28391
C -21.9367 -37.2638 -1.301
C -23.1479 -36.5691 -1.97956
C -18.1799 -36.8816 -1.99827
C -19.4469 -37.3856 -1.326
C -16.9029 -37.4402 -1.37665
C -20.6698 -36.7665 -1.95583
C -15.7144 -36.8514 -2.11859
C -22.9599 -36.2529 7.04042
C -24.2067 -36.8496 7.53704
C -21.743 -37.0611 7.45423
C -16.6842 -37.3055 7.33608
C -19.2307 -37.2722 7.3687
C -15.4465 -36.5655 6.84454
C -17.9435 -36.5617 6.93064
C -20.4734 -36.4727 6.99224
C -23.1301 -39.0812 6.67402
C -24.3148 -38.4655 7.4018
C -21.8145 -38.6643 7.37201
C -16.7539 -38.9142 7.23819
C -19.2791 -38.8576 7.30808
C -15.5026 -39.4168 6.48722
C -18.0501 -39.3941 6.59628
C -20.5893 -39.2736 6.61112
C -24.3581 -38.9146 8.94315
C -21.8208 -39.1922 8.9055
C -23.1742 -39.7805 9.3898
C -18.0364 -40.0503 9.37486
C -19.2634 -39.3065 8.89301
C -16.7202 -39.4084 8.80852
C -20.575 -39.9502 9.39058
C -15.4035 -40.1219 9.18687
C -17.9003 -37.2101 9.61462
C -16.6588 -37.7756 8.88184
C -19.2051 -37.7242 8.9475
C -15.387 -37.3107 9.59216
C -20.3569 -37.2401 9.75523
C -21.6573 -37.5993 9.04262
C -24.1622 -37.2803 9.11729
C -22.8258 -36.9461 9.77222
C -25.7582 -38.6287 6.76377
C -25.5327 -36.2306 7.03564
C -25.7998 -39.1252 9.494
C -25.3779 -36.7171 9.88744
C -26.4348 -37.4174 7.52301
C -26.3337 -37.7007 9.13603
C -25.7403 -36.1536 0.903735
C -25.9283 -38.4925 0.956199
C -25.7518 -36.4425 -1.96429
C -26.1271 -38.8013 -1.9114
C -26.6469 -37.3019 0.362974
C -26.7769 -37.4524 -1.29419
C -17.6657 -27.5076 2.43845
C -16.3883 -28.2121 2.95298
C -18.8661 -28.1131 3.15057
C -20.1034 -27.3951 2.59057
C -21.3738 -27.8711 3.26521
C -21.2548 -27.7232 4.8116
C -17.4168 -27.2575 5.07418
C -18.7532 -27.9088 4.70531
C -16.256 -28.0437 4.46157
C -19.9176 -27.0624 5.2634
C -14.2894 -36.7623 4.57057
C -14.333 -38.3393 4.35249
C -14.3413 -36.9079 2.92628
C -14.3307 -38.511 2.75021
C -14.2287 -37.3124 7.2186
C -14.2684 -38.9207 7.15881
C -12.9786 -38.8878 4.88915
C -12.8823 -38.7975 2.1826
C -12.878 -36.5797 5.17584
C -12.9742 -36.5518 2.23862
C -12.0668 -37.7024 4.42648
C -11.9472 -37.6346 2.81343
C -14.1819 -39.3829 8.67451
C -14.1694 -37.7557 8.79554
C -14.3839 -37.0558 0.165683
C -14.3785 -38.6822 0.0877576
C -14.3092 -38.97 -1.47754
C -14.4214 -37.3511 -1.42818
C -12.8872 -38.8998 0.649988
C -13.0414 -36.5413 0.744412
C -12.8356 -38.9881 -2.0566
C -13.1833 -36.6897 -2.112
C -12.1234 -37.6374 0.053526
C -12.0708 -37.6728 -1.58497
C -12.8652 -36.8071 6.68258
C -12.8992 -39.1207 6.41031
C -12.8449 -37.3252 9.53731
C -12.6931 -39.7597 9.10534
C -11.9907 -38.0495 7.1364
C -12.0292 -38.3817 8.77192
C -29.0983 -37.7857 5.1552
C -29.2391 -37.7846 2.3477
C -28.0645 -36.836 4.50728
C -28.1658 -36.8473 2.86217
C -29.313 -37.8348 0.782799
C -29.6375 -37.8228 -1.94149
C -28.1934 -36.992 0.0401226
C -28.3535 -37.1363 -1.56207
C -29.111 -37.8151 6.734
C -28.9606 -37.9803 9.5231
C -28.0235 -36.9789 7.3632
C -27.7918 -37.1116 8.94158
C -35.6601 -37.0209 3.37391
C -33.1054 -37.3405 3.19905
C -31.8761 -38.027 2.49336
C -34.4826 -37.8281 2.60686
C -35.5883 -37.2778 4.96865
C -33.0118 -37.4231 4.80212
C -34.3089 -38.0562 5.38016
C -31.6689 -38.1647 5.26879
C -35.7398 -36.622 0.66093
C -33.2014 -37.031 0.523243
C -34.5674 -37.5939 1.07217
C -31.9612 -37.876 0.92989
C -37.0978 -37.2856 2.77539
C -36.9257 -37.7957 5.57366
C -38.1682 -36.4731 3.619
C -38.0101 -36.8007 5.19885
C -34.6922 -37.0893 -1.63064
C -33.2945 -36.7685 -1.03645
C -32.1506 -37.4699 -1.79802
C -35.8239 -36.3506 -0.881269
C -35.4246 -37.5531 7.68242
C -32.9093 -37.6035 7.49634
C -31.6083 -38.1932 6.84116
C -34.2136 -38.2259 6.91809
C -35.3756 -37.9051 9.23552
C -34.0266 -38.4951 9.63523
C -32.836 -37.7282 9.04331
C -31.4717 -38.2685 9.5708
C -36.7899 -38.0695 7.10465
C -36.6143 -38.7391 9.7505
C -37.9124 -37.4448 7.96492
C -37.8427 -37.8941 9.4921
C -37.1266 -37.0966 1.23406
C -37.2293 -36.6389 -1.56696
C -38.1234 -36.0298 0.770046
C -38.3198 -35.8849 -0.816572
C -30.5021 -37.4074 4.59665
C -30.5901 -37.351 3.01293
C -30.4094 -37.3848 7.37026
C -30.3211 -37.5016 8.92055
C -30.693 -37.2216 0.350535
C -30.774 -37.0659 -1.20772
C 11.7612 -30.248 2.16055
C 10.4252 -29.6772 1.59001
C 6.70768 -30.6398 2.14364
C 5.38517 -29.997 1.61079
C 7.91571 -29.8723 1.58166
C 4.16728 -30.7897 2.14502
C 9.36391 -31.9453 1.74406
C 10.6932 -32.468 2.29888
C 8.12297 -32.6487 2.26763
C 9.21184 -30.46 2.15898
C 11.8942 -31.7033 1.6722
C 6.78866 -32.1089 1.69714
C 5.57109 -32.7991 2.21372
C 4.27091 -32.2581 1.60126
C 4.45978 -35.1157 1.92136
C 5.62861 -34.3693 2.51964
C 4.65667 -36.6238 1.70072
C 3.46352 -37.3207 2.28396
C 5.92694 -37.188 2.37474
C 10.9463 -34.0724 2.65847
C 10.9892 -36.9313 2.56441
C 8.28327 -34.2345 2.52962
C 8.44038 -37.0365 2.44077
C 12.2454 -36.1672 2.02069
C 12.2497 -34.6146 2.12753
C 9.63586 -34.7944 2.04404
C 9.69746 -36.3345 1.85337
C 7.04228 -34.9649 1.92901
C 7.17009 -36.4727 1.74886
C 4.71911 -39.483 1.48968
C 3.44191 -38.9249 2.04291
C 5.95923 -38.8322 2.09408
C 11.0841 -38.5356 2.30582
C 8.52942 -38.6868 2.20237
C 12.4411 -39.0793 1.80854
C 9.88379 -39.2713 1.67914
C 7.29624 -39.3828 1.58557
C 6.70122 -30.5905 3.69631
C 7.91321 -29.7431 4.11138
C 5.39816 -29.9033 4.15474
C 11.7334 -30.1998 3.7154
C 10.4121 -29.5497 4.17487
C 5.55453 -32.8481 3.81053
C 4.3003 -32.1546 4.3705
C 4.20062 -30.768 3.68885
C 9.31092 -31.9011 4.34711
C 8.13834 -32.7186 3.85321
C 10.6778 -32.5358 3.89466
C 9.21268 -30.4322 3.70667
C 6.79201 -32.0871 4.30175
C 11.8364 -31.6166 4.41672
C 5.69323 -34.4165 4.14104
C 5.87803 -37.0844 4.05067
C 3.38926 -37.1856 3.95571
C 8.24853 -34.3039 4.09861
C 8.40036 -36.9321 4.09938
C 10.8309 -34.1694 4.25888
C 10.9534 -36.8214 4.2611
C 7.09527 -36.5062 4.76629
C 4.54454 -36.6272 4.72455
C 6.99427 -34.8917 4.73758
C 4.43462 -35.0781 4.83527
C 9.5212 -34.7929 4.79599
C 9.61919 -36.3565 4.8324
C 12.0449 -34.6821 5.05777
C 12.1304 -36.2705 5.02397
C 3.42568 -38.7541 3.67274
C 5.92409 -38.6908 3.70863
C 8.45939 -38.5347 3.79084
C 10.9958 -38.4452 3.88326
C 7.22237 -39.3006 4.27543
C 4.66622 -39.4236 4.19086
C 9.73673 -39.1503 4.34757
C 12.2834 -39.1002 4.42397
C 6.03306 -37.381 -0.417071
C 3.50408 -37.3095 -0.49228
C 8.52147 -37.2551 -0.337803
C 11.0252 -37.0622 -0.230723
C 7.21236 -36.6515 0.141753
C 4.72651 -36.7533 0.121882
C 9.74409 -36.569 0.296686
C 12.2515 -36.3174 0.443306
C 3.51695 -38.9128 -0.722654
C 6.07289 -38.9654 -0.6273
C 8.65842 -38.8377 -0.534974
C 11.2027 -38.66 -0.432337
C 7.37024 -39.5107 0.0178202
C 4.76327 -39.5968 -0.0679
C 9.95876 -39.3697 0.123388
C 12.5191 -39.1453 0.241655
C 2.04446 -39.226 1.40649
C 2.06032 -39.3102 4.23653
C 2.07289 -36.934 1.60721
C 1.95975 -37.0582 4.5338
C 1.16497 -38.1177 2.1656
C 1.0756 -38.1266 3.76583
C 10.0742 -39.5553 -2.70247
C 11.3028 -38.8496 -2.05288
C 8.73598 -39.0375 -2.15427
C 12.6923 -39.2326 -2.61028
C 7.5008 -39.7833 -2.70817
C 6.14616 -39.1616 -2.20313
C 3.53824 -39.0759 -2.31992
C 4.87365 -39.7106 -2.89552
C 3.58916 -37.4636 -2.0993
C 6.09224 -37.5217 -2.04072
C 4.85576 -36.8614 -2.64064
C 9.84237 -36.8418 -2.57597
C 8.58219 -37.4606 -1.9776
C 11.1245 -37.2369 -1.83155
C 7.3574 -36.9514 -2.68663
C 12.3482 -36.4248 -2.37665
C 4.56203 -36.9896 6.26311
C 3.38508 -37.8187 6.58131
C 5.84968 -37.7174 6.6746
C 10.9029 -37.5822 6.81038
C 8.36876 -37.6597 6.69726
C 12.1557 -36.7535 6.49827
C 9.61617 -36.8741 6.37731
C 7.09804 -36.9498 6.27589
C 4.661 -39.8251 5.73921
C 3.414 -39.3956 6.43167
C 5.90974 -39.3163 6.5007
C 10.9924 -39.1587 6.60611
C 8.44382 -39.2346 6.5483
C 12.2945 -39.5745 5.90474
C 9.74557 -39.6439 5.84466
C 7.19168 -39.7494 5.77133
C 3.30766 -39.9703 7.91701
C 5.90247 -39.9267 7.98715
C 4.57225 -40.6842 8.43205
C 9.72915 -40.5664 8.46238
C 8.42316 -39.8287 8.10286
C 11.0271 -39.7706 8.1044
C 7.16141 -40.6261 8.48199
C 12.3157 -40.4069 8.61716
C 9.58284 -37.7821 9.08456
C 10.8861 -38.1686 8.33794
C 8.36514 -38.217 8.26372
C 12.0725 -37.6229 9.1255
C 7.1124 -37.8308 9.0153
C 5.86376 -38.2882 8.21369
C 3.36935 -38.2991 8.10866
C 4.57437 -37.8908 8.95057
C 2.07061 -39.5885 5.73235
C 1.9953 -37.3447 6.04476
C 1.82444 -40.3018 8.39589
C 2.01221 -37.963 8.8229
C 1.12624 -38.5777 6.50308
C 1.07211 -38.9598 8.06424
C 2.16039 -36.8816 0.0571438
C 2.03563 -39.1416 -0.12008
C 2.27748 -36.9258 -2.78987
C 2.07493 -39.2302 -2.88434
C 1.11253 -37.9333 -0.648433
C 1.21499 -37.9426 -2.26228
C 9.01521 -27.669 1.30635
C 10.2978 -28.1949 1.96719
C 7.7924 -28.3722 1.95082
C 6.50107 -27.7447 1.38716
C 5.2902 -28.4981 2.02435
C 5.2944 -28.455 3.57138
C 9.04731 -27.4712 4.01472
C 7.82007 -28.2982 3.50686
C 10.3284 -28.1442 3.5109
C 6.47831 -27.6836 4.12861
C 13.4146 -36.7275 4.37472
C 13.5092 -38.334 4.01925
C 13.4746 -36.7987 2.7289
C 13.6425 -38.3776 2.40584
C 13.4405 -37.4268 6.86
C 13.4962 -39.0369 6.69364
C 14.8752 -38.8406 4.62544
C 15.0419 -38.6148 1.89891
C 14.8298 -36.5479 4.96064
C 14.8997 -36.3839 2.1358
C 15.7452 -37.6269 4.26243
C 15.9147 -37.4893 2.65283
C 13.5466 -39.5602 8.22391
C 13.3917 -37.949 8.39774
C 13.5672 -36.7858 -0.0757457
C 13.7213 -38.3798 -0.317977
C 13.8337 -38.4934 -1.93794
C 13.6042 -36.9107 -1.66608
C 15.0855 -38.6449 0.36345
C 14.8844 -36.2583 0.630327
C 15.2792 -38.4969 -2.45083
C 14.8639 -36.1316 -2.17735
C 15.7924 -37.3498 -0.113595
C 15.8914 -37.2059 -1.7344
C 14.7939 -36.8198 6.46905
C 14.9376 -39.0807 6.10376
C 14.6547 -37.5598 9.22939
C 14.9836 -39.8456 8.7394
C 15.8148 -37.9946 6.88179
C 15.7255 -38.4519 8.47344
C -1.55954 -38.6325 4.59938
C -1.61242 -38.3495 1.80617
C -0.453781 -37.736 4.08669
C -0.348868 -37.6241 2.46294
C -1.65592 -38.2063 0.244806
C -1.68597 -37.9281 -2.45009
C -0.416464 -37.5073 -0.292356
C -0.311939 -37.3681 -1.93912
C -1.5409 -38.8581 6.15972
C -1.65127 -39.4485 8.82659
C -0.395486 -38.2071 6.92572
C -0.432596 -38.6521 8.47281
C -8.05315 -37.7638 2.48904
C -5.48691 -37.8983 2.51972
C -4.20937 -38.4192 1.828
C -6.84217 -38.4063 1.82588
C -7.98637 -37.8936 4.07926
C -5.4548 -38.1934 4.08983
C -6.80031 -38.7973 4.54155
C -4.16293 -38.9092 4.55197
C -8.09897 -37.2803 -0.19697
C -5.49189 -37.3171 -0.110457
C -6.83205 -38.0827 0.262318
C -4.25345 -38.1326 0.310314
C -9.44966 -38.0725 1.84103
C -9.35727 -38.3691 4.61011
C -10.451 -37.177 2.53179
C -10.4517 -37.3766 4.11008
C -6.79205 -37.4779 -2.36306
C -5.49077 -36.9966 -1.64007
C -4.28987 -37.6827 -2.34669
C -8.07727 -37.0395 -1.68996
C -7.9744 -38.1864 6.78121
C -5.4444 -38.4793 6.74132
C -4.17447 -39.1377 6.09254
C -6.81626 -38.945 6.12427
C -7.97784 -38.3463 8.3442
C -6.81907 -39.2312 8.8266
C -5.47742 -38.6548 8.31466
C -4.2454 -39.4036 8.8529
C -9.35641 -38.5281 6.17856
C -9.34515 -38.8483 8.93376
C -10.4204 -37.71 6.8892
C -10.5162 -37.924 8.47946
C -9.4361 -37.944 0.285434
C -9.26471 -37.7388 -2.44547
C -10.6111 -37.111 -0.328528
C -10.5981 -37.1443 -1.9521
C -2.93458 -38.0853 4.06695
C -2.95334 -37.8488 2.50568
C -2.95267 -38.4621 6.79402
C -2.94586 -38.7264 8.35493
C -2.91813 -37.4351 -0.184246
C -2.93328 -37.2513 -1.74969
C 26.3106 -38.3925 4.76684
C 26.3669 -37.9135 1.97982
C 27.4313 -37.4389 4.31275
C 27.532 -37.1682 2.68531
C 26.292 -37.6039 0.427615
C 26.2837 -36.9891 -2.35275
C 27.5026 -36.7775 -0.0920433
C 27.6195 -36.5911 -1.65334
C 26.2282 -38.7152 6.31136
C 26.0728 -39.5302 8.96799
C 27.4022 -38.1332 7.16307
C 27.3323 -38.7461 8.68741
C 19.8345 -37.4251 2.5455
C 22.4149 -37.5188 2.58921
C 23.7041 -38.0227 1.861
C 21.1275 -37.986 1.84432
C 19.7931 -37.7902 4.12765
C 22.3955 -37.8973 4.16324
C 21.0241 -38.5611 4.64747
C 23.678 -38.6197 4.70811
C 19.9024 -36.9506 -0.193669
C 22.4633 -36.8625 -0.113134
C 21.1777 -37.6611 0.317106
C 23.7554 -37.5681 0.355949
C 18.5196 -37.8475 1.83301
C 18.4367 -38.2634 4.63983
C 17.4341 -37.0344 2.48823
C 17.3436 -37.3059 4.1032
C 21.296 -37.3347 -2.36548
C 22.4802 -36.5757 -1.64086
C 23.8265 -36.9252 -2.33023
C 19.9317 -36.859 -1.76419
C 19.8032 -37.893 6.85701
C 22.3119 -38.1723 6.88242
C 23.6142 -38.8154 6.3239
C 20.974 -38.6888 6.2131
C 19.7874 -37.992 8.4013
C 20.9805 -38.791 8.97807
C 22.2965 -38.2526 8.46555
C 23.5135 -39.1164 8.94087
C 18.4317 -38.3415 6.20088
C 18.3864 -38.5197 8.95726
C 17.3451 -37.4761 6.8204
C 17.1828 -37.7374 8.37679
C 18.5621 -37.6245 0.281538
C 18.6715 -37.4161 -2.45971
C 17.3704 -36.7878 -0.319806
C 17.3925 -36.6899 -1.9368
C 24.9187 -37.8398 4.23335
C 24.9698 -37.5505 2.66019
C 24.8979 -38.2762 7.02664
C 24.8846 -38.5989 8.53975
C 25.0317 -36.8176 0.0102695
C 25.0552 -36.4169 -1.54057
H -65.4935 -18.3948 2.9742
H -62.9555 -22.7722 2.77086
H -60.4409 -22.8413 3.01665
H -61.6302 -24.9371 2.64032
H -63.0146 -18.449 3.18517
H -61.7099 -20.6514 3.11195
H -64.3023 -20.5803 2.82797
H -70.2391 -26.9127 2.81162
H -68.9028 -29.1894 2.86918
H -71.4582 -24.7823 2.87638
H -72.768 -22.6585 2.76437
H -65.0079 -23.8851 2.0794
H -63.6971 -25.9941 1.91425
H -67.5764 -19.4735 2.21512
H -66.2859 -21.6615 2.26265
H -70.8139 -27.6572 7.03985
H -69.4589 -29.744 7.04025
H -72.2311 -25.3142 6.94886
H -73.5458 -23.1468 7.07377
H -68.1174 -22.8807 7.97423
H -69.3394 -21.1009 8.14833
H -65.6487 -26.9036 7.83958
H -64.0424 -26.8068 6.73298
H -66.9026 -24.9096 7.88045
H -65.2909 -24.6303 6.74325
H -67.1093 -31.9374 5.05902
H -67.1153 -31.5956 2.98568
H -63.6506 -29.3874 5.40045
H -63.4653 -29.3938 3.04012
H -74.144 -23.4148 9.37049
H -69.7529 -30.1908 9.40228
H -72.7496 -25.719 9.13432
H -71.2871 -27.9794 9.44315
H -69.8516 -21.062 10.3411
H -67.1728 -25.211 10.0127
H -65.797 -27.3012 10.1316
H -68.5737 -23.196 10.2949
H -69.1482 -29.3601 1.1583
H -72.9711 -22.4925 1.06506
H -71.7856 -24.7834 1.1442
H -70.4564 -27.0403 1.15198
H -65.0959 -26.6101 0.58296
H -68.6133 -20.3208 0.78431
H -67.3802 -22.4424 0.788485
H -66.1961 -24.7634 0.722809
H -73.2002 -22.5395 -1.21752
H -70.8153 -27.206 -1.29779
H -69.3439 -29.5248 -1.2335
H -72.004 -24.9424 -1.30596
H -68.758 -20.3445 -1.48048
H -65.199 -26.8581 -1.60328
H -67.5802 -22.6157 -1.42451
H -66.4356 -24.7604 -1.42312
H -67.077 -31.664 0.894052
H -63.5954 -29.1245 0.826289
H -66.6114 -30.9973 -2.6589
H -67.2301 -31.8148 -1.21446
H -63.811 -28.9205 -1.41309
H -64.8294 -29.3587 -2.78042
H -63.8973 -29.4634 7.61639
H -67.2071 -32.0512 7.17612
H -65.4828 -30.0549 11.0733
H -64.2376 -29.6155 9.86374
H -67.1331 -31.6513 10.797
H -67.4681 -32.4336 9.32144
H -59.6427 -24.877 4.10471
H -63.7597 -27.2346 5.146
H -61.9671 -26.3398 6.16211
H -61.7484 -26.1334 3.91491
H -59.8324 -25.157 6.36806
H -63.4596 -27.0928 3.16788
H -68.5976 -19.0786 5.6417
H -64.3354 -16.7838 4.48477
H -66.4831 -17.9079 4.3101
H -68.314 -18.9277 3.61791
H -64.6037 -16.9825 6.7374
H -66.6532 -18.2382 6.61533
H -60.9734 -18.9192 8.19953
H -59.6924 -21.1411 8.0626
H -59.2277 -20.6686 3.26684
H -60.5112 -18.5065 3.33233
H -58.59 -22.9105 6.67135
H -58.4299 -22.6868 4.42335
H -61.9862 -17.0247 6.87509
H -61.7999 -16.8649 4.66454
H -58.4351 -20.2554 4.73058
H -59.6481 -18.0972 4.79309
H -58.6088 -20.4086 6.93187
H -59.8994 -18.2606 6.98309
H -74.0808 -19.9377 3.1385
H -74.3541 -20.1568 5.10845
H -70.351 -17.8328 3.39922
H -70.7268 -18.0471 5.64953
H -74.6643 -20.1303 7.21048
H -70.7879 -18.3936 7.81104
H -74.3317 -20.3016 10.8798
H -75.1705 -20.2907 9.3233
H -71.1423 -18.6532 9.99562
H -72.0714 -19.5694 11.1982
H -70.1688 -17.8172 1.15696
H -74.0959 -19.7491 1.00525
H -70.7727 -18.6322 -2.46252
H -70.0205 -17.9722 -0.982997
H -73.2357 -19.4469 -2.53657
H -74.1906 -19.4237 -1.11792
H -68.3678 -25.9946 11.0891
H -71.142 -21.8338 11.0952
H -66.9998 -28.1412 10.9878
H -69.8945 -24.0013 11.089
H -73.2798 -23.0078 10.8076
H -70.3834 -27.3789 10.839
H -68.8919 -29.5605 10.8099
H -72.0367 -25.3746 10.679
H -69.765 -26.738 -2.62321
H -72.2166 -22.0058 -2.60958
H -68.4632 -28.9558 -2.65465
H -71.0366 -24.4059 -2.62359
H -70.0269 -20.9577 -2.50512
H -67.5475 -25.3942 -2.59129
H -66.3785 -27.5628 -2.63058
H -68.7757 -23.2243 -2.54468
H -76.6678 -11.3395 5.23605
H -76.3842 -14.2142 5.06583
H -76.2584 -14.215 2.91765
H -76.5792 -11.2568 2.93079
H -76.3702 -14.1467 7.25549
H -76.5322 -11.3823 7.43707
H -75.1985 -17.05 4.96928
H -75.0054 -16.9513 2.77803
H -76.2571 -11.3783 9.84054
H -76.453 -14.119 9.50434
H -76.3442 -11.2306 0.724295
H -76.0187 -14.1473 0.589293
H -76.0397 -11.1677 -1.5864
H -75.7021 -13.9218 -1.65905
H -74.8711 -16.7144 0.627866
H -73.5676 -15.9883 -2.75791
H -74.6868 -16.6501 -1.57472
H -75.5019 -16.8412 7.13452
H -74.7315 -16.6221 10.7216
H -75.7132 -17.1241 9.33697
H -75.805 -8.26144 3.07904
H -76.0182 -8.257 5.24982
H -76.0916 -8.62085 7.50419
H -73.1196 -9.00211 10.4912
H -74.7554 -9.15526 10.9932
H -75.7954 -8.22569 0.891874
H -74.8805 -8.58485 -2.67554
H -75.9528 -8.42449 -1.28983
H -73.7849 -12.5735 3.05657
H -72.9594 -7.7227 -1.43998
H -73.5209 -10.309 0.953523
H -73.8727 -12.5202 5.0897
H -73.3971 -14.7369 7.32355
H -72.7722 -8.36403 0.840843
H -73.5076 -12.3722 0.906679
H -75.4639 -7.39364 9.54226
H 62.3432 -10.5298 5.72134
H -73.7276 -10.4265 7.121
H -72.7067 -17.4003 9.7254
H -73.7008 -12.9613 9.46743
H -73.2101 -12.2153 -1.11592
H -72.7085 -14.4089 -0.975698
H 62.1206 -10.7988 1.53381
H -72.2248 -16.4808 5.24852
H -72.013 -16.4171 3.0305
H -73.2105 -14.4834 3.12683
H -73.2897 -9.91459 -1.02662
H -73.1207 -8.32032 7.74716
H 60.5873 -16.7532 5.69538
H -72.7768 -8.53902 3.22175
H -73.7083 -12.6064 7.3224
H -72.961 -14.3465 0.908145
H -73.6312 -10.4208 3.14855
H -73.5753 -15.3475 9.57692
H 61.5305 -17.3011 -1.05741
H -71.6465 -16.2811 -1.32945
H -72.9781 -8.58507 5.48742
H -73.2729 -10.3728 9.31037
H -75.2235 -14.1075 10.7691
H -74.8213 -11.5243 10.9038
H 62.0308 -15.1186 1.62615
H -74.724 -11.1417 -2.6781
H -50.9933 -32.2554 7.49438
H -47.5425 -29.828 7.47905
H -43.7461 -31.5986 7.1894
H -44.9894 -29.571 7.28116
H -50.0693 -30.0144 7.54842
H -48.6893 -32.1345 7.2927
H -46.0972 -31.8613 7.21017
H -42.9531 -39.9294 4.99239
H -50.6706 -40.4269 5.15763
H -48.0201 -40.2638 5.18337
H -45.4115 -40.1085 5.06807
H -50.7283 -34.6913 7.54939
H -48.4676 -34.5043 7.43324
H -51.3567 -31.8772 2.59853
H -46.3559 -31.4551 2.44682
H -45.3263 -29.1762 2.56734
H -44.001 -31.2583 2.19115
H -50.3278 -29.6175 2.85999
H -47.8288 -29.3848 2.73593
H -48.872 -31.6893 2.53001
H -45.495 -39.9621 2.92291
H -42.9693 -39.8043 2.79233
H -48.077 -40.1669 2.94016
H -50.6518 -40.2877 2.96101
H -46.4065 -33.8864 2.62926
H -44.0303 -33.7454 2.4674
H -51.4272 -34.2616 2.75066
H -48.8689 -34.1053 2.68549
H -45.204 -40.8313 6.69568
H -42.6182 -40.4671 6.58102
H -48.0144 -40.9602 6.80068
H -50.6768 -40.9654 7.15711
H -47.9041 -36.2707 8.40111
H -50.2305 -36.3959 8.4218
H -43.2228 -35.7964 8.08694
H -43.1816 -34.1112 7.07943
H -45.616 -36.0752 8.32556
H -45.8029 -34.3879 7.30639
H -40.013 -39.3203 4.70022
H -39.8113 -39.0136 2.66285
H -40.2489 -35.1705 5.67446
H -40.4837 -34.7802 3.43499
H -50.753 -41.7309 9.44559
H -42.5189 -41.4532 8.64463
H -47.9186 -41.8674 9.16004
H -45.2501 -41.7679 8.90579
H -50.298 -36.9755 10.5696
H -45.4313 -36.9789 10.4554
H -43.1099 -36.6885 10.3771
H -47.9151 -37.0313 10.5726
H -42.9441 -39.6713 0.634832
H -50.6605 -40.1177 0.869484
H -48.1148 -39.9613 0.894351
H -45.5049 -39.8522 0.818749
H -42.9542 -34.8075 1.07219
H -50.4606 -35.2778 1.36602
H -47.935 -35.1684 1.31552
H -45.5304 -35.0574 1.14941
H -50.8876 -39.4543 -1.50362
H -45.6277 -39.2537 -1.58354
H -43.0624 -39.1073 -1.73051
H -48.2373 -39.3124 -1.61309
H -51.001 -34.5172 -0.845261
H -43.4687 -34.1405 -1.14449
H -48.4748 -34.4213 -0.819174
H -46.0068 -34.3148 -1.1025
H -39.7045 -38.6706 0.52095
H -40.6608 -34.4797 1.12956
H -40.6993 -37.6736 -2.75959
H -40.0012 -38.5763 -1.51267
H -40.4775 -34.2264 -1.14347
H -40.8694 -35.1808 -2.61735
H -40.1618 -35.7171 7.85753
H -39.7352 -39.8204 6.83752
H -40.4463 -37.7472 10.959
H -40.2893 -36.3919 9.91236
H -39.974 -39.935 10.4769
H -39.4759 -40.504 8.89238
H -43.095 -29.3672 3.72972
H -42.4703 -34.1728 5.58599
H -42.7921 -31.904 5.78552
H -42.7929 -31.6969 3.37478
H -42.9855 -29.5561 5.91273
H -42.5679 -33.9004 3.57091
H -51.8306 -34.8295 6.32179
H -52.398 -30.1527 4.15599
H -52.2041 -32.5493 3.9052
H -51.8349 -34.6715 4.31006
H -52.2197 -30.3837 6.40023
H -52.0459 -32.7152 6.11872
H -49.0117 -27.8463 7.74344
H -46.4096 -27.7199 7.61645
H -46.793 -27.1985 2.76877
H -49.349 -27.4517 2.94004
H -44.4164 -27.4668 6.14384
H -44.5052 -27.2786 3.94189
H -51.1983 -28.1244 6.60053
H -51.3346 -27.8895 4.30307
H -46.7033 -26.1861 4.21449
H -49.3277 -26.4055 4.32799
H -46.6244 -26.423 6.45608
H -49.1665 -26.6238 6.54036
H -53.8429 -39.8553 3.23035
H -53.6639 -40.0554 5.25773
H -53.5721 -35.6544 3.81182
H -53.5619 -35.8875 6.07949
H -53.7104 -40.3406 7.49184
H -53.2264 -36.2254 8.19011
H -53.3161 -40.1577 11.0943
H -53.9566 -40.7753 9.60936
H -52.8979 -36.6661 10.3946
H -52.8918 -38.0667 11.446
H -53.5737 -35.2992 1.63253
H -53.7886 -39.7021 1.0602
H -53.5977 -35.7635 -1.98799
H -53.9149 -34.9536 -0.493067
H -53.4047 -37.973 -2.38104
H -53.6079 -39.3215 -1.18308
H -45.2681 -38.5501 11.0929
H -50.3835 -38.5818 11.2682
H -42.7622 -38.2938 11.0213
H -47.8717 -38.6742 11.2773
H -50.5694 -40.7792 10.9404
H -45.1765 -41.0065 10.4523
H -42.5709 -40.8829 10.2418
H -47.7909 -40.9846 10.6653
H -45.7962 -37.8494 -2.63459
H -50.959 -38.0077 -2.47551
H -43.206 -37.6489 -2.72163
H -48.3291 -37.8318 -2.55468
H -50.9472 -35.5778 -2.21853
H -45.9567 -35.4728 -2.39242
H -43.4135 -35.263 -2.47011
H -48.4467 -35.4018 -2.21791
H -62.2999 -36.0071 5.62479
H -60.0107 -37.4839 5.51737
H -60.0504 -37.5087 3.14005
H -62.2102 -35.8494 3.19277
H -59.8741 -37.39 7.68619
H -62.098 -35.9706 7.62886
H -57.2646 -38.6746 5.35404
H -57.2284 -38.7332 3.13879
H -61.8848 -35.9604 9.90152
H -59.6867 -37.0427 9.96796
H -62.2743 -35.8084 1.03812
H -60.0035 -37.394 0.928859
H -62.2274 -35.6636 -1.3343
H -59.7379 -37.2048 -1.14614
H -57.5183 -38.581 0.992656
H -56.6503 -36.7328 -2.41302
H -57.5984 -38.1026 -1.8741
H -57.4337 -38.5485 7.5795
H -56.8976 -37.3888 11.0211
H -57.4822 -38.5135 9.88702
H -64.1255 -33.9499 3.26533
H -64.3699 -34.0417 5.41568
H -64.2552 -34.4126 7.40688
H -63.5622 -33.8991 11.1003
H -64.1762 -34.847 9.65285
H -64.1888 -33.8071 1.0311
H -63.4877 -32.992 -2.50051
H -64.3683 -33.7816 -1.16818
H -59.5759 -34.5038 3.4147
H -62.9813 -30.9364 -1.13008
H -61.2346 -32.9268 1.03516
H -59.6411 -34.501 5.18954
H -57.503 -35.431 7.36297
H -62.7905 -31.1862 1.18468
H -59.4558 -34.3963 1.06211
H -63.968 -31.8436 10.2809
H -61.4958 -33.0248 5.21194
H -61.4913 -33.0179 7.62576
H -54.8782 -36.8376 9.96891
H -59.5636 -34.0236 9.51773
H -59.5322 -34.1234 -0.866518
H -57.4677 -35.2932 -0.908848
H -55.4967 -36.3422 0.8992
H -55.5279 -36.1233 5.48823
H -55.5808 -36.0625 3.12749
H -57.7043 -35.6626 3.35261
H -61.459 -32.6722 -1.02263
H -63.1822 -31.6428 7.965
H -55.2823 -36.3498 7.67135
H -62.8362 -31.3132 3.76499
H -59.5937 -34.2822 7.43071
H -57.5663 -35.4783 1.11683
H -61.3097 -32.9286 3.4221
H -57.0679 -35.4882 9.5844
H -57.5973 -35.5421 5.02654
H -55.7831 -38.9122 -0.898622
H -62.9155 -31.3674 5.64493
H -61.795 -32.9256 9.72368
H -58.992 -35.9033 11.1072
H -61.1946 -34.8643 11.0787
H -59.1942 -36.1921 -2.38594
H -61.4775 -34.6799 -2.51912
H 58.219 4.38866 8.09295
H 61.3668 0.0901138 8.05793
H 62.881 -2.16488 8.07871
H 40.4075 -32.8439 0.294992
H 37.0531 -30.4281 0.875509
H 33.0185 -32.1319 1.39709
H 34.5321 -30.1714 1.2418
H 39.4833 -30.7024 0.564826
H 37.8883 -32.7719 0.781324
H 35.4196 -32.4925 1.12582
H 32.1541 -40.565 1.83436
H 39.7697 -41.2415 1.85383
H 37.3832 -41.1049 1.91587
H 34.7024 -40.8828 1.88943
H 40.5653 -35.3043 0.765245
H 38.1631 -35.1471 0.942946
H 41.2414 -33.0654 5.09636
H 36.1415 -32.4298 5.85105
H 35.2379 -30.027 5.93085
H 33.8046 -32.0024 6.25528
H 40.195 -30.7043 5.28538
H 37.6991 -30.2542 5.63275
H 38.6949 -32.8165 5.50976
H 34.7496 -40.8039 4.11614
H 32.3091 -40.5489 4.08418
H 37.3913 -40.9846 4.09724
H 39.9413 -41.2688 4.07895
H 35.6955 -34.7898 5.70019
H 33.3199 -34.8196 5.8226
H 40.6127 -35.4578 5.64666
H 38.1231 -35.1659 5.76534
H 34.5722 -41.017 -0.208908
H 31.8918 -40.633 -0.288331
H 37.1863 -41.2602 -0.229371
H 39.9305 -41.3839 -0.345107
H 37.4465 -36.3476 -0.37329
H 39.6774 -36.5141 -0.484155
H 33.0133 -35.9808 -0.353324
H 32.6065 -34.4837 1.03521
H 35.2257 -36.1672 -0.392372
H 35.0497 -34.7809 1.06244
H 29.0649 -39.7886 1.81433
H 29.3763 -40.0026 3.81955
H 29.7635 -35.5507 2.29032
H 29.6877 -35.8135 4.64035
H 39.9799 -41.5138 -2.74998
H 31.9215 -40.7461 -2.6018
H 37.207 -41.4287 -2.57722
H 34.4873 -41.2062 -2.48175
H 39.9072 -36.4976 -2.76304
H 35.1506 -36.2662 -2.79701
H 32.7828 -35.8949 -2.57418
H 37.4793 -36.487 -2.61324
H 32.3668 -41.0404 5.79814
H 39.9941 -41.6053 5.81487
H 37.372 -41.4359 5.79895
H 34.8425 -41.2267 5.7547
H 32.4663 -36.2685 6.91684
H 39.9077 -36.9143 6.83482
H 37.4756 -36.747 6.86718
H 35.1635 -36.4055 6.76507
H 40.0541 -42.2806 8.24217
H 34.8272 -41.9156 8.24486
H 32.3067 -41.8241 7.92143
H 37.2961 -42.0884 8.15265
H 40.2588 -37.4066 9.05598
H 32.5154 -37.0466 9.30667
H 37.7042 -37.2085 9.01262
H 35.0927 -37.1011 9.01737
H 29.3339 -40.5007 5.91696
H 29.7204 -36.3533 6.8739
H 29.7006 -40.6331 9.54244
H 29.2458 -41.2491 7.99689
H 29.6531 -37.115 8.96982
H 30.0041 -38.4278 10.0486
H 30.0101 -35.4006 -0.110984
H 28.8898 -39.5746 -0.298272
H 30.1444 -36.5414 -3.79657
H 30.0267 -35.4341 -2.36644
H 29.3862 -38.7188 -3.81527
H 28.8724 -39.6436 -2.45594
H 32.9138 -30.0623 5.04937
H 31.925 -34.6962 2.54801
H 32.2303 -32.5417 2.9476
H 32.5364 -32.4993 5.23627
H 32.5653 -30.0969 2.79627
H 31.9113 -34.5482 4.71605
H 41.2449 -35.5665 2.26869
H 42.1139 -31.2103 3.76693
H 41.738 -33.6673 3.59856
H 41.4537 -35.6728 4.21877
H 41.7895 -31.1174 1.51221
H 41.5135 -33.5101 1.42964
H 38.5061 -28.5582 0.53209
H 35.975 -28.2324 0.906766
H 36.7391 -28 5.66296
H 39.1579 -28.3923 5.3619
H 34.1253 -28.0434 2.49428
H 34.4227 -28.0035 4.75013
H 40.7885 -28.8843 1.60745
H 41.0733 -28.842 3.87059
H 36.573 -27.0391 4.2366
H 39.1332 -27.3065 3.98116
H 36.3404 -27.0796 2.13457
H 38.8661 -27.4355 1.81809
H 42.9567 -41.0462 3.78104
H 42.9844 -41.0248 1.66996
H 43.1363 -36.8751 4.33947
H 42.9365 -36.7688 1.98387
H 42.9453 -41.0017 -0.479488
H 42.7353 -36.5506 -0.207287
H 42.4298 -39.8277 -4.01509
H 42.9899 -40.9668 -2.7349
H 42.7188 -36.6795 -2.35754
H 42.338 -37.566 -3.83495
H 43.0867 -37.0216 6.47139
H 43.1609 -41.2127 5.90805
H 42.7092 -38.8409 9.86172
H 42.8587 -37.57 8.73917
H 42.8685 -41.0559 9.4913
H 43.2926 -41.7573 7.92487
H 35.0128 -37.6961 -3.75933
H 39.8423 -37.8466 -3.86021
H 32.5569 -37.2157 -3.69158
H 37.3591 -37.8369 -3.73769
H 39.8289 -40.2536 -3.96184
H 34.6344 -40.0659 -3.82909
H 32.084 -39.648 -3.91149
H 37.2378 -40.2145 -3.83276
H 34.9088 -40.9039 9.6449
H 40.0687 -41.2552 9.58972
H 32.2792 -41.1207 9.46771
H 37.4226 -41.1187 9.6086
H 40.135 -38.9107 9.89462
H 35.0539 -38.5587 10.0186
H 32.4708 -38.6185 9.99458
H 37.6334 -38.6938 9.97544
H 51.6064 -36.4582 1.04826
H 49.4092 -38.1384 0.988162
H 49.5169 -38.3544 3.46748
H 51.8214 -36.5319 3.56378
H 48.9624 -37.7235 -1.11676
H 51.0146 -36.31 -1.17545
H 46.6669 -39.4987 1.23231
H 46.7844 -39.614 3.40976
H 50.5991 -36.0437 -3.40921
H 48.3499 -36.9619 -3.54256
H 51.8008 -36.4692 5.67355
H 49.4969 -38.3357 5.57673
H 51.6819 -36.4732 8.02098
H 49.5789 -38.3404 8.01606
H 47.0239 -39.8072 5.53856
H 46.8351 -38.9934 9.22719
H 47.2138 -39.9489 7.74451
H 46.9647 -39.1297 -0.962528
H 44.8353 -36.8233 -3.68368
H 46.1396 -37.8775 -4.1825
H 53.5756 -34.2682 3.5565
H 53.5291 -34.3225 1.13315
H 53.3027 -34.5589 -0.949671
H 52.2748 -33.6797 -4.55191
H 53.1652 -34.5908 -3.32145
H 53.5445 -34.0487 5.68327
H 52.5449 -33.6097 9.28285
H 53.5618 -34.1431 7.98534
H 48.9482 -35.347 3.30184
H 51.7635 -31.6686 8.07724
H 50.4993 -33.7446 5.94039
H 48.828 -35.1905 1.57954
H 46.4641 -36.1883 -0.254145
H 51.5962 -31.6869 5.74685
H 48.8637 -35.3324 5.62215
H 52.4137 -31.6886 -3.42308
H 50.656 -33.6363 1.68845
H 50.5666 -33.2822 -0.783959
H 45.3434 -39.7245 -2.96304
H 48.3074 -34.1895 -2.51165
H 48.9274 -35.4182 7.78546
H 46.9315 -36.8197 7.86401
H 44.9643 -37.6198 5.77559
H 44.8434 -37.0806 1.31869
H 44.9886 -37.1942 3.11605
H 47.0087 -36.5869 3.66848
H 50.5633 -33.6578 7.99564
H 52.0794 -31.7291 -1.11467
H 44.4969 -37.4068 -0.914877
H 51.7392 -31.7955 3.41509
H 48.574 -34.6795 -0.507597
H 46.9732 -36.6589 5.81799
H 50.5276 -33.733 3.43066
H 45.6526 -35.948 -2.36495
H 46.943 -36.4978 1.84812
H 44.8142 -38.1275 8.22971
H 51.9388 -31.761 1.14996
H 50.4962 -33.039 -2.93418
H 47.3879 -35.5786 -3.9878
H 49.9052 -34.7657 -4.45481
H 48.8486 -37.2285 9.17916
H 50.7392 -35.5991 9.20116
H -16.8721 4.64745 6.08012
H -20.647 2.84226 4.7387
H -24.3285 5.10132 4.39021
H -23.1419 2.98108 4.14828
H -18.154 2.69385 5.33489
H -19.3215 4.9445 5.54717
H -21.8711 5.04798 4.95642
H -23.821 13.4889 5.89251
H -16.2071 13.0858 6.74606
H -18.7108 13.2603 6.31301
H -21.2781 13.4417 5.97614
H -16.2893 7.06297 6.18762
H -18.7415 7.23951 5.81368
H -15.9095 5.67294 1.38992
H -20.8082 5.99389 0.3606
H -22.06 3.93787 -0.354709
H -23.1562 6.0308 -0.229265
H -17.1553 3.66771 0.775483
H -19.5345 3.74682 0.246549
H -18.3302 5.84046 0.92184
H -21.0385 13.8724 3.85997
H -23.5626 13.9686 3.63311
H -18.5173 13.7538 4.20398
H -15.9786 13.6475 4.58027
H -20.8377 8.38921 1.04027
H -23.1007 8.43594 0.813946
H -16.2087 8.42474 1.35218
H -18.6117 8.38082 1.21212
H -21.5717 13.0863 8.08709
H -24.0966 13.052 7.80666
H -18.8768 13.024 8.35679
H -16.2869 12.6854 8.72496
H -19.3484 8.22091 7.46376
H -16.996 8.09632 7.6902
H -23.7567 8.332 6.89503
H -24.3542 7.43783 5.33513
H -21.4913 8.31961 7.18981
H -21.8797 7.3282 5.46448
H -26.7003 13.3159 5.35437
H -26.5256 13.6935 3.31292
H -26.7775 9.1739 4.1321
H -26.554 9.6238 1.95746
H -16.4616 12.3265 11.074
H -24.4687 12.7201 10.1996
H -19.2289 12.7323 10.6863
H -21.8839 12.7591 10.5442
H -17.0052 7.5098 10.0039
H -21.8142 7.91606 9.47542
H -24.1937 7.91489 9.09919
H -19.4125 7.84402 9.70144
H -23.553 14.6956 1.98428
H -16.0098 14.54 3.11521
H -18.4748 14.639 2.7131
H -20.8978 14.6784 2.34281
H -23.3164 10.2142 -0.0554371
H -15.6082 10.2224 0.721777
H -18.2221 10.1936 0.459924
H -20.7877 10.2301 0.254704
H -15.7211 15.8117 1.24616
H -20.6862 15.8749 0.064988
H -23.4228 15.8744 -0.0995143
H -18.2214 15.8768 0.503423
H -15.5042 11.5026 -1.34637
H -22.8643 11.2639 -2.05783
H -17.9128 11.3129 -1.52634
H -20.5593 11.2647 -1.76417
H -26.4064 14.3985 1.26292
H -26.1523 10.3764 -0.165583
H -25.8313 14.8406 -2.27138
H -26.5133 15.1739 -0.709718
H -25.6583 11.1222 -2.11248
H -25.2593 12.5953 -3.03129
H -26.9635 8.53799 6.36799
H -27.0272 12.8464 7.45051
H -26.8851 8.87483 10.2679
H -27.1571 8.10257 8.66271
H -27.1129 11.1604 10.7211
H -27.2989 12.414 9.53372
H -24.3779 4.05221 0.358616
H -24.8963 8.01854 3.84374
H -24.9908 5.9341 3.01438
H -24.3862 6.45169 0.941361
H -24.9534 3.54933 2.51088
H -24.6415 8.43696 1.76011
H -15.4436 7.60521 4.81335
H -15.3587 3.41366 2.40597
H -15.2583 5.87596 3.01116
H -15.1182 8.0819 2.7372
H -15.7889 2.94782 4.58428
H -15.6334 5.32082 5.07521
H -19.4507 0.63075 4.62543
H -21.9356 0.832945 4.05534
H -20.8559 1.91147 -0.549359
H -18.3476 1.60192 0.0536299
H -23.6717 1.32855 2.42254
H -23.2206 1.77211 0.284474
H -17.1076 0.95618 3.97771
H -16.5759 1.39522 1.77873
H -21.1298 0.477263 0.369402
H -18.6385 0.258104 1.09245
H -21.6034 0.0231787 2.53252
H -19.1833 -0.139107 3.13925
H -13.1717 13.2767 5.03855
H -13.2578 12.5206 6.91496
H -13.0029 9.39532 3.20301
H -13.3828 8.50947 5.55537
H -13.289 11.8691 8.90962
H -13.8383 7.84095 7.61853
H -13.9231 10.2372 12.0109
H -13.343 11.4862 10.925
H -14.1719 7.38488 9.77308
H -14.4889 8.02761 11.3554
H -12.8007 10.4256 1.21085
H -13.0522 14.3344 3.21217
H -12.9889 13.1598 -1.45292
H -12.7069 11.5739 -0.692239
H -12.81 15.1705 -0.29823
H -12.6418 15.3951 1.41988
H -21.9214 9.06474 10.7762
H -16.7764 10.8702 11.98
H -21.999 11.2636 11.4269
H -24.5025 11.2352 11.1075
H -19.4402 11.3489 11.736
H -16.9326 8.62628 11.2996
H -24.4427 8.99449 10.4894
H -19.4944 8.90282 11.0607
H -15.407 13.2033 -1.6472
H -20.4114 12.8885 -2.31459
H -22.9104 12.9184 -2.65931
H -17.8563 12.9824 -1.98158
H -15.4872 15.4821 -0.455074
H -20.502 15.1385 -1.53549
H -23.1207 15.3793 -1.74659
H -17.992 15.1729 -1.04452
H -32.209 13.6393 5.04362
H -34.8713 13.7003 4.97109
H -34.747 14.0681 2.68086
H -31.8868 13.9589 2.79008
H -34.9777 13.312 7.05168
H -32.249 13.1817 7.23164
H -37.6305 13.3488 4.75462
H -37.4872 13.7278 2.58645
H -32.4376 12.8964 9.31577
H -35.1478 12.9034 9.26738
H -31.9349 14.2222 0.707699
H -34.6604 14.3083 0.663574
H -31.9044 14.438 -1.65609
H -34.4352 14.644 -1.54501
H -37.3569 14.1382 0.495609
H -36.9868 13.8652 -3.20423
H -37.1941 14.7825 -1.68997
H -37.6586 13.0362 6.86966
H -37.5725 11.1144 10.2498
H -37.7709 12.5249 9.27149
H -29.2673 13.3822 2.99842
H -29.3635 12.9696 5.241
H -29.48 12.4725 7.33898
H -30.1994 10.7693 10.5954
H -29.6872 12.1097 9.6531
H -29.2017 13.8594 0.842942
H -29.2196 13.4288 -2.89704
H -29.2583 14.3377 -1.4192
H -28.0171 11.5756 -1.92186
H -30.9056 11.3783 0.302601
H -33.5586 10.9785 4.55137
H -36.0374 10.495 6.54913
H -28.4394 10.9627 0.189627
H -29.4086 9.10833 9.10168
H -31.3499 10.8222 4.27084
H -31.5127 10.2415 6.80308
H -38.5198 9.62763 8.55053
H -33.7965 10.2337 8.7336
H 65.0693 -11.5267 1.25336
H -35.8564 12.0075 -2.12013
H -38.3225 11.33 -0.330448
H -38.3098 10.3768 4.14362
H -38.2195 10.8257 1.97106
H -35.8489 11.183 2.38638
H 65.113 -14.4384 1.43254
H -29.2031 9.47109 6.79057
H -38.4215 10.1007 6.36152
H -28.7743 10.4418 2.39233
H -33.7394 10.5154 6.74132
H -35.7811 11.4997 0.0548792
H -36.1324 10.0887 8.57092
H -35.946 10.8807 4.3728
H -38.4142 12.0824 -2.57285
H -29.0507 9.98035 4.64132
H -31.6763 9.92357 8.93003
H -32.6078 11.6063 10.4694
H -34.4584 13.7429 -3.03254
H -31.9044 13.3537 -3.0024
H 64.8662 -14.4973 3.6907
H 65.1782 -11.6864 3.51471
H -60.8705 -7.08337 5.7223
H 64.9767 -14.3539 -0.875075
H 64.8862 -11.6348 -0.867729
H 64.1165 -17.3911 1.57419
H 63.7753 -17.339 3.73704
H 64.8502 -11.7179 -3.142
H -54.6063 15.1527 -0.452378
H 64.9488 -14.302 -3.23688
H 56.8428 -2.9574 6.48481
H 65.1573 -11.5955 5.6916
H 64.7789 -14.5234 5.77838
H 65.134 -11.711 7.97871
H 64.5908 -14.5257 8.0707
H 55.5466 -0.851173 -0.627997
H 63.6316 -17.1776 5.95463
H 62.3374 -16.3493 9.29777
H 63.3366 -17.1084 8.13242
H 64.52 -17.1519 -0.561586
H -56.1881 10.2288 2.2456
H 63.8172 -16.8802 -4.21621
H 64.805 -17.0501 -2.78955
H 64.5712 -8.5308 3.49891
H 60.6631 -0.364438 4.01449
H 64.2931 -8.76739 1.2151
H 62.0491 -2.47351 3.87671
H 54.1764 0.921694 -0.548207
H 64.2072 -8.76511 -0.82826
H 59.1257 1.64953 4.03499
H 63.3725 -9.37102 -4.40872
H 64.3731 -8.94322 -3.05885
H -33.4457 11.2723 2.58663
H -59.8762 8.71668 7.3555
H 57.6931 3.69902 4.18098
H 64.6788 -8.52958 5.6171
H 63.6273 -9.13058 9.29183
H -33.364 11.5637 0.188284
H 64.7331 -8.64156 8.06067
H 62.3956 -12.8776 3.49392
H 61.7471 -8.58944 8.12873
H -73.8011 -10.3877 4.88966
H -33.3861 11.8046 -1.92681
H 62.4356 -12.9976 1.51578
H 62.1014 -15.2707 -0.72328
H 61.6433 -8.57345 5.71604
H 11.93 3.7791 5.00036
H 8.33364 1.50226 5.19542
H 4.69464 3.46425 6.3407
H 5.82295 1.40992 5.74683
H 62.2755 -12.7178 5.72389
H 9.40077 3.76537 5.45546
H 6.99569 3.65166 5.83588
H 61.4836 -8.33155 -3.47145
H -71.9116 -16.3991 0.873489
H 61.9372 -10.7919 -0.94154
H 62.0145 -18.0228 -3.39886
H 3.78799 12.1636 5.94569
H 11.4946 12.4481 5.2093
H 8.94114 12.3726 5.41925
H 6.33285 12.3196 5.6087
H 62.0743 -13.0422 -2.765
H 9.57458 6.3064 5.488
H 62.2296 -12.6692 7.88111
H 61.5152 -14.7498 7.65708
H 11.0838 4.55113 0.278191
H 6.16743 4.23538 1.19619
H -72.462 -16.6909 7.48081
H 3.69317 4.14328 1.57958
H 9.86493 2.49376 0.142851
H 7.40567 2.33847 0.677957
H 8.66016 4.58468 0.789793
H 61.1452 -17.0645 1.14366
H 60.7941 -16.8953 3.47678
H 61.8847 -14.9908 3.26764
H 62.3648 -10.4496 7.41309
H -61.9214 7.47931 1.30767
H 6.15188 12.4117 3.52511
H 3.69496 12.3519 3.74868
H 61.2015 -8.75542 -1.03466
H 11.3576 12.6214 2.91674
H 6.04494 6.848 1.15865
H 3.64713 6.67846 1.2435
H 10.7934 7.04491 0.509398
H 8.51485 6.98804 0.844704
H -73.4119 -14.6508 4.89617
H 61.4286 -8.78989 3.52935
H 62.1586 -13.0766 -0.713927
H 6.49065 12.2356 7.7182
H 3.8481 12.0825 7.93641
H 61.7033 -14.8807 5.56613
H 11.8066 12.2184 7.28849
H 8.86299 7.46109 6.98703
H 11.2949 7.36658 6.75077
H 4.462 7.31241 7.62003
H 3.81362 6.09961 6.15675
H 62.3326 -10.6458 3.24674
H 6.30417 6.07489 5.79795
H 0.79977 11.7064 6.12471
H 0.915887 12.182 4.14357
H 62.1238 -15.5602 -2.87341
H 0.937941 7.51918 5.30943
H 0.576966 7.96855 2.97474
H -74.351 -13.5328 -2.71911
H 60.397 -16.8135 8.08339
H 12.1195 12.1018 9.68363
H 4.02499 12.0752 10.2786
H 9.35745 12.2961 9.84373
H 6.68166 12.2378 10.0058
H 61.3406 -8.71307 1.2755
H 61.9506 -10.7176 -2.91344
H 11.6027 7.19594 8.99799
H 6.90103 7.29462 9.77326
H 4.42778 7.10968 9.8281
H 9.28432 7.35146 9.29692
H 63.4825 -14.2637 -4.28052
H 63.5919 -11.9036 -4.37561
H 63.3501 -14.1869 9.26475
H 3.58448 13.057 2.19585
H 11.3511 13.1913 1.30737
H 63.9735 -11.6234 9.23692
H 6.17557 13.1562 1.89493
H 3.52048 8.44539 0.343732
H 11.412 8.76044 -0.40157
H 8.86975 8.763 -0.0992842
H 6.07727 8.55614 0.109652
H 11.2256 14.2298 -0.938678
H 5.91298 14.1854 -0.168153
H 3.39832 14.1363 -0.0533877
H 8.52123 14.2895 -0.429159
H 10.8372 9.49583 -2.36143
H 3.47371 9.49276 -1.87025
H 8.45279 9.69183 -2.30255
H 5.94539 9.51492 -1.91596
H 0.65051 12.7589 2.05006
H 0.636892 8.62167 0.7253
H 0.629703 13.1425 -1.53838
H 0.446273 13.6593 0.129467
H 0.544715 9.45396 -1.32837
H 0.895379 10.9307 -2.29259
H 1.22795 7.21866 7.521
H 0.826201 11.3379 8.24228
H 1.81622 7.92535 11.3153
H 1.57065 6.97527 9.84512
H 1.53989 10.0648 11.6806
H 0.916709 11.1645 10.485
H 3.07518 2.08865 2.72399
H 2.96549 6.4696 4.7731
H 3.3786 4.14125 5.40094
H 3.02614 4.49238 3.16037
H 3.48144 1.69544 4.97016
H 2.84704 6.5689 2.74676
H 12.388 6.8694 3.59812
H -58.1983 9.90969 3.26732
H 12.3281 4.91389 1.50273
H 12.1652 6.97847 1.525
H 12.6337 2.20077 3.16884
H 12.5954 4.6602 3.65824
H 9.685 -0.546703 4.63621
H 7.15743 -0.573716 5.20838
H 6.18533 0.103773 0.50926
H 8.60029 0.329712 -0.0158073
H 4.82278 -0.456072 4.34657
H 4.3932 -0.0521404 2.19217
H 11.5032 0.031768 2.99027
H 11.0132 0.404451 0.858926
H 6.53284 -1.15966 1.60777
H 8.94139 -0.974912 1.08169
H 6.9166 -1.52172 3.75264
H 9.44014 -1.41321 3.17245
H 14.3388 12.2792 2.94119
H 14.6363 11.8921 4.94753
H 14.316 8.03666 1.87635
H 14.3793 7.74118 4.17319
H 14.8478 11.5599 7.09344
H 14.4943 7.37854 6.37772
H 14.6201 10.0493 10.4589
H 15.2116 11.2274 9.30374
H 14.4145 7.05221 8.50313
H 14.2599 7.85524 10.0564
H 13.9668 8.70821 -0.375615
H 14.336 12.8422 0.773957
H 13.4713 10.8245 -3.48127
H 13.7352 9.41964 -2.44765
H 13.7871 12.9489 -2.77054
H 14.3667 13.5059 -1.26329
H 6.96239 8.51346 10.9285
H 12.0628 10.7039 10.7304
H 6.89804 11.0487 11.2162
H 4.19787 10.7812 11.4705
H 9.41215 10.9459 10.9271
H 11.8371 8.3107 10.2996
H 4.38975 8.28906 11.1037
H 9.45969 8.44608 10.6077
H 10.8629 11.065 -3.14077
H 5.79658 11.127 -2.58601
H 3.37462 11.1437 -2.37871
H 8.34931 11.3055 -2.84905
H 11.0153 13.4634 -2.46881
H 5.77976 13.6014 -1.78458
H 3.29975 13.4576 -1.6246
H 8.33999 13.7099 -2.09389
H -1.87734 11.7269 4.63663
H -1.9941 10.9756 6.75311
H -2.26548 10.3025 8.7562
H -2.38289 8.10244 11.7675
H -2.49155 9.64902 11.0067
H -1.63154 12.3706 2.65458
H -2.24331 12.9818 -0.98584
H -1.66106 13.3241 0.634093
H -1.88216 10.605 -0.681204
H -1.81107 9.57575 1.49443
H -0.732156 7.27279 10.4176
H -1.07547 7.60254 8.05015
H -1.56034 8.84157 3.62016
H -1.36607 8.14177 5.85691
H -4.58104 11.3822 7.13032
H -7.32188 11.6978 7.14238
H -7.22002 12.8486 5.36701
H -4.36116 12.3761 5.2142
H -7.42709 10.5273 9.03281
H -4.80146 10.3638 8.99154
H -10.1607 11.8667 6.9838
H -10.1074 12.8407 4.93572
H -4.97081 9.30204 11.0631
H -7.50193 9.36417 11.0954
H -4.13742 13.3771 3.3309
H -7.13912 13.9492 3.53586
H -4.05244 14.3412 1.33706
H -6.77944 15.08 1.59558
H -10.0379 13.8444 3.13532
H -9.34682 14.859 -0.36893
H -9.80254 15.1249 1.30334
H -10.0469 10.8471 8.85079
H -10.3354 8.16967 11.4276
H -10.1474 9.82543 10.936
H -6.25227 10.3592 3.89175
H -4.00207 10.698 1.80568
H -6.23617 9.2268 5.74001
H -8.89226 8.27606 7.62211
H -6.09403 11.5918 1.80542
H -3.77523 8.73327 5.79513
H -3.72209 7.80924 7.797
H -11.8015 7.58152 9.68012
H -6.25029 7.03109 9.53803
H -6.18462 12.4188 0.28692
H -8.33072 12.7788 0.203725
H -10.6872 11.3098 1.48785
H -11.0515 9.2575 5.55012
H -10.807 10.1807 3.53954
H -8.55997 10.3423 4.0888
H -4.05571 11.5611 0.0256299
H -11.3579 8.4453 7.54803
H -6.28801 8.09706 7.58315
H -8.33269 11.6144 1.98389
H -4.04726 9.59454 3.86532
H -9.13004 7.29443 9.62872
H -8.77007 9.45298 5.70531
H -10.4562 12.8259 -0.542129
H -3.44133 6.97297 9.82677
H -7.66957 7.6363 11.3661
H -5.01335 7.59099 11.4877
H -6.83668 14.7667 -0.102774
H -4.39706 14.07 -0.35739
H 51.6742 7.12643 -3.83421
H -71.2964 -7.39628 9.46204
H 57.1022 -6.01645 5.27825
H 58.3857 -4.65668 -2.88088
H 59.7501 2.35692 -2.44626
H 55.7906 -0.686847 -2.79419
H -61.8829 7.57425 5.3823
H 47.7843 -3.56008 3.82675
H 25.5826 11.6281 2.35123
H 25.5939 11.1234 4.49676
H 25.5707 10.9499 6.47579
H 25.8222 9.66261 9.9635
H 25.7675 10.8994 8.7279
H 25.4067 12.0558 0.322699
H 25.0533 12.3089 -3.29266
H 25.3225 12.8384 -1.66422
H 26.2495 10.2396 -2.85408
H 26.4085 9.32513 -0.634719
H 26.8531 8.02857 8.48323
H 26.7279 8.13853 6.14809
H 26.4058 8.79627 1.60973
H 26.5529 8.2911 3.9388
H 23.0359 11.2154 4.96159
H 20.4443 11.3777 4.94475
H 20.2566 11.8973 2.90942
H 22.907 11.7802 2.68262
H 20.3293 10.9227 7.00608
H 22.9971 11.0375 6.6864
H 17.6273 11.2244 5.08069
H 17.4945 11.7206 2.97823
H 23.0531 10.8814 8.94043
H 20.4773 10.6327 9.25662
H 22.8639 12.3802 0.634937
H 20.0993 12.5601 0.87433
H 22.6582 13.1194 -1.69989
H 19.9401 13.1663 -1.23529
H 17.2475 12.2976 0.93093
H 17.3248 12.1415 -2.84211
H 17.1974 12.8669 -1.22979
H 17.8405 10.7279 7.17105
H 18.0936 8.84269 10.4008
H 17.8175 10.2989 9.44148
H 21.4065 9.17872 2.12613
H 23.6966 9.68645 -0.451139
H 21.4389 8.63852 4.15022
H 19.3041 8.06867 6.52791
H 21.2306 9.91611 0.0327788
H 24.1012 8.50083 3.91235
H 24.1861 8.23839 6.40472
H 16.7597 7.46537 8.87611
H 21.9351 7.997 8.66784
H 21.1774 10.4919 -2.03001
H 18.7882 10.4178 -1.9407
H 16.4251 9.40404 0.262657
H 16.741 8.35169 4.51688
H 16.6526 8.85692 2.28326
H 18.9305 9.15811 2.32378
H 23.7734 10.3056 -2.40873
H 16.766 7.9201 6.64741
H 21.6609 8.24109 6.5091
H 18.8624 9.83461 0.153122
H 23.8805 9.04336 1.88009
H 19.4666 7.74385 8.60956
H 19.1202 8.68678 4.24853
H 16.3 9.98289 -1.91915
H 24.3536 8.10295 8.6112
H 20.5261 9.20009 10.2592
H 23.1896 9.53494 10.1292
H 19.8931 12.4607 -2.81753
H 22.3952 12.1545 -3.19291
H 55.4804 -0.935054 6.65071
H 4.65003 -40.8658 5.72892
H 49.2548 -8.08654 1.57451
H 52.2397 3.42106 1.84301
H 54.3753 -1.89204 5.33046
H 53.6664 -4.96514 0.0661082
H 55.3659 6.2191 -0.212269
H 45.978 12.9372 1.86636
H -55.9395 9.58848 4.54713
H -57.7024 9.07581 9.13533
H 53.7078 4.00574 9.78187
H 51.2439 5.44087 4.34459
H 57.4627 -5.93449 0.399479
H -60.7548 -2.9143 6.02693
H 55.7088 6.11181 6.00075
H -49.6779 4.03318 0.0411892
H -61.3577 9.77436 11.1584
H 58.1263 -4.48511 -0.675041
H 55.5779 5.98514 3.80196
H 50.4647 -7.52136 4.99593
H 56.8981 -2.56607 -0.646858
H 56.0051 -3.90185 0.519008
H -64.1897 0.807052 6.26995
H -58.9219 10.3725 10.9718
H 63.5622 -5.13096 1.68154
H 55.5831 -3.82068 5.20026
H -63.9426 -6.77067 1.33252
H 6.71293 7.28917 7.31008
H -64.969 -8.66179 2.58667
H -31.0715 10.9718 2.60152
H -62.0047 9.17651 -2.35319
H 63.4971 -4.99168 3.76082
H -71.1991 2.11862 1.56447
H 52.5515 3.28836 -2.63845
H 62.4273 -2.23488 -0.252731
H 58.0491 4.41853 -2.68168
H 59.8888 -7.39858 1.76652
H -70.7276 1.78955 3.23512
H -59.9816 10.8379 -2.48836
H 59.3871 1.91308 5.75369
H 62.7024 -2.09081 -2.57495
H 59.921 -7.50102 4.05272
H -70.8416 1.91171 7.3846
H 55.4228 5.58562 9.63447
H 52.6088 3.57496 8.45612
H -68.051 -2.86651 7.51995
H -15.4803 -31.9269 1.56544
H -19.0777 -29.6795 1.72227
H -22.9014 -31.3822 1.97937
H -21.5705 -29.4657 1.85767
H -16.5365 -29.8227 1.49679
H -17.9405 -31.8505 1.70874
H -20.4825 -31.6559 1.85203
H -23.3913 -39.9489 2.80333
H -15.6458 -40.1914 2.59924
H -18.282 -40.2182 2.72843
H -20.8445 -40.0873 2.68497
H -15.3981 -34.2104 1.46531
H -17.708 -34.2153 1.649
H -15.2723 -31.4925 6.42226
H -20.2231 -31.4895 6.64432
H -21.2599 -29.0851 6.55099
H -22.6408 -31.193 6.7732
H -16.1535 -29.3377 6.21001
H -18.7684 -29.2988 6.42778
H -17.6823 -31.5976 6.49221
H -20.6347 -39.9497 4.92437
H -23.2565 -39.8077 4.99697
H -18.0712 -39.9956 4.91195
H -15.6101 -40.0909 4.82085
H -20.1774 -34.1271 6.36999
H -22.5672 -33.7668 6.43819
H -15.1824 -34.1568 6.35724
H -17.8494 -34.0489 6.31883
H -20.8363 -40.3215 0.635071
H -23.4385 -40.0908 0.666928
H -18.2229 -40.4365 0.572328
H -15.5887 -40.4043 0.600098
H -18.4306 -35.658 0.267545
H -16.0538 -35.601 0.148692
H -22.9269 -35.2318 0.333081
H -23.2607 -33.8331 1.72261
H -20.6015 -35.4287 0.353116
H -20.8912 -33.9222 1.70814
H -26.2562 -39.3539 2.83482
H -26.146 -39.3945 4.84695
H -25.9801 -35.0562 2.8273
H -25.9912 -35.0929 5.26977
H -15.5205 -40.8048 -1.71028
H -23.5976 -40.4226 -1.76721
H -18.2347 -40.7563 -1.88382
H -20.9335 -40.61 -1.89768
H -15.7578 -35.7499 -2.09888
H -20.6464 -35.6818 -1.86874
H -23.0461 -35.4801 -1.91912
H -18.1661 -35.7663 -2.00459
H -23.1561 -40.1675 6.69486
H -15.4782 -40.5055 6.47709
H -18.0891 -40.4981 6.56955
H -20.5854 -40.3729 6.6048
H -22.7805 -35.3288 7.59303
H -15.4503 -35.6908 7.49005
H -17.9017 -35.6954 7.5351
H -20.2863 -35.5956 7.58551
H -15.4252 -41.1282 8.76814
H -20.6157 -40.9819 8.99329
H -23.2992 -40.8316 9.06571
H -18.088 -41.1002 9.09147
H -15.354 -36.2179 9.70604
H -22.7063 -35.8544 9.80117
H -17.9365 -36.1304 9.59856
H -20.3097 -36.1507 9.89974
H -26.2397 -39.5525 7.03129
H -25.7888 -35.3153 7.55561
H -25.8035 -39.2883 10.5742
H -26.3449 -39.9527 9.0735
H -25.5699 -35.6679 9.6999
H -25.3764 -36.9262 10.9457
H -25.97 -35.1796 0.498261
H -26.4273 -39.417 0.689853
H -25.756 -36.5438 -3.03698
H -25.9717 -35.3982 -1.70039
H -26.2143 -38.8174 -3.00254
H -26.6042 -39.6821 -1.52429
H -23.4839 -29.2462 5.43979
H -23.9008 -34.1379 3.27372
H -23.8721 -31.8329 3.34424
H -23.7841 -31.6953 5.53826
H -23.6553 -29.4036 3.24732
H -23.9035 -33.958 5.3801
H -14.5198 -34.4073 2.93422
H -14.1519 -29.8771 4.88901
H -14.3313 -32.2918 5.22242
H -14.3687 -34.3505 4.87996
H -14.3643 -30.0232 2.63021
H -14.4105 -32.368 2.8606
H -17.7729 -27.6579 1.36167
H -20.1862 -27.5787 1.52724
H -19.8335 -26.9595 6.35058
H -17.3152 -27.2532 6.16329
H -22.257 -27.3107 2.95245
H -22.0534 -27.0745 5.16231
H -15.5335 -27.7381 2.49069
H -15.311 -27.5487 4.70053
H -19.908 -26.0129 4.95387
H -17.3309 -26.2097 4.80487
H -20.0219 -26.305 2.68526
H -17.6201 -26.4292 2.58342
H -12.7569 -39.8758 4.48952
H -12.5205 -39.7924 2.47052
H -12.4936 -35.5803 4.99933
H -12.6667 -35.5354 2.58129
H -12.8269 -35.532 0.386184
H -12.8354 -39.0554 -3.16648
H -12.2763 -39.8869 -1.74459
H -13.0406 -35.6523 -1.83487
H -13.1894 -36.744 -3.21803
H -12.5304 -35.8887 7.19377
H -12.4634 -40.1115 6.52022
H -12.8948 -37.4845 10.6048
H -12.5783 -36.3193 9.29725
H -12.715 -39.9256 10.1791
H -12.2596 -40.6279 8.61453
H -20.6837 -36.949 -3.03081
H -15.5812 -39.7353 -3.04204
H -20.8654 -39.315 -3.07398
H -23.4755 -39.2541 -3.0578
H -18.2729 -39.5338 -3.11636
H -15.7505 -37.1949 -3.12348
H -23.1875 -36.8384 -3.03736
H -18.2053 -37.1011 -3.09747
H -15.2959 -37.7084 10.5909
H -20.3558 -37.6498 10.7692
H -17.8969 -37.4984 10.655
H -15.3556 -40.2354 10.2725
H -20.5663 -40.0326 10.4771
H -23.1704 -39.8832 10.483
H -17.9973 -39.9979 10.4693
H -28.8514 -38.8107 4.86031
H -28.9831 -38.8092 2.63624
H -29.2071 -38.8915 0.516138
H -29.7854 -37.7389 -3.01397
H -29.6286 -38.8753 -1.69248
H -28.8952 -38.8678 6.90516
H -28.9881 -37.8605 10.6097
H -28.791 -39.0207 9.2879
H -27.8514 -36.1228 9.38839
H -28.1112 -35.9244 7.08332
H -28.3478 -36.137 -2.03487
H -28.385 -35.9258 0.18991
H -28.1887 -35.8035 4.85632
H -28.2926 -35.8454 2.49336
H -31.835 -39.095 2.70159
H -34.608 -38.8823 2.78831
H -34.3786 -39.075 4.97749
H -31.6801 -39.199 4.91299
H -34.7397 -38.5457 0.592676
H -32.0828 -38.8864 0.520548
H -37.2855 -38.3462 2.94888
H -37.1668 -38.7846 5.1833
H -32.3011 -38.5607 -1.80005
H -34.8607 -38.1681 -1.61257
H -31.4804 -39.2468 7.15514
H -34.1996 -39.3073 7.09498
H -31.3574 -39.3526 9.42384
H -33.9878 -39.5594 9.3537
H -36.8084 -39.157 7.19954
H -36.5443 -38.9612 10.8252
H -36.6767 -39.7193 9.28239
H -37.3559 -38.0451 0.772515
H -37.2211 -36.3351 -2.61784
H -37.4467 -37.7127 -1.55163
H -32.9862 -36.3507 5.09006
H -30.5969 -36.314 7.18279
H -32.9808 -36.2343 3.05473
H -35.5267 -35.6486 1.09603
H -32.9604 -36.5203 7.30468
H -30.6831 -36.2514 2.83666
H -30.6321 -36.1907 0.665165
H -38.1847 -34.8205 -0.999378
H -33.1584 -35.6936 -1.22159
H -32.9067 -36.6966 9.42048
H -35.4729 -36.938 9.74033
H -37.8473 -36.3308 7.8819
H -38.039 -35.3793 3.61737
H -37.8389 -35.8611 5.70007
H -35.4666 -36.2326 5.293
H -30.4061 -36.447 9.22408
H -37.9911 -35.0753 1.26531
H -33.1117 -35.9853 0.920176
H -35.3745 -36.4566 7.61597
H -30.5839 -36.3132 4.74483
H -35.6792 -35.2891 -1.0251
H -35.4215 -35.9645 3.24247
H -37.8925 -37.0779 10.207
H -30.644 -36.0023 -1.42104
H -34.7442 -36.7859 -2.68508
H -32.1931 -37.1932 -2.85865
H -33.951 -38.4276 10.7117
H -31.3786 -38.1072 10.6506
H 11.8714 -31.7592 0.595328
H 7.95526 -29.9861 0.496483
H 4.30377 -32.3068 0.53288
H 5.34864 -30.0715 0.529879
H 10.4317 -29.7283 0.498036
H 9.3931 -32.0323 0.647974
H 6.84754 -32.1649 0.610513
H 4.75918 -40.5652 1.6557
H 12.5266 -40.1593 2.03077
H 9.93783 -40.3142 2.04175
H 7.32529 -40.4485 1.82979
H 12.5509 -34.1735 1.18423
H 9.98714 -34.2359 1.13834
H 11.7433 -31.5731 5.49269
H 6.81817 -32.0245 5.4013
H 5.39582 -29.8597 5.24166
H 4.35803 -32.0234 5.4402
H 10.3923 -29.4195 5.25893
H 7.89624 -29.6648 5.19737
H 9.28736 -31.8054 5.43478
H -40.6023 10.5352 -0.146797
H 7.24424 -40.3656 4.07943
H 4.65787 -40.4748 3.91108
H 9.8103 -40.2283 4.15571
H 12.3855 -40.1496 4.16861
H 7.06144 -34.4887 5.71915
H 4.77271 -34.4771 5.70771
H 11.8785 -34.2765 6.04704
H 9.44757 -34.432 5.78078
H 4.73231 -40.6533 -0.311226
H 10.0806 -40.4334 -0.103585
H 12.6949 -40.1957 0.0184467
H 9.4862 -35.6505 -0.262716
H 11.8214 -35.4691 -0.0619154
H 4.99484 -35.8221 -0.333563
H 4.14854 -34.6373 1.00737
H 7.25626 -35.7329 -0.339967
H 6.64959 -34.4483 1.04933
H 1.66583 -40.2163 1.65059
H 1.69275 -40.2472 3.80641
H 1.70622 -35.9922 2.01013
H 1.52284 -36.0804 4.34045
H 12.8305 -40.2958 -2.49674
H 4.8323 -40.7783 -2.74203
H 10.1153 -40.6202 -2.45509
H 7.56937 -40.8552 -2.50558
H 12.2116 -35.3517 -2.23074
H 7.33982 -35.8428 -2.67797
H 4.89425 -35.7773 -2.46305
H 9.73345 -35.7696 -2.52201
H 12.3471 -40.6458 5.88225
H 9.76911 -40.7381 5.769
H 7.20715 -40.8447 5.78247
H 4.49389 -36.1041 6.87737
H 12.1523 -35.9145 7.15229
H 9.65946 -36.0098 7.05689
H 6.9482 -36.0792 6.91724
H 12.4204 -41.4387 8.2749
H 7.24434 -41.6368 8.05359
H 4.61856 -41.6863 8.06158
H 9.75593 -41.548 7.99805
H 11.9739 -36.5554 9.32016
H 4.568 -36.8122 9.12811
H 9.51053 -36.7404 9.24487
H 7.07562 -36.718 9.17308
H 1.74805 -40.5936 5.84254
H 1.66955 -36.463 6.56571
H 1.79644 -40.4749 9.47222
H 1.37252 -41.1725 7.92046
H 1.75186 -36.928 8.7299
H 2.02637 -38.2202 9.88575
H 1.93642 -35.8858 -0.264904
H 1.63534 -40.074 -0.466044
H 2.37327 -36.9002 -3.86471
H 2.06575 -35.9105 -2.47043
H 2.09607 -39.1638 -3.96125
H 1.63093 -40.1927 -2.59698
H 3.25678 -30.3215 4.01337
H 3.57552 -35.0103 2.55453
H 3.38263 -32.7634 1.94026
H 3.34251 -32.7024 4.26271
H 3.24162 -30.3419 1.7984
H 3.40196 -34.7728 4.67632
H 13.1139 -34.2497 2.73906
H 12.5453 -29.5678 4.07217
H 12.8231 -32.0597 4.28619
H 13.0018 -34.2531 4.80434
H 12.6176 -29.6991 1.7784
H 12.8437 -32.1261 1.96412
H 9.02763 -27.8797 0.244013
H 6.47003 -27.8225 0.301027
H 6.51445 -27.8178 5.2081
H 9.03543 -27.4808 5.09983
H 4.36996 -28.0608 1.6407
H 4.35537 -28.0275 3.91643
H 11.1347 -27.6081 1.58319
H 11.2005 -27.5862 3.8346
H 6.36317 -26.6261 3.94456
H 8.94984 -26.4231 3.68572
H 6.42518 -26.6857 1.63669
H 8.93932 -26.5801 1.39202
H 15.1873 -39.7482 4.13569
H 15.4043 -39.6225 2.03304
H 15.1813 -35.5344 4.80692
H 15.1446 -35.3848 2.48796
H 15.5141 -39.5752 0.0410117
H 15.1469 -35.2473 0.36788
H 15.2913 -38.3159 -3.52803
H 15.8079 -39.414 -2.22545
H 14.9229 -35.157 -1.71398
H 14.8841 -35.9561 -3.25453
H 14.9943 -35.9319 7.01398
H 15.3559 -40.0489 6.22685
H 14.5523 -37.8412 10.2732
H 14.8999 -36.4976 9.18891
H 14.9891 -40.0337 9.82421
H 15.4319 -40.7101 8.28858
H 7.3544 -37.2046 -3.74966
H 12.6819 -38.978 -3.67135
H 7.48415 -39.6943 -3.79571
H 4.96761 -39.5007 -3.97311
H 10.1036 -39.4711 -3.7921
H 12.4488 -36.5178 -3.46988
H 4.89678 -36.916 -3.75274
H 9.92426 -37.129 -3.62721
H 12.1134 -38.0753 10.1404
H 7.13022 -38.2397 10.0024
H 4.53494 -38.3246 9.95893
H 9.63538 -38.275 10.0512
H 12.2802 -40.4943 9.70951
H 7.11143 -40.7023 9.53954
H 4.51643 -40.7318 9.51842
H 9.72308 -40.7454 9.55039
H -1.44861 -39.6595 4.25132
H -1.55909 -39.4251 2.01341
H -1.70729 -39.2263 -0.131043
H -1.78849 -37.7256 -3.52032
H -1.74641 -39.0099 -2.3319
H -1.40873 -39.9273 6.26187
H -1.70116 -39.6034 9.90855
H -1.57299 -40.4568 8.40315
H -0.403996 -37.8018 9.13572
H -0.537334 -37.1361 6.9285
H -0.266676 -36.2978 -2.20695
H -0.386095 -36.4676 0.0874047
H -0.475466 -36.756 4.577
H -0.417399 -36.5159 2.29883
H -4.17393 -39.5 1.92841
H -6.92821 -39.4959 1.89587
H -6.88461 -39.7887 4.06713
H -4.12109 -39.882 4.07004
H -6.82317 -39.0555 -0.220606
H -4.27722 -39.1182 -0.156089
H -9.71649 -39.1206 2.0197
H -9.57939 -39.346 4.20463
H -4.42834 -38.7844 -2.29531
H -6.7661 -38.5565 -2.4915
H -4.19469 -40.2149 6.23362
H -6.9645 -40.0145 6.28502
H -4.25455 -40.4452 8.60014
H -6.92068 -40.2553 8.47562
H -9.56953 -39.6005 6.337
H -9.31939 -38.7109 10.0193
H -9.5212 -39.9051 8.69846
H -9.50045 -38.9528 -0.0924029
H -9.15754 -37.5169 -3.51473
H -9.26958 -38.8127 -2.3085
H -5.3562 -37.1604 4.47897
H -3.04329 -37.3883 6.61044
H -5.49902 -36.8003 2.4848
H -8.05548 -36.2837 0.276324
H -5.37024 -37.4008 6.61611
H -2.95186 -36.7588 2.39219
H -2.88149 -36.3956 0.187251
H -10.7162 -36.1559 -2.40168
H -5.40756 -35.9162 -1.78816
H -5.43598 -37.6356 8.69582
H -7.79416 -37.3438 8.76374
H -10.3162 -36.6712 6.65624
H -10.4339 -36.1359 2.18898
H -10.2627 -36.4065 4.54994
H -7.78339 -36.8656 4.4064
H -2.90357 -37.7391 8.8004
H -10.5173 -36.081 -0.0793827
H -5.48017 -36.3293 0.373603
H -7.83714 -37.1091 6.62642
H -3.0154 -37.0482 4.42527
H -8.15148 -35.9598 -1.84305
H -7.964 -36.6682 2.58777
H -10.3559 -36.9401 8.96627
H -2.78313 -36.179 -1.94131
H -6.81239 -37.0838 -3.391
H -4.31809 -37.4481 -3.41267
H -6.79596 -39.2707 9.91132
H -4.2652 -39.387 9.94145
H 26.4209 -39.3808 4.32168
H 26.5273 -38.9878 2.08339
H 26.2867 -38.5728 -0.0723202
H 26.3312 -36.618 -3.39717
H 26.2473 -38.0859 -2.43242
H 26.2646 -39.7851 6.30777
H 25.9723 -39.7775 10.0195
H 26.0476 -40.4917 8.44838
H 27.4331 -38.0093 9.48906
H 27.2929 -37.0676 7.19864
H 27.7436 -35.5597 -1.87551
H 27.5512 -35.8119 0.414055
H 27.4237 -36.4901 4.84503
H 27.3482 -36.1055 2.57284
H 23.6681 -39.1269 1.88528
H 21.1608 -39.0904 1.95298
H 21.0034 -39.5943 4.27681
H 23.7007 -39.6186 4.28162
H 21.2146 -38.6665 -0.103528
H 23.7445 -38.5472 -0.154932
H 18.3426 -38.8947 1.97226
H 18.245 -39.2752 4.26105
H 23.8206 -38.0237 -2.49815
H 21.3976 -38.4108 -2.28663
H 23.5363 -39.8811 6.50141
H 20.8182 -39.7335 6.46196
H 23.4047 -40.1489 8.62906
H 20.8765 -39.8464 8.74498
H 18.269 -39.3807 6.47261
H 18.4017 -38.3167 10.038
H 18.3118 -39.582 8.78172
H 18.4935 -38.6122 -0.159982
H 18.7456 -37.2152 -3.53694
H 18.5455 -38.4801 -2.38107
H 22.3292 -36.8364 4.4532
H 24.8196 -37.1775 6.94747
H 22.4118 -36.4134 2.59164
H 19.9487 -35.9291 0.180946
H 22.391 -37.1097 6.65644
H 24.8876 -36.4587 2.81913
H 25.0539 -35.7892 0.430207
H 17.4147 -35.7063 -2.3413
H 22.3367 -35.5054 -1.76363
H 22.4392 -37.2501 8.87464
H 19.8896 -36.979 8.79563
H 17.4108 -36.4198 6.58768
H 17.4598 -35.9944 2.23467
H 17.5422 -36.2584 4.36611
H 19.8992 -36.6978 4.26511
H 25.0753 -37.6601 9.07316
H 17.4133 -35.7482 0.093012
H 22.4075 -35.8873 0.347655
H 19.9848 -36.8456 6.6418
H 24.8607 -36.8332 4.60448
H 19.864 -35.7855 -2.00797
H 19.8936 -36.3372 2.52541
H 17.1443 -36.7891 8.89026
H 25.1213 -35.3217 -1.6075
H 21.356 -37.0893 -3.43335
H 23.9127 -36.4947 -3.30541
H 20.9385 -38.7884 10.0621
H 23.4433 -39.1787 10.0272
H 51.1053 -5.14635 0.183963
H 44.2788 10.261 3.37013
H 58.6478 -1.98333 9.75236
H -43.3198 12.412 10.7097
H 43.9514 9.96891 8.24561
H -68.4854 3.34829 11.1085
H 54.394 1.27095 8.96654
H 62.1888 -2.34375 1.58119
H -73.6026 -2.25655 -2.42948
H 53.8288 -5.19782 4.83233
H -50.6782 9.60143 10.4818
H 59.8558 2.20075 8.09852
H 61.2873 0.0939456 -2.62087
H 49.8229 7.12424 1.9946
H 50.8661 -1.00492 0.233181
H 54.9885 -6.95704 -0.215845
H 52.4806 -7.20898 0.0262287
H 57.8396 4.17657 -0.096482
H 10.7773 1.7218 4.71152
H 60.7332 -0.259254 1.81656
H 51.5514 -9.09561 1.28034
H 49.7271 -3.10912 0.235611
H -44.7523 3.3583 4.90767
H 59.471 2.05501 -0.0695567
H 12.0409 6.35254 5.21219
H -30.7063 11.705 -1.808
H 4.95839 2.09928 1.14792
H 52.6853 0.76046 0.710249
H -43.2608 7.96426 5.37901
H 45.5155 9.90243 -2.31279
H 54.0825 -1.30015 0.67286
H 52.3179 8.19132 9.67504
H 32.6317 4.50859 0.616621
H 36.7035 2.93252 0.520796
H 40.1721 5.65922 0.453707
H 39.2469 3.29962 0.411857
H 34.2733 2.58875 0.510632
H 35.1218 4.92811 0.638105
H 37.5995 5.35404 0.560685
H 38.8359 13.7548 2.41589
H 31.4292 12.7828 2.34228
H 33.9023 13.049 2.29139
H 36.3291 13.3796 2.33162
H 31.9886 6.92062 0.490418
H 34.7279 7.28096 0.435048
H 32.9615 4.22696 5.51906
H 37.7941 4.93489 5.36192
H 39.4344 3.02152 5.09739
H 40.4112 5.21246 5.35711
H 34.3492 2.42765 5.32215
H 36.8787 2.71749 5.21391
H 35.2878 4.61624 5.35951
H 36.3488 13.414 4.59872
H 38.815 13.7854 4.7026
H 33.8519 13.0349 4.51637
H 31.3573 12.6931 4.46845
H 37.7475 7.45991 5.15324
H 40.0055 7.79326 5.20101
H 32.6343 6.74214 5.22524
H 35.1078 7.2071 5.21842
H 36.3579 13.9327 0.685155
H 38.9129 14.2468 0.457625
H 33.8261 13.6136 0.718897
H 31.4321 13.3293 0.714835
H 34.3763 8.95734 -0.716365
H 31.885 8.58473 -0.801721
H 39.0711 9.60562 -0.660447
H 39.7394 7.98933 0.260875
H 36.7301 9.24021 -0.721728
H 37.2829 7.64972 0.387587
H 41.9811 13.8711 2.28258
H 41.9813 13.7304 4.42104
H 42.4284 9.59976 1.75017
H 42.3784 9.45695 4.09895
H 31.1597 14.3084 -1.57681
H 39.0042 15.0066 -1.62042
H 33.7718 14.5571 -1.73873
H 36.2625 14.884 -1.74979
H 8.75957 12.486 3.28048
H 54.2991 1.25133 -2.82589
H 31.6935 9.48088 -2.93848
H 36.8083 9.98973 -2.82076
H 39.3079 10.1747 -2.87034
H 34.2742 9.80467 -3.04894
H 38.8814 13.7863 6.57098
H 31.2315 12.737 6.50876
H 33.781 13.0732 6.50861
H 36.3877 13.483 6.55832
H 39.0168 8.90998 6.55356
H 31.781 7.94104 6.57306
H 34.0507 8.28618 6.48783
H 36.5074 8.59677 6.42109
H 57.7671 3.92637 1.98312
H 59.263 1.84311 1.95168
H 31.1093 12.7916 8.93032
H 36.2406 13.4984 9.01667
H 38.8728 13.744 9.04023
H 33.7561 13.184 8.81037
H 32.025 7.93277 8.88844
H 39.4161 8.82328 8.68217
H 34.3901 8.26136 8.74807
H 36.8399 8.52271 8.77808
H 42.0155 13.5938 6.57484
H 42.1059 9.2659 6.23531
H 41.7925 12.5086 10.0754
H 42.2185 13.4977 8.72145
H 42.0989 9.07975 8.39867
H 41.8037 9.94521 9.98266
H 42.1433 9.94532 -0.495529
H 41.9855 14.1685 0.321165
H 41.7306 11.6977 -3.67288
H 42.037 10.4532 -2.50331
H 41.8254 13.8094 -3.37732
H 42.2829 14.5942 -1.8999
H 41.4935 3.60557 3.83244
H 40.66 8.26538 1.64395
H 41.0888 6.09679 1.83301
H 41.1378 6.00625 4.08649
H 41.3577 3.69092 1.53534
H 40.6384 8.24749 3.66483
H 31.1687 6.84845 1.93532
H 32.0774 2.41455 4.04278
H 31.7528 4.63174 4.29977
H 31.2855 6.66171 4.04765
H 32.081 2.49874 1.85562
H 63.7298 -5.06061 5.85169
H 31.5932 4.76261 2.06355
H 35.7074 0.60728 0.484403
H 38.2013 0.99528 0.305145
H 38.4757 0.797014 5.16848
H 35.9741 0.573623 5.23955
H 40.3669 1.32454 1.5122
H 40.5599 1.32596 3.77322
H 33.7308 0.486431 1.74463
H 33.765 0.347198 4.01912
H 38.6746 -0.290529 3.78499
H 36.051 -0.596113 3.97523
H 38.4158 -0.156781 1.60398
H 35.9671 -0.508317 1.81088
H 28.4334 12.0652 4.47318
H 28.6218 12.2457 2.50868
H 29.0531 7.71677 4.04314
H 28.7959 8.04763 1.61114
H 28.3995 12.7128 0.560615
H 28.7075 8.54118 -0.547648
H 28.5831 12.9411 -3.1273
H 28.1499 13.513 -1.55449
H 28.824 9.29466 -2.47933
H 28.9838 10.6564 -3.68379
H 29.0736 7.53764 6.28777
H 28.2331 11.7951 6.65577
H 29.3739 8.52929 10.0637
H 29.1575 7.55228 8.57277
H 28.7523 10.9406 10.184
H 28.1972 11.9321 8.79888
H -50.4765 8.81825 6.84127
H -51.3053 7.73513 5.36008
H -48.2796 8.97281 6.77963
H -75.4783 -4.83337 -1.06831
H -48.8444 7.8575 5.29246
H 60.1952 -7.13454 8.43267
H -54.2382 13.2105 5.50744
H -60.3861 -7.36831 2.03481
H -54.2443 13.6714 3.52449
H 59.7408 -7.23751 -0.518755
H -53.842 8.98568 4.54738
H 61.0601 -6.26375 9.72504
H -54.0367 9.52917 2.24663
H 63.5839 -5.23631 -0.554134
H 60.5934 -6.17724 -4.09533
H 59.7507 -6.95365 -2.75948
H 55.2139 5.66269 -3.81415
H 63.7936 -5.33303 -2.78481
H -43.2747 13.8204 9.72759
H -51.3109 13.4484 9.89132
H 58.2316 -4.99029 6.50807
H -45.9188 13.9302 9.53698
H -48.5663 13.7448 9.69539
H 55.1561 -7.38469 4.6889
H 52.3058 -2.97798 0.211395
H 52.3579 3.51667 6.33762
H -64.0206 1.67458 4.8366
H 53.0702 -0.0704876 5.42498
H 60.6028 -0.452796 9.51679
H 57.9337 -6.48384 1.91129
H -43.4799 8.88461 8.94178
H 56.0006 -7.62324 1.03411
H -48.221 8.87149 9.10052
H 56.1183 -7.71933 3.21068
H -50.5747 8.54707 9.092
H 53.9588 -8.84481 1.00288
H -45.8532 8.92037 9.12656
H 57.8995 -6.57726 3.91966
H 52.6335 1.37266 2.32655
H 52.3168 -3.07804 5.00294
H 48.8485 -1.29181 3.78303
H 50.7034 0.0804211 3.91003
H 8.7501 13.2083 1.66086
H -35.176 11.5318 10.3063
H 52.3529 1.21959 4.38271
H 48.7979 -1.21157 1.56476
H -51.3156 14.852 1.69212
H 55.407 6.11349 1.82107
H -43.5174 14.9956 1.21925
H -46.0327 15.0456 1.41575
H -48.7193 15.0035 1.44422
H 62.3468 -2.34918 5.71901
H -50.9359 10.449 -0.234041
H -43.497 10.3439 -0.391939
H -46.2163 10.4324 -0.289515
H -48.6259 10.4271 -0.324954
H 52.4439 3.27149 -0.442879
H 50.7035 0.112869 1.55023
H 50.9265 -1.05978 5.16675
H 57.2068 -2.66288 -2.81594
H -43.5119 15.9709 -0.913477
H -48.8018 15.9574 -0.765994
H -51.5406 15.9159 -0.715451
H -46.1876 15.9915 -0.830146
H -63.7815 5.72688 -0.948813
H 53.9375 1.28986 6.59843
H -43.7562 11.2278 -2.51624
H 57.8961 3.86456 5.84987
H -51.2353 11.2058 -2.29105
H -46.2147 11.2233 -2.26607
H -48.7301 11.3057 -2.39965
H 47.9245 -6.02057 3.79496
H 49.9334 -3.21234 4.99669
H -54.4229 14.3751 1.45289
H -54.0037 10.1975 0.0987579
H -54.2737 14.7429 -2.11402
H -46.1547 14.3527 2.99199
H -54.0485 11.1166 -2.07371
H 52.8223 -7.47231 4.69139
H -53.8133 12.6704 -2.87126
H 60.9055 -0.162422 5.73176
H -53.5239 8.55113 6.81748
H -54.1844 12.8695 7.5617
H -52.9983 9.00173 10.4951
H -53.1912 8.23066 8.97906
H 52.2101 3.35306 4.09404
H -53.725 11.4793 10.9793
H -54.2651 12.4746 9.62942
H -51.8531 3.98349 1.13788
H 12.2559 2.55453 1.0302
H 51.4049 -5.2887 4.93786
H -51.9646 8.31234 3.89431
H -52.0955 5.99725 3.95409
H -52.0129 6.37152 1.82316
H -52.0543 3.60332 3.38343
H -51.9793 8.44049 1.84152
H -42.5113 8.34873 3.90545
H -42.6186 4.14017 1.5309
H -42.5506 6.46478 1.89986
H -42.5744 8.60953 1.90494
H 62.6886 -5.29646 -4.13346
H -42.6139 3.78224 3.68089
H -42.6351 6.19651 4.08236
H 49.7195 8.66698 -3.8065
H -46.0852 1.30387 4.62841
H -48.6659 1.28841 4.51558
H 48.7249 -5.34104 0.221647
H 50.0367 -7.49306 0.109851
H -48.4254 1.93646 -0.322641
H -45.905 1.90412 -0.125727
H 59.9684 -7.32171 6.28118
H -50.703 1.51924 3.0794
H -50.5729 1.93193 0.832306
H 48.586 11.8599 1.71512
H 50.9469 9.92514 1.78896
H -43.9318 1.55136 3.45628
H -43.8175 1.98626 1.20116
H 51.0742 10.2128 4.04057
H 48.6755 11.9441 4.02444
H -48.508 0.638082 0.846005
H -45.9107 0.624188 1.03204
H 50.8799 9.94115 -0.461397
H 48.628 11.6417 -0.437406
H 52.7544 7.88599 1.89162
H -48.5645 0.341535 3.08143
H 52.9443 8.03418 4.0189
H -46.0432 0.351591 3.18318
H 55.4508 6.51532 -2.35507
H 48.3478 11.2451 -3.05238
H 50.5518 9.60909 -2.66745
H 48.4139 11.897 6.17077
H 51.0634 10.1994 6.22519
H -40.7012 14.141 3.01574
H 48.8466 -5.40982 5.11937
H 48.4963 11.5818 8.40072
H 50.7423 10.1262 8.53643
H -40.5296 13.8491 5.08063
H 52.9625 8.35088 6.18196
H 51.6124 6.61848 9.69961
H 52.7411 7.87623 -0.291874
H -40.4768 9.97653 2.01822
H 52.5662 7.95421 -2.51919
H 51.5835 -9.19119 3.53708
H 45.8789 12.7872 3.97521
H -40.4888 9.5937 4.26661
H 46.2007 12.9601 -0.331136
H 44.899 11.1816 -3.75655
H 46.0944 12.3998 -3.43889
H 45.68 12.6565 6.26993
H 45.3746 11.3588 9.62508
H 45.5518 12.553 8.43442
H 47.6969 -3.58036 1.58318
H 48.3775 8.90361 3.71971
H 46.286 9.76545 6.01164
H 48.1967 8.83444 2.04753
H 49.7927 7.01289 -0.233335
H 44.1677 10.0817 5.91304
H 48.2925 8.88667 5.99462
H 44.6035 13.6117 -2.17122
H 46.2551 9.93367 1.88254
H 46.1039 9.89668 -0.332874
H 51.4534 5.09166 -2.33086
H 47.8727 8.34314 -2.20092
H 48.1861 8.59775 8.1604
H 49.9661 7.14499 8.12427
H 51.6628 5.67904 6.80869
H 49.3765 -8.09605 3.78924
H 51.2343 5.28299 2.11744
H -40.3223 13.5183 7.23953
H 50.0343 7.35893 3.85481
H 46.2204 9.66696 8.11042
H 44.0074 10.9553 -0.642189
H 51.2394 5.24376 -0.228409
H 48.0606 8.61188 -0.260447
H 50.08 7.34459 6.45025
H 46.4161 9.88315 3.87386
H 49.7694 6.74843 -2.20167
H -40.6959 9.13035 6.53239
H 47.8768 -5.9889 1.60003
H 53.8505 7.58406 8.18856
H 44.2278 10.4845 1.52332
H -12.4491 -39.8389 0.401004
H -40.6591 12.1323 10.7004
H -40.0943 13.2713 9.39216
H -40.5927 8.96602 8.68746
H -41.0338 9.59952 10.2592
H -22.8651 -37.2672 10.8204
H 47.426 9.96937 -3.78676
H 49.8982 9.15791 9.76224
H 47.9126 10.5652 9.68193
H 36.5372 11.4858 -3.70413
H 58.3135 -1.8105 -3.89137
H 59.5282 -3.94607 -3.95118
H 56.8358 0.207701 -3.8646
H 31.4544 13.4243 -3.03193
H 36.369 13.9828 -3.20552
H 38.9785 14.1835 -3.12551
H 33.9194 13.5524 -3.19969
H 57.0801 3.61673 -3.86618
H 60.2626 -0.523709 -3.8744
H 61.7232 -2.59813 -3.91851
H 58.968 1.72455 -3.8391
H 31.4867 11.0321 -3.62672
H 39.1625 11.6419 -3.70581
H 34.0894 11.3978 -3.64152
H 31.7573 9.21223 9.96396
H 36.6337 9.75099 9.949
H 39.2385 9.99234 9.94615
H 34.2293 9.47526 9.93583
H -40.4881 14.6674 0.990634
H 57.4891 3.77551 9.55967
H 55.853 6.43434 8.23559
H 31.3308 11.5581 10.1138
H 58.9925 1.62312 9.58568
H 55.606 2.19324 9.81139
H 59.9601 -4.01996 9.67751
H 36.4159 12.2212 10.1835
H 57.1399 0.0895883 9.83525
H 39.0277 12.4589 10.1919
H 33.8508 12.0705 10.1105
H -41.1355 12.7117 -3.29641
H -40.8244 11.3091 -2.27245
H -40.8717 14.882 -2.72958
H -40.5078 15.3824 -1.05475
H 57.3863 -2.7109 8.84621
H 54.0844 -9.03884 3.22627
H 55.9201 -0.673377 8.85668
H 9.17145 12.3041 7.44151
H -61.6028 7.51359 9.87683
H -48.2199 10.013 10.3945
H -48.3928 12.4279 10.8384
H -51.0346 12.1055 10.9586
H -45.9003 12.6324 10.7337
H -43.3887 10.0193 10.2664
H 55.351 2.14284 -3.88571
H 7.50456 -40.5762 -0.148686
H -48.5708 13.8405 7.29473
H -45.8745 10.1331 10.3671
H -43.6551 12.8086 -3.1798
H -48.8585 12.9211 -3.01118
H 60.9736 -0.0602992 -0.154618
H -51.4157 12.8574 -2.90089
H -46.2484 12.7793 -3.01378
H -51.2401 13.5815 7.53286
H -43.6403 15.2593 -2.51905
H -48.8498 15.2039 -2.34308
H 61.9447 -2.6863 9.48499
H -51.4998 15.0718 -2.23994
H -46.2455 15.181 -2.4072
H -45.9388 13.9308 7.22425
H -61.5693 -6.7003 0.930042
H -60.0192 11.9318 5.48611
H -43.4066 13.9368 7.24427
H 64.1152 -5.10848 8.07564
H -62.9177 10.4767 3.26626
H -46.0492 9.04864 6.82526
H 63.1891 -5.19445 9.564
H -60.307 12.1577 3.16821
H -43.7997 9.20213 6.81756
H -62.3354 10.5149 7.77072
H 58.6945 -4.81684 8.78368
H -64.8323 8.44429 3.49498
H 53.5937 3.81273 -3.95692
H -59.2941 11.5669 9.73649
H -62.0265 10.5728 9.84233
H -62.0159 -0.812498 6.4337
H -62.0861 -4.97085 6.04201
H -65.8076 -7.03253 6.3547
H -63.355 -7.17404 6.03776
H -63.336 -2.81982 6.37761
H -64.7164 -4.89358 6.37968
H -60.5285 12.0421 1.00898
H -62.8772 10.386 1.12931
H -73.3173 -2.49394 5.14138
H -69.4018 3.892 5.50596
H -70.7116 1.79178 5.51386
H -71.9842 -0.375811 5.27813
H -65.3194 -1.25804 6.14627
H -62.4713 -0.26776 1.65398
H -65.1231 -4.56985 1.60251
H -66.301 -6.84642 1.46883
H -61.324 -2.42914 1.36822
H -62.6459 -4.62196 1.3466
H -63.7689 -2.42105 1.58306
H -60.6126 11.9005 -1.25361
H -62.8088 10.2133 -1.22337
H -64.8022 8.57653 1.24211
H -72.0842 -0.296734 3.13359
H -73.4788 -2.39047 3.00045
H -69.4021 4.04145 3.1846
H -67.1306 -3.45166 1.5007
H -68.4609 -5.65792 1.29652
H -64.4604 1.03449 1.37256
H -65.8162 -1.282 1.40529
H -63.9427 7.66831 -2.29921
H -64.7528 8.50827 -1.01064
H -72.1972 -0.252822 7.24777
H -73.6162 -2.4035 7.17312
H -69.3809 4.06627 7.58929
H -66.8002 -0.969853 7.5596
H -65.5883 1.06576 7.59514
H -69.3268 -4.94431 7.52569
H -68.3395 -5.99425 6.1975
H -67.016 -3.92463 6.10531
H -74.7767 -5.08129 5.06693
H -74.7892 -4.93853 3.0614
H -64.5943 8.62131 7.92778
H -71.1165 -7.52295 5.00716
H -71.0752 -7.41434 2.69076
H -63.3352 7.86695 11.4082
H -69.5339 4.09244 9.94035
H -73.8106 -2.30635 9.59293
H -70.952 2.07756 9.78682
H -72.4477 -0.064726 9.59957
H -64.3169 8.80854 10.3774
H -65.4357 1.2795 9.78713
H -68.3178 -2.82634 9.75879
H -69.666 -4.90824 9.74471
H -66.7943 -0.716948 9.68821
H -73.8778 -2.32784 1.32995
H -69.7634 4.35075 1.51754
H -72.5877 -0.0401136 1.44227
H -69.6413 -4.57599 0.229537
H -66.1366 1.52203 0.348177
H -67.1997 -0.438732 0.308464
H -68.4376 -2.53604 0.339048
H -57.3325 12.8439 3.20024
H -70.266 4.79629 -0.769468
H -73.1867 0.383906 -0.877075
H -74.4206 -1.90106 -0.947524
H -71.8007 2.58209 -0.614807
H -57.0183 12.4206 5.22797
H -66.3598 1.87843 -1.87314
H -70.118 -4.13014 -1.93091
H -67.7053 -0.0188916 -1.83951
H -68.9264 -2.11914 -1.74436
H -75.0672 -5.04724 0.971402
H -71.1172 -6.99088 0.447553
H -74.6442 -4.7626 -2.63673
H -71.3294 -6.44124 -1.81687
H -72.3954 -5.70478 -2.99407
H -71.1425 -7.4222 7.2424
H -74.8945 -5.08746 7.21031
H -71.9971 -6.56852 10.8631
H -74.0841 -5.22597 10.7822
H -75.0934 -4.96918 9.37483
H -69.0506 -6.43948 4.7449
H -66.9379 -7.54651 5.09259
H -67.1579 -7.5123 2.90913
H -64.8175 -8.75426 4.84816
H -68.9513 -6.3012 2.75911
H -60.2507 -0.569943 2.68281
H -62.2123 0.666194 3.10515
H -64.0616 1.73287 2.79908
H -60.0329 -0.812006 4.90682
H -62.1225 0.451569 5.22704
H -56.5876 12.0961 7.28785
H -59.6549 -4.90506 5.79939
H -56.3392 10.506 10.6658
H -60.0956 -4.61108 1.00495
H -62.2184 -8.72412 4.47548
H -62.5144 -8.57555 2.25836
H -58.8238 -2.93208 4.50024
H -59.0242 -2.88859 2.29192
H -56.3895 11.7901 9.47433
H -59.1251 -5.35508 2.18552
H -60.1412 -7.5757 4.26868
H -58.8272 -5.40125 4.37719
H -67.5619 6.28264 3.43393
H -67.5097 6.29727 5.45805
H -63.9967 3.99738 2.82413
H -63.9155 3.86791 5.12548
H -58.054 13.1843 1.06461
H -67.3786 6.35278 7.6254
H -63.8603 3.84689 7.39198
H -66.7596 5.56076 11.0852
H -67.3606 6.4745 9.7472
H -63.9861 3.78448 9.55141
H -65.0437 4.05137 10.9954
H -57.2499 11.7444 -2.62455
H -64.2516 3.87572 0.620039
H -67.6552 6.59682 1.29087
H -58.3922 13.0367 -2.07595
H -65.9004 4.64785 -2.79686
H -64.7786 4.00234 -1.56653
H -67.5346 6.18093 -2.36543
H -67.9522 6.91828 -0.856788
H -69.3669 -2.09156 10.8678
H -66.4635 1.99813 10.9908
H -70.7492 -4.216 10.8538
H -67.8531 -0.100174 10.8774
H -71.5411 -0.703392 10.9455
H -72.8555 -2.96656 10.8773
H -70.0426 1.34007 11.0231
H -72.3848 -0.0603705 -2.32357
H -69.6076 4.23972 -2.29245
H -60.178 9.09448 3.42951
H -71.1917 2.23068 -2.16796
H -67.5456 2.78301 -2.69959
H -70.2121 -1.39267 -2.7249
H -71.408 -3.40313 -2.83738
H -69.0046 0.805821 -2.7092
H -56.8101 13.9802 -0.947742
H -58.1389 10.1193 0.90768
H -60.1098 8.80636 5.26248
H -43.5649 5.46116 5.31722
H -47.3691 3.28809 4.81157
H -51.0915 5.20295 5.14938
H -49.984 3.20354 4.67835
H -61.6319 7.51502 7.73233
H -46.0705 5.46705 5.32141
H -48.6755 5.36899 5.24417
H -55.8708 11.1314 0.177067
H -60.0917 9.05249 1.26535
H -55.4951 8.91458 9.11153
H -58.0861 9.60835 4.92235
H -51.2068 13.8844 5.47181
H -43.5038 14.1229 5.10051
H -46.0385 14.0812 5.18565
H -48.5549 13.996 5.18218
H -57.8308 9.34981 7.38253
H -45.6285 7.90568 5.27262
H -63.9261 5.91536 10.5029
H -59.8134 8.59414 9.53673
H -43.5092 6.25792 0.504613
H -48.5136 6.24747 0.491192
H -60.1458 8.85352 -0.983218
H -51.0845 6.16193 0.32304
H -44.7187 4.07481 0.237643
H -47.2235 4.09157 0.170762
H -46.0136 6.29489 0.550703
H -62.0058 7.28495 -0.773527
H -63.5538 5.78655 1.28495
H -63.3624 5.90429 5.78855
H -63.281 5.84807 3.52309
H -48.6579 14.3022 3.04373
H -51.2316 14.2008 3.21581
H -61.9399 7.59979 3.5405
H -43.5736 14.3296 2.92608
H -48.4566 8.69893 0.691177
H -50.8245 8.66914 0.55035
H -43.5191 8.68158 0.521964
H -45.9548 8.64944 0.634958
H -58.0428 10.3014 -1.30277
H -55.7235 9.22023 6.75377
H -63.1528 5.91652 8.07888
H 55.6953 -19.4145 -1.97278
H 52.0768 -21.698 -2.57123
H 51.6389 -25.9243 -1.91569
H 50.6705 -23.8945 -2.50421
H 53.419 -19.5593 -2.56602
H 54.513 -21.6383 -1.91776
H 53.0737 -23.8228 -1.92481
H 58.1731 -29.9448 1.35911
H 62.2608 -23.3483 1.63428
H 60.9759 -25.5671 1.55225
H 59.696 -27.8269 1.33879
H 57.6979 -20.1855 -0.786874
H 56.3869 -22.3328 -0.878912
H 54.4406 -18.6181 2.69926
H 51.9723 -23.0174 2.6815
H 49.4796 -22.8951 1.95978
H 50.6879 -25.0606 2.8097
H 52.0028 -18.6786 1.82539
H 50.7653 -20.7775 1.89745
H 53.2743 -20.9286 2.67715
H 59.1288 -27.4576 3.55448
H 57.8366 -29.5608 3.60921
H 60.4102 -25.2955 3.61479
H 61.7318 -23.0059 3.74371
H 53.9346 -24.1747 3.67568
H 52.7465 -26.0442 3.65835
H 56.1906 -20.2349 3.88004
H 55.1044 -22.1334 3.67766
H 60.1404 -28.1487 -0.521333
H 58.5106 -30.3879 -0.592439
H 61.5442 -25.9437 -0.405306
H 62.849 -23.534 -0.438474
H 57.5145 -23.7072 -1.76264
H 58.605 -21.7084 -1.70137
H 55.0585 -27.2815 -1.78744
H 53.3733 -27.2588 -0.82263
H 56.4576 -25.4325 -1.87252
H 54.7295 -25.0963 -0.868195
H 56.1173 -32.2583 1.22947
H 55.9293 -31.9881 3.28394
H 52.7338 -29.7817 0.661299
H 52.3308 -29.5772 2.83395
H 63.5245 -23.8252 -2.6202
H 59.1146 -30.7687 -2.76805
H 62.2502 -26.3033 -2.63588
H 60.8166 -28.6139 -2.8034
H 59.2661 -21.745 -3.91989
H 56.8594 -25.8722 -3.96149
H 55.2562 -27.8176 -3.87439
H 58.1336 -23.8655 -3.98371
H 57.7758 -29.683 5.31265
H 61.6693 -23.0613 5.48487
H 60.477 -25.2744 5.32193
H 59.1823 -27.5545 5.27091
H 53.6592 -27.0008 5.21747
H 57.3985 -20.5704 5.37706
H 56.1526 -22.8024 5.25376
H 54.9553 -24.84 5.26907
H 61.7625 -23.0408 7.92135
H 59.2956 -27.578 7.67737
H 57.8139 -29.8162 7.8374
H 60.5451 -25.3207 7.73995
H 57.3551 -20.7635 7.60989
H 53.7133 -26.9745 7.50349
H 56.226 -22.9285 7.6112
H 55.0528 -24.985 7.54686
H 55.7923 -31.9505 5.47947
H 52.2199 -29.4033 5.10734
H 55.2039 -31.1562 9.00683
H 55.7237 -32.0937 7.60614
H 52.2114 -29.4166 7.4094
H 53.1683 -29.6136 8.84278
H -62.604 10.5682 5.60757
H 53.0841 -29.7084 -1.60124
H 56.1902 -32.4803 -0.885492
H 54.7551 -30.5769 -4.95128
H 53.6039 -29.928 -3.79958
H 56.2952 -32.1152 -4.56821
H 56.5766 -32.9518 -3.01749
H -59.8075 11.7035 7.64507
H -64.7042 8.58605 5.70079
H 48.9378 -25.0451 1.10392
H 52.9212 -27.6339 0.733569
H 51.2853 -26.739 -0.451423
H 50.8893 -26.2958 1.64844
H 49.3518 -25.516 -1.08777
H 52.3141 -27.388 2.65368
H 57.7912 -19.6407 0.8161
H 53.9651 -17.325 1.12042
H 55.7412 -18.3568 1.56837
H 57.172 -19.2685 2.82689
H 54.1391 -17.4705 -1.29687
H 56.2251 -18.5772 -0.580666
H 51.164 -19.7099 -3.36656
H 49.7642 -21.7716 -3.33708
H 48.5022 -20.9421 1.2968
H 49.7182 -18.7292 1.19934
H 48.322 -23.3815 -1.95754
H 47.8403 -23.013 0.182548
H 51.8669 -17.6071 -2.16815
H 51.3011 -17.2293 -0.114917
H 47.8858 -20.6937 -0.300754
H 49.189 -18.5041 -0.427727
H 48.4322 -20.9672 -2.49551
H 49.8196 -18.844 -2.67548
H 63.0077 -20.3186 3.5629
H 63.4557 -20.3676 1.56226
H 59.1364 -18.2848 3.00705
H 59.6277 -18.5223 0.721864
H 63.8441 -20.5664 -0.508109
H 59.9184 -18.94 -1.54151
H 63.7356 -21.0003 -4.18291
H 64.3945 -20.6709 -2.59009
H 60.2812 -19.3502 -3.69201
H 61.4071 -20.0738 -4.79651
H 58.9883 -18.2437 5.2795
H 62.7735 -20.2836 5.73519
H 59.3122 -19.0916 8.89662
H 58.7146 -18.3479 7.39805
H 61.5168 -19.9837 9.14693
H 62.7091 -19.9735 7.82005
H 58.2075 -26.7878 -4.68052
H 60.6676 -22.41 -4.68401
H 56.4217 -28.669 -4.83852
H 59.5275 -24.5855 -4.70419
H 62.7983 -23.4836 -4.15704
H 60.0419 -28.1129 -4.29383
H 58.5137 -30.255 -4.34659
H 61.6311 -25.8189 -4.19501
H 58.3094 -26.9851 8.9781
H 60.579 -22.4987 9.10854
H 56.7314 -29.0755 8.9841
H 59.4489 -24.778 8.96728
H 58.383 -21.3407 8.84298
H 56.0421 -25.6036 8.82968
H 54.6766 -27.6306 8.76937
H 57.3013 -23.5672 8.80822
H -65.7036 -19.0024 7.81808
H -62.1311 -21.1357 7.81533
H -62.0873 -25.2711 7.52229
H -60.8404 -23.3082 7.71447
H -63.3627 -18.8251 7.90231
H -64.6748 -21.0547 7.60182
H -63.372 -23.2636 7.49647
H -69.1852 -29.4713 4.92772
H -73.126 -22.9117 5.03039
H -71.7731 -25.155 5.06621
H -70.4764 -27.3063 4.97291
H -68.1848 -19.8475 7.10252
H -66.8798 -21.8589 6.85369
C -56.3827 -7.6732 3.44687
C -57.7521 -9.82011 3.43568
C -57.7165 -9.82872 4.97832
C -59.1709 -12.0121 3.40969
C -59.1328 -12.0158 4.98919
C -56.3529 -7.67774 4.98982
C -33.5028 -12.1739 2.8985
C -33.4757 -12.185 4.49026
C -34.7807 -11.4912 2.37473
C -33.4832 -13.6433 2.36065
C -34.7378 -11.5175 5.06015
C -33.4408 -13.6525 5.02251
C -34.7197 -14.3704 2.93558
C -34.6941 -14.3798 4.48555
C -31.0128 -12.1159 2.8658
C -30.9955 -12.1058 4.43631
C -32.2709 -11.4264 2.31396
C -30.9792 -13.5622 2.28858
C -32.2372 -11.4299 5.04072
C -30.9272 -13.5468 5.00571
C -32.1866 -14.3142 2.8901
C -32.1595 -14.3135 4.45273
C -39.605 -1.14223 3.02932
C -39.5729 -1.14799 4.63064
C -40.866 -0.363204 2.52704
C -39.7159 -2.58746 2.50076
C -40.7999 -0.347541 5.19521
C -39.6613 -2.58697 5.20649
C -42.1384 -1.04626 3.11996
C -42.1009 -1.02428 4.68246
C -38.327 -0.44777 2.42115
C -38.2666 -0.457246 5.1465
C -40.7394 1.09602 3.07497
C -40.6835 1.10187 4.65007
C -55.314 -1.00046 3.29544
C -55.2257 -0.953996 4.89462
C -52.7843 -0.993305 3.21964
C -52.703 -0.959139 4.76641
C -54.0608 -0.275695 2.68449
C -53.9251 -0.190321 5.32749
C -55.2784 -2.47122 2.77974
C -55.1616 -2.39415 5.49234
C -54.0882 1.19836 3.17014
C -54.0073 1.24304 4.71987
C -56.5944 -0.26692 2.77377
C -56.457 -0.174236 5.48989
C -60.5127 -11.3491 2.86786
C -60.4349 -11.3374 5.5704
C -61.7666 -12.0866 3.43402
C -61.7289 -12.0575 5.03676
C -61.686 -13.5184 5.5971
C -60.4451 -14.2048 3.45187
C -60.4164 -14.1937 5.00104
C -61.7313 -13.5547 2.924
C -63.1071 -11.4562 2.88435
C -63.0137 -11.4064 5.59718
C -62.9602 -14.3185 3.52309
C -62.9495 -14.2615 5.09107
C -55.3069 -24.767 2.69864
C -54.0308 -25.4976 3.25868
C -55.2974 -23.3044 3.2397
C -55.3254 -24.7178 5.35828
C -54.0434 -25.4734 4.86159
C -55.2888 -23.2902 4.79333
C -52.7933 -24.7354 2.67537
C -52.8048 -24.7282 5.3964
C -56.5576 -25.5183 3.2414
C -56.5709 -25.4666 4.80382
C -54.0507 -26.9687 2.74947
C -54.1301 -26.9185 5.49416
C -39.9015 -24.7691 2.50049
C -39.9399 -24.8163 5.16434
C -42.448 -24.7817 5.13093
C -41.1827 -25.5143 3.00326
C -39.9503 -23.3377 3.04401
C -39.9529 -23.3652 4.59441
C -41.2039 -25.531 4.59576
C -42.4211 -24.7672 2.43914
C -41.1927 -26.993 5.14091
C -38.6558 -25.5192 3.09714
C -38.6896 -25.5728 4.66142
C -41.1206 -26.9632 2.42008
C -47.5333 -11.3781 2.658
C -48.8097 -12.115 3.21
C -47.4891 -11.4158 5.323
C -48.7836 -12.1368 4.798
C -43.7183 -13.6244 2.56
C -42.4206 -14.3744 3.077
C -43.6974 -12.1623 3.115
C -44.9948 -14.3564 3.104
C -43.671 -13.6651 5.208
C -44.9666 -14.3812 4.689
C -53.859 -7.65496 3.37171
C -55.1428 -6.9359 2.88086
C -53.8963 -9.12712 2.85667
C -53.8367 -7.65912 4.92427
C -55.0884 -6.92638 5.48992
C -53.8534 -9.15056 5.41432
C -42.3924 -14.3992 4.625
C -42.3812 -15.8952 5.085
C -40.9885 -3.2985 3.11028
C -40.9615 -3.29795 4.68217
C -54.075 -22.5032 2.69861
C -52.7668 -23.2574 3.2071
C -54.083 -21.0068 3.22636
C -54.0515 -22.5006 5.32541
C -52.7533 -23.2616 4.78934
C -46.2754 -13.6043 2.596
C -45.0137 -15.8205 2.551
C -46.2292 -13.644 5.265
C -44.9664 -15.8622 5.197
C -55.1906 -9.87057 3.37569
C -55.1593 -9.88387 4.92214
C -50.0895 -11.3569 2.714
C -50.0576 -9.8867 3.27
C -51.3649 -12.0949 3.262
C -50.0472 -11.3937 5.364
C -51.3408 -12.1167 4.839
C -38.6784 -18.0759 2.41733
C -39.9208 -18.8394 2.99391
C -38.6465 -18.1238 5.05976
C -39.9069 -18.861 4.53789
C -48.7924 -13.6229 5.312
C -44.8409 -2.54288 5.31054
C -50.0345 -9.90756 4.848
C -51.2952 -9.15637 5.402
C -42.277 -2.5131 2.60403
C -41.0484 -4.78354 2.61435
C -42.2279 -2.49533 5.22609
C -41.0099 -4.78468 5.21654
C -56.468 -9.12046 2.89381
C -56.4113 -9.13712 5.49636
C -46.2871 -16.5544 3.096
C -46.259 -16.5802 4.678
C -55.1897 -11.3583 5.41147
C -41.1558 -18.1211 5.06865
C -42.4393 -18.8627 4.57
C -52.6476 -11.3408 2.769
C -51.3908 -13.566 2.714
C -52.6084 -11.3756 5.393
C -51.3496 -13.6028 5.345
C -39.926 -20.322 5.10101
C -38.6222 -7.80636 3.11056
C -38.5969 -7.82562 4.65299
C -53.9823 -3.21496 3.31583
C -53.9236 -3.18306 4.89304
C -47.4612 -2.55822 2.70923
C -47.4177 -2.56993 5.35272
C -42.337 -5.49945 3.16691
C -42.3155 -5.50276 4.72069
C -42.4624 -18.845 3.0315
C -43.7267 -18.0636 2.536
C -42.4729 -20.3379 2.51357
C -43.6814 -18.1073 5.098
C -42.4486 -20.3592 5.07803
C -52.6802 -14.3021 3.268
C -52.6571 -14.3229 4.811
C -47.5738 -15.8054 2.593
C -47.5529 -14.3382 3.15
C -48.8463 -16.5413 3.147
C -47.5266 -15.8461 5.252
C -48.8201 -16.5651 4.727
C -57.8572 -11.283 2.87999
C -57.8041 -11.301 5.48994
C -46.2508 -18.0642 5.182
C -43.6042 -4.73394 2.67857
C -43.5768 -3.23671 3.16216
C -44.8849 -5.47563 3.22794
C -43.5642 -4.73552 5.2477
C -44.8578 -5.48664 4.7694
C -42.3396 -7.0048 5.2372
C -39.8623 -7.03822 2.60231
C -38.6209 -9.24879 2.55462
C -39.8227 -7.05822 5.21264
C -38.5859 -9.29244 5.1589
C -48.7514 -3.24025 3.27979
C -48.7236 -3.25515 4.83008
C -53.978 -13.5461 2.793
C -53.9391 -12.0688 3.311
C -55.263 -14.2682 3.33004
C -53.9407 -13.5799 5.345
C -55.2397 -14.2884 4.8649
C -43.7634 -21.0651 3.02637
C -43.7476 -21.076 4.57522
C -52.6738 -15.8271 5.269
C -50.131 -15.7903 2.656
C -48.8672 -18.0095 2.6
C -50.0877 -15.829 5.29
C -48.8229 -18.0512 5.23
C -36.0431 -12.1989 2.9597
C -36.0126 -12.2213 4.5292
C -46.1853 -4.74186 2.74479
C -44.8957 -6.9536 2.733
C -46.1312 -4.7509 5.30355
C -44.8575 -6.98636 5.287
C -50.0487 -2.51485 2.7289
C -51.361 -3.19783 3.28463
C -49.9812 -2.53299 5.3777
C -51.3174 -3.18183 4.83979
C -39.8733 -9.98648 3.09237
C -39.851 -10.0084 4.64138
C -48.7156 -4.7333 5.34478
C -41.1844 -22.5547 2.49244
C -41.1837 -22.58 5.10417
C -48.9048 -20.9573 3.11261
C -48.8778 -20.9811 4.66348
C -50.1375 -18.7664 3.149
C -50.1133 -18.7912 4.705
C -59.117 -13.5135 5.4971
C -45.0014 -20.2989 5.11157
C -46.3094 -20.9972 4.61874
C -56.5716 -13.5193 2.8484
C -55.2641 -15.7461 2.81611
C -43.7708 -22.5626 5.09673
C -41.1414 -9.23022 2.61879
C -41.12 -7.75587 3.14788
C -42.3949 -9.96914 3.134
C -41.0995 -9.26041 5.1917
C -42.3688 -9.99097 4.707
C -52.6945 -2.46919 2.75212
C -51.361 -4.68372 2.80392
C -52.606 -2.418 5.35363
C -51.2993 -4.67456 5.38093
C -39.8228 -11.4877 5.13217
C -37.3258 -11.4507 2.47969
C -36.0324 -13.6959 2.42319
C -37.2785 -11.4876 5.08254
C -35.9819 -13.7207 5.04034
C -46.1841 -7.70161 3.25
C -46.162 -7.72148 4.795
C -51.3948 -18.0672 5.237
C -52.7021 -18.7896 4.76079
C -50.1555 -20.2633 5.20348
C -46.3327 -20.98 3.06158
C -47.6176 -20.2238 2.57818
C -46.3606 -22.4517 2.52979
C -47.5731 -20.2519 5.15066
C -46.3388 -22.4622 5.13322
C -43.6737 -9.20506 2.636
C -42.4158 -11.4363 2.577
C -43.6295 -9.24078 5.273
C -42.3696 -11.474 5.216
C -56.5343 -16.472 3.34521
C -55.2213 -15.7687 5.36473
C -56.5097 -16.4839 4.89546
C -45.0102 -18.7895 3.05
C -44.9841 -18.8164 4.609
C -52.6226 -5.41605 3.3436
C -52.5862 -5.41167 4.90031
C -47.466 -6.92156 2.801
C -47.4681 -5.4563 3.28629
C -48.7563 -7.67158 3.293
C -47.4298 -6.95333 5.308
C -48.7352 -7.69145 4.839
C -37.2945 -14.4415 2.95907
C -37.2659 -14.4623 4.51801
C -46.1837 -9.21564 5.321
C -57.7952 -15.7227 2.81448
C -57.8625 -14.2579 3.37742
C -57.7438 -15.7309 5.48243
C -47.6412 -23.1374 3.07628
C -47.6217 -23.1506 4.6216
C -56.4633 -17.9406 5.43499
C -42.4933 -23.302 3.00086
C -52.7284 -18.7747 3.21867
C -54.0083 -17.9991 2.75625
C -52.779 -20.2609 2.69871
C -53.9516 -18.0244 5.30889
C -52.7386 -20.2797 5.26282
C -38.5841 -13.6772 2.49178
C -38.5828 -12.2017 3.02148
C -39.8548 -14.411 3.02825
C -38.5398 -13.7072 5.05723
C -39.8304 -14.4287 4.56112
C -50.0382 -6.89552 2.816
C -48.7801 -9.15276 2.729
C -50.004 -6.92631 5.372
C -48.7399 -9.18751 5.365
C -37.3343 -15.938 5.05281
C -53.9395 -4.70457 2.83518
C -55.1467 -5.48709 3.41128
C -53.8723 -4.6684 5.44437
C -55.1075 -5.47332 4.95751
C -43.6692 -12.1851 4.699
C -52.5594 -6.90845 5.41074
C -48.9232 -22.4134 2.581
C -50.1782 -23.1503 3.14224
C -48.8876 -22.449 5.18931
C -50.1587 -23.1691 4.68285
C -41.1627 -16.6256 3.03004
C -41.1351 -16.6407 4.55847
C -41.1221 -13.6473 2.561
C -39.8944 -15.8777 2.49476
C -41.0768 -13.687 5.119
C -39.8485 -15.9106 5.05515
C -54.057 -21.01 4.79464
C -44.9761 -11.4052 2.609
C -44.9502 -9.94 3.175
C -46.2526 -12.1371 3.158
C -44.9298 -11.4429 5.275
C -46.2264 -12.16 4.75
C -55.259 -20.1922 5.38565
C -51.4893 -22.4891 2.64769
C -51.4608 -22.5028 5.25951
C -51.3334 -9.12261 2.776
C -51.3156 -7.64247 3.326
C -52.6138 -9.86457 3.314
C -52.5907 -9.88443 4.883
C -56.5336 -17.9338 2.78748
C -55.2864 -18.7267 3.28674
C -47.5258 -14.3621 4.74
C -42.4254 -15.8544 2.57
C -43.7229 -16.5855 3.066
C -43.6957 -16.6113 4.614
C -39.8316 -5.59544 3.14125
C -39.8095 -5.6058 4.67993
C -43.5493 -3.23258 4.72876
C -53.917 -12.0887 4.867
C -48.8376 -13.5842 2.65
C -50.1091 -14.3201 3.205
C -50.0839 -14.343 4.785
C -44.8929 -2.5649 2.63568
C -46.1648 -3.26665 3.23522
C -46.1312 -3.26643 4.78585
C -45.0394 -20.2695 2.53609
C -56.5201 -13.5441 5.42192
C -55.2348 -11.3287 2.84376
C -56.5546 -12.0483 3.37366
C -56.5221 -12.06 4.92839
C -39.935 -20.2892 2.43621
C -41.1687 -21.0881 3.00609
C -41.1658 -21.1036 4.56444
C -37.3713 -9.99719 3.04811
C -37.3504 -10.0232 4.58612
C -41.1009 -7.77014 4.69634
C -51.4093 -16.5432 3.214
C -51.3852 -16.5651 4.757
C -41.1966 -18.0976 2.51397
C -46.297 -18.0215 2.548
C -47.5745 -18.7575 3.093
C -47.5483 -18.7833 4.664
C -42.3745 -6.99202 2.66008
C -43.6269 -7.73074 3.198
C -43.6027 -7.75059 4.756
C -47.4408 -5.47249 4.81476
C -52.712 -15.7923 2.769
C -53.9885 -16.5215 3.28483
C -53.9616 -16.5377 4.80943
C -42.4886 -23.3165 4.57723
C -57.8241 -14.2658 4.93642
C -48.7678 -4.71283 2.78715
C -50.0506 -5.42682 3.31879
C -50.0235 -5.43886 4.85902
C -38.5529 -12.2234 4.57268
C -59.1671 -13.5109 2.88171
C -45.0951 -23.2161 4.58508
C -55.3195 -20.1823 2.7108
C -39.8684 -11.4483 2.5562
C -41.1172 -12.1802 3.084
C -41.09 -12.2031 4.643
C -44.924 -9.96183 4.757
C -50.1956 -20.2359 2.63185
C -51.4884 -21.0074 3.1694
C -51.4649 -21.0193 4.72228
C -45.1002 -23.2081 3.04363
C -55.2515 -18.7359 4.83905
C -51.2954 -7.66234 4.883
C -46.2259 -9.1799 2.68
C -47.5034 -9.91285 3.222
C -47.4793 -9.9337 4.804
C -51.4351 -18.0294 2.688
C -37.3838 -15.8927 2.38951
C -38.6254 -16.6286 2.96776
C -38.6008 -16.6577 4.51931
C -43.7909 -22.5468 2.50021
C -52.599 -6.90092 2.83745
C -56.2591 -7.72525 7.63699
C -57.5918 -9.90921 7.64582
C -59.0668 -12.0457 7.57114
C -33.4418 -12.2132 7.10678
C -34.7142 -11.5268 6.60116
C -33.4209 -13.6634 6.59911
C -34.676 -14.3694 7.18016
C -30.9229 -12.1521 7.12481
C -32.1984 -11.4598 6.59847
C -30.8962 -13.5793 6.56188
C -32.1259 -14.3183 7.14352
C -39.5258 -1.14032 7.23428
C -40.7645 -0.353329 6.77017
C -39.651 -2.59011 6.74758
C -42.0317 -1.06638 7.38078
C -38.23 -0.465475 6.70033
C -40.59 1.08144 7.34742
C -55.0763 -0.844779 7.4924
C -52.5934 -0.910788 7.43935
C -53.8349 -0.137592 6.89255
C -55.0715 -2.3359 7.03872
C -53.831 1.34036 7.3858
C -56.3617 -0.0813636 7.04165
C -60.3907 -11.336 7.10402
C -61.6641 -12.0265 7.64983
C -60.3559 -14.168 7.69647
C -61.6536 -13.4937 7.17495
C -62.9846 -11.3553 7.1573
C -62.9141 -14.1658 7.78937
C -55.3631 -24.6734 6.93222
C -54.1168 -25.4095 7.47898
C -55.2538 -23.2348 7.49441
C -52.8358 -24.6963 6.94837
C -56.6412 -25.3666 7.498
C -54.2073 -26.8895 7.0465
C -39.9625 -24.8442 6.74159
C -41.2443 -25.5545 7.21917
C -39.9752 -23.3956 7.27826
C -42.4569 -24.7819 6.68076
C -38.7779 -25.6493 7.35594
C -41.2372 -27.0069 6.68968
C -47.466 -11.4286 6.911
C -48.7474 -12.1746 7.453
C -43.6268 -13.7029 6.792
C -42.2939 -14.4816 7.115
C -43.6159 -12.2368 7.367
C -44.9002 -14.4388 7.368
C -53.7747 -7.6995 7.47664
C -55.0453 -6.94162 7.04423
C -53.8232 -9.16494 6.94794
C -40.9278 -3.31616 7.28121
C -54.0237 -22.4691 6.89745
C -52.726 -23.2076 7.39192
C -53.9665 -20.9784 7.38255
C -46.197 -13.6738 6.855
C -44.9202 -15.8979 6.78
C -55.084 -9.91497 7.4701
C -50.0281 -11.4135 6.949
C -49.9933 -9.9303 7.505
C -51.3135 -12.1645 7.493
C -38.6341 -18.131 6.60501
C -39.8961 -18.8558 7.13018
C -42.2061 -2.52376 6.79821
C -40.9989 -4.79742 6.76999
C -56.3612 -9.16718 7.04594
C -46.2047 -16.6279 7.341
C -52.5923 -11.3995 6.968
C -51.3463 -13.6388 6.924
C -38.6036 -7.88124 7.28938
C -53.799 -3.14488 7.49476
C -47.3909 -2.60092 6.89559
C -42.2931 -5.52171 7.27872
C -42.4005 -18.8924 7.11926
C -43.6463 -18.1371 6.638
C -42.4298 -20.3737 6.62654
C -52.6766 -14.405 7.292
C -47.5044 -15.875 6.838
C -47.4865 -14.4058 7.398
C -48.7968 -16.61 7.385
C -57.7565 -11.3315 7.04378
C -43.5435 -4.75493 6.79065
C -43.5031 -3.27933 7.31087
C -44.8169 -5.50268 7.31918
C -39.8131 -7.08481 6.76399
C -38.5742 -9.32024 6.70066
C -48.6674 -3.30506 7.40715
C -53.9286 -13.6078 6.883
C -53.8907 -12.1445 7.441
C -55.1877 -14.3086 7.43011
C -43.7087 -21.0851 7.14517
C -50.0855 -15.863 6.87
C -48.8037 -18.0801 6.806
C -35.9836 -12.2437 7.11478
C -46.1088 -4.76974 6.84672
C -44.8325 -6.99421 6.826
C -49.9464 -2.55666 6.92434
C -51.2604 -3.19516 7.42372
C -39.8184 -10.0614 7.20036
C -41.1855 -22.5875 6.67422
C -48.8385 -20.978 7.21668
C -50.0961 -18.8301 7.281
C -56.4823 -13.5537 6.97543
C -55.1759 -15.7749 6.91518
C -41.072 -9.28264 6.73576
C -41.0714 -7.81238 7.25331
C -42.3076 -10.0176 7.299
C -52.5381 -2.4026 6.91406
C -51.2633 -4.68584 6.93279
C -37.2613 -11.5197 6.63359
C -35.9756 -13.7318 6.60058
C -46.1322 -7.68129 7.283
C -46.2726 -20.9949 7.17554
C -47.5556 -20.2722 6.69257
C -46.3198 -22.4545 6.69151
C -43.6044 -9.25563 6.851
C -42.3374 -11.5008 6.795
C -56.4136 -16.4757 7.48998
C -44.9178 -18.857 7.189
C -52.5166 -5.42714 7.46699
C -47.4068 -6.95119 6.825
C -47.3967 -5.49109 7.35067
C -48.6844 -7.65213 7.326
C -37.2515 -14.481 7.0975
C -57.6943 -15.7369 7.02371
C -57.7599 -14.2727 7.52302
C -47.5897 -23.1184 7.27596
C -42.4947 -23.3112 7.16486
C -52.6495 -18.8055 7.31001
C -53.914 -18.0261 6.85836
C -52.699 -20.2678 6.81628
C -38.5159 -13.7336 6.60066
C -38.5192 -12.28 7.12828
C -39.7793 -14.4708 7.11692
C -49.9819 -6.93417 6.912
C -48.7149 -9.18535 6.947
C -53.8157 -4.6577 7.0059
C -54.9854 -5.49448 7.63909
C -48.8671 -22.4355 6.73361
C -50.1307 -23.0982 7.35833
C -41.096 -16.6657 7.10399
C -41.0407 -13.7148 6.658
C -39.8291 -15.9304 6.6008
C -44.9027 -11.4647 6.863
C -44.8879 -9.98361 7.423
C -46.1832 -12.1987 7.411
C -51.446 -22.4787 6.80612
C -51.2741 -9.17024 6.978
C -51.2474 -7.67404 7.46
C -52.5735 -9.90732 7.467
C -56.4136 -17.9352 6.98046
C -55.1583 -18.7099 7.43255
C -42.3369 -15.9289 6.603
C -43.5853 -16.6737 7.105
C -39.8318 -5.65608 7.35582
C -48.7772 -13.6518 6.899
C -50.0696 -14.3959 7.454
C -44.8169 -2.58312 6.85413
C -46.0943 -3.31451 7.37406
C -44.9713 -20.3096 6.6581
C -55.1571 -11.3738 6.95998
C -56.4502 -12.0979 7.49094
C -39.9289 -20.3231 6.65052
C -41.1694 -21.107 7.15208
C -37.37 -10.0941 7.25951
C -51.4148 -16.6293 7.237
C -41.1418 -18.1366 6.60959
C -46.2206 -18.094 6.759
C -47.5069 -18.846 7.251
C -42.32 -7.02081 6.78398
C -43.5746 -7.76542 7.335
C -52.6696 -15.86 6.783
C -53.9045 -16.5578 7.34671
C -48.6875 -4.75109 6.89198
C -49.9737 -5.45874 7.41016
C -59.0746 -13.5274 7.05936
C -55.2003 -20.1696 6.92897
C -39.8007 -11.5187 6.67713
C -41.0357 -12.2637 7.223
C -50.1289 -20.27 6.74348
C -51.4185 -20.9929 7.28563
C -45.0704 -23.1547 7.25555
C -46.1617 -9.2135 6.904
C -47.4402 -9.94345 7.479
C -51.3817 -18.0961 6.774
C -37.3265 -15.9446 6.59559
C -38.5861 -16.6757 7.10729
C -43.7589 -22.5617 6.64762
C -52.5266 -6.9238 6.95907
C -57.7274 -9.8572 0.756588
C -59.1796 -12.0256 0.825443
C -56.4179 -7.69478 0.790357
C -33.5603 -12.1884 0.286786
C -34.8191 -11.5045 0.832762
C -33.5294 -13.6473 0.779249
C -34.8146 -14.3306 0.232137
C -31.054 -12.1666 0.171856
C -32.2925 -11.4503 0.759996
C -31.02 -13.6024 0.727682
C -32.2746 -14.3266 0.188125
C -39.688 -1.13219 0.409943
C -40.9189 -0.357641 0.939486
C -39.7751 -2.58111 0.95153
C -42.2032 -1.09215 0.405717
C -38.3809 -0.430163 0.858794
C -40.8105 1.08797 0.372593
C -55.394 -1.05923 0.674401
C -52.8906 -1.08984 0.523917
C -54.1135 -0.319807 1.10659
C -55.2956 -2.50433 1.22263
C -54.2119 1.10465 0.485753
C -56.6472 -0.307431 1.22081
C -60.5331 -11.3742 1.31429
C -61.8199 -12.1245 0.8199
C -61.7528 -13.5783 1.34242
C -60.4588 -14.1924 0.735131
C -63.1514 -11.5007 1.32636
C -62.9881 -14.3675 0.828996
C -55.3036 -24.7956 1.11552
C -54.0319 -25.5456 0.640428
C -55.2752 -23.3349 0.537633
C -52.8106 -24.7397 1.1309
C -56.5078 -25.6074 0.541857
C -54.0215 -27.0057 1.19703
C -39.863 -24.7399 0.922592
C -42.3887 -24.7446 0.896504
C -39.9558 -23.3043 0.354514
C -41.1093 -25.4801 0.389219
C -41.042 -26.9522 0.863144
C -38.5892 -25.4536 0.409129
C -47.5655 -11.3463 1.068
C -48.867 -12.0744 0.553
C -43.7313 -13.6145 0.972
C -45.0259 -14.3336 0.416
C -53.9023 -7.66293 0.818481
C -55.1719 -6.95445 1.33336
C -53.9179 -9.11957 1.32056
C -42.4096 -14.3763 0.58
C -42.4355 -15.8385 1.05
C -41.0661 -3.33432 0.511206
C -54.0828 -22.4914 1.13075
C -52.7906 -23.2445 0.617834
C -46.3016 -13.5865 1.003
C -45.0258 -15.8066 0.964
C -55.2067 -9.84961 0.833048
C -50.1236 -11.3321 1.132
C -51.4251 -12.0672 0.615
C -38.7363 -18.0515 0.869156
C -40.0088 -18.7889 0.411108
C -48.8787 -13.5655 1.062
C -44.9332 -2.60999 1.09221
C -50.1039 -9.83599 0.62
C -51.3605 -9.09577 1.204
C -42.3256 -2.53827 1.03343
C -41.0932 -4.79273 1.06283
C -56.4799 -9.12899 1.34346
C -46.3294 -16.5197 0.428
C -55.2491 -11.32 1.29617
C -41.2342 -18.0749 0.977256
C -42.502 -18.8131 0.489102
C -52.6797 -11.322 1.197
C -51.4388 -13.5563 1.137
C -39.9828 -20.2547 0.894035
C -38.6941 -7.79576 0.456521
C -54.0209 -3.27757 0.730303
C -47.4902 -2.58939 1.1623
C -42.4005 -5.50526 0.612639
C -43.7448 -18.0427 0.995
C -42.4978 -20.3089 0.966847
C -52.7741 -14.3187 0.791
C -47.6069 -15.7856 1.005
C -48.9185 -16.5038 0.487
C -57.8616 -11.2916 1.32823
C -46.3222 -18.0007 0.97
C -43.6406 -4.75106 1.13277
C -44.9399 -5.47316 0.681122
C -42.4062 -6.98139 1.11647
C -39.9014 -7.03739 1.04713
C -38.6571 -9.23853 1.00428
C -48.7907 -3.28165 0.686753
C -54.01 -13.5323 1.255
C -55.2994 -14.2498 0.782759
C -43.7842 -21.0141 0.47058
C -52.754 -15.7836 1.256
C -50.183 -15.7756 1.077
C -48.9023 -17.9887 1.024
C -36.1223 -12.1871 0.37065
C -46.2182 -4.75066 1.19921
C -44.9189 -6.92374 1.197
C -50.0718 -2.55033 1.17754
C -51.4031 -3.23602 0.699652
C -39.9331 -9.95717 0.535948
C -48.7943 -4.71368 1.23848
C -41.1897 -22.5298 0.930511
C -48.947 -20.9141 0.545481
C -50.2077 -18.7258 0.574
C -59.1708 -13.5149 1.31904
C -45.0584 -20.2456 0.982238
C -46.3771 -20.9422 0.501121
C -43.7915 -22.5151 0.944793
C -41.1706 -9.21229 1.07592
C -42.4242 -9.92032 0.54
C -52.7228 -2.50909 1.18269
C -51.3811 -4.69639 1.25217
C -39.9012 -11.4287 1.00881
C -37.3732 -11.4452 0.925408
C -36.0897 -13.6755 0.860449
C -46.2307 -7.5969 0.766
C -51.4702 -18.0126 1.152
C -52.7778 -18.7423 0.675585
C -50.2259 -20.2159 1.08212
C -47.6438 -20.2047 1.0323
C -46.3795 -22.4262 0.975169
C -43.7029 -9.17624 1.057
C -42.44 -11.4154 0.996
C -55.2818 -15.7247 1.27401
C -56.5429 -16.4362 0.757721
C -45.0355 -18.7457 0.469
C -52.6593 -5.43674 0.783442
C -47.4862 -6.88168 1.287
C -48.776 -7.5697 0.811
C -37.3879 -14.3911 0.377032
C -46.2572 -9.13509 1.098
C -57.797 -15.7003 1.27061
C -47.6802 -23.0741 0.425006
C -56.5384 -17.9019 1.24327
C -54.028 -17.9706 1.20587
C -52.797 -20.2394 1.15038
C -38.6316 -13.6549 0.944895
C -39.9135 -14.3801 0.473284
C -50.0583 -6.86665 1.277
C -48.8054 -9.10791 1.15
C -37.443 -15.8662 0.847322
C -53.9607 -4.73125 1.28429
C -55.1547 -5.54481 0.735536
C -43.7385 -12.1345 0.44
C -52.6253 -6.90044 1.29228
C -48.9461 -22.3914 1.02356
C -50.2192 -23.0704 0.467413
C -41.2146 -16.5867 0.498539
C -41.1412 -13.6274 1.021
C -39.9369 -15.8535 0.95691
C -54.088 -20.9701 0.651367
C -45.0042 -11.3804 1.017
C -46.3058 -12.0965 0.492
C -55.3189 -20.1562 1.17223
C -51.5171 -22.4696 1.09483
C -52.6721 -9.82093 0.734
C -47.6101 -14.3016 0.487
C -43.703 -16.5664 0.567
C -39.9273 -5.61638 0.456611
C -43.6382 -3.29836 0.586266
C -53.9862 -12.0571 0.737
C -50.1892 -14.2936 0.537
C -46.2297 -3.32365 0.642475
C -56.5792 -13.5072 1.30276
C -56.5657 -12.0418 0.81616
C -41.227 -21.0458 0.427075
C -37.4771 -9.99114 0.372604
C -41.1791 -7.74852 0.585299
C -51.5194 -16.5359 0.738
C -47.6246 -18.7368 0.505
C -43.6832 -7.67609 0.619
C -47.5168 -5.45128 0.752211
C -54.0294 -16.4806 0.750322
C -42.4842 -23.2606 0.428258
C -57.8702 -14.2309 0.793946
C -50.0867 -5.42293 0.761398
C -38.6573 -12.1822 0.464402
C -45.1196 -23.111 0.362389
C -41.1523 -12.1615 0.501
C -45.0075 -9.88535 0.505
C -51.5354 -20.9687 0.614566
C -55.3079 -18.6677 0.698659
C -51.3379 -7.5936 0.751
C -47.5578 -9.84518 0.548
C -38.7215 -16.5836 0.38578
C -47.6274 -11.331 -1.59716
C -48.8879 -12.044 -1.0553
C -43.9627 -13.5172 -1.82909
C -43.8447 -12.1391 -1.15267
C -45.116 -14.3112 -1.18141
C -46.3982 -13.5326 -1.67801
C -45.2646 -15.7027 -1.80225
C -50.1777 -11.29 -1.53048
C -50.128 -9.86694 -0.934929
C -51.3984 -12.0259 -0.941508
C -46.4107 -16.4461 -1.16137
C -51.3644 -13.4009 -1.59407
C -47.6922 -15.7247 -1.67071
C -47.6618 -14.2613 -1.13755
C -48.9771 -16.4001 -1.10467
C -50.1405 -15.5917 -1.69001
C -48.8787 -9.24925 -1.58004
C -45.0817 -11.3602 -1.65908
C -45.081 -9.90208 -1.08545
C -46.3573 -12.0885 -1.12891
C -48.9139 -13.5026 -1.60859
C -50.1933 -14.2157 -1.05798
C -46.3502 -9.28939 -1.66129
C -47.6018 -9.87773 -1.03892
C -47.6557 -11.2956 -3.20528
C -48.9385 -11.9821 -3.68823
C -43.9929 -13.509 -3.45967
C -45.2397 -14.2323 -3.91881
C -46.4584 -13.4968 -3.28868
C -45.2848 -15.6965 -3.449
C -50.2136 -11.2259 -3.1378
C -51.4467 -11.9203 -3.71487
C -48.9462 -13.4508 -3.2096
C -50.157 -9.78156 -3.70065
C -46.5267 -16.4238 -3.95092
C -51.423 -13.3694 -3.21986
C -47.7332 -15.6817 -3.29905
C -48.9905 -16.3282 -3.87821
C -50.1621 -15.5871 -3.31068
C -46.3801 -9.1932 -3.29764
C -48.881 -9.15718 -3.20742
C -43.956 -12.0673 -3.93876
C -45.1359 -11.3309 -3.29369
C -46.4342 -12.0346 -3.78485
C -47.7189 -14.2025 -3.79269
C -50.2205 -14.1289 -3.78256
C -45.1547 -9.89917 -3.86319
C -47.6629 -9.85792 -3.75698
C -47.7629 -11.2574 -5.81664
C -49.0011 -11.9669 -5.26522
C -44.1134 -13.4637 -6.08112
C -44.0502 -12.0439 -5.47686
C -45.3075 -14.1902 -5.46455
C -46.562 -13.4355 -5.91175
C -45.3588 -15.6121 -6.05119
C -50.2664 -11.213 -5.7715
C -50.1857 -9.77902 -5.22201
C -51.4991 -11.9209 -5.23528
C -46.5564 -16.3706 -5.48353
C -51.5255 -13.333 -5.79961
C -47.7928 -15.6002 -5.95487
C -47.7815 -14.1526 -5.35817
C -49.0519 -16.2691 -5.41144
C -50.2717 -15.5064 -5.92136
C -48.9509 -9.08433 -5.78923
C -45.2899 -11.2941 -5.93829
C -45.2471 -9.87436 -5.38937
C -46.5138 -12.0181 -5.35451
C -49.0326 -13.3869 -5.84684
C -50.2792 -14.0968 -5.32163
C -46.4756 -9.13099 -5.88944
C -47.7016 -9.81295 -5.29188
C -47.8203 -11.2334 -7.38898
C -49.0647 -11.9158 -7.88574
C -44.2507 -13.3996 -7.60497
C -45.4681 -14.09 -8.09628
C -46.6467 -13.3838 -7.48603
C -45.4325 -15.4929 -7.59855
C -50.2556 -11.2238 -7.32988
C -51.5086 -11.904 -7.87932
C -49.0714 -13.327 -7.4152
C -50.1985 -9.83695 -7.83613
C -46.6677 -16.1221 -8.17539
C -51.5078 -13.291 -7.32678
C -47.8487 -15.4653 -7.5067
C -49.0963 -16.0522 -8.07751
C -50.2669 -15.3757 -7.4452
C -46.5569 -9.1415 -7.41148
C -48.9931 -9.13399 -7.30608
C -44.2951 -12.016 -8.1248
C -45.4217 -11.2698 -7.49072
C -46.668 -11.9653 -7.9818
C -47.8792 -14.0423 -7.99866
C -50.3267 -13.9767 -7.93848
C -45.4103 -9.86029 -8.04201
C -47.8007 -9.8068 -7.91614
C -47.9213 -11.1663 -10.0035
C -49.1142 -11.8775 -9.43706
C -44.3926 -13.2936 -10.2501
C -44.3676 -11.9631 -9.6304
C -45.5484 -14.0337 -9.6549
C -46.765 -13.284 -10.0989
C -45.5746 -15.3987 -10.3336
C -50.3339 -11.164 -9.96625
C -50.2312 -9.80041 -9.35257
C -51.5529 -11.8448 -9.42125
C -46.7423 -16.0809 -9.69937
C -51.6013 -13.2175 -10.0519
C -47.9631 -15.3541 -10.1815
C -47.9461 -13.9912 -9.56145
C -49.1489 -16.0097 -9.58718
C -50.3466 -15.2945 -10.0799
C -49.1031 -9.09441 -9.99395
C -45.5425 -11.222 -10.1319
C -45.4984 -9.84559 -9.5719
C -46.7318 -11.9098 -9.52668
C -49.1619 -13.254 -10.0151
C -50.3773 -13.9212 -9.48324
C -46.6826 -9.0873 -10.0999
C -47.872 -9.77562 -9.46554
C -47.9781 -11.1332 -11.5416
C -49.1768 -11.8178 -12.0501
C -44.4499 -13.2516 -11.7457
C -45.6659 -13.8934 -12.2754
C -46.824 -13.207 -11.6363
C -45.6412 -15.3146 -11.8577
C -50.3755 -11.1162 -11.5371
C -51.5611 -11.8041 -12.1365
C -49.2008 -13.2023 -11.5533
C -50.368 -9.72601 -12.0358
C -46.8629 -15.939 -12.4295
C -51.6018 -13.1704 -11.5636
C -48.0167 -15.2785 -11.7552
C -49.2678 -15.8921 -12.2718
C -50.4182 -15.2394 -11.5916
C -46.747 -9.08671 -11.6187
C -49.1635 -9.07662 -11.5026
C -44.4309 -11.8706 -12.2858
C -45.5959 -11.1736 -11.6893
C -46.829 -11.8234 -12.1286
C -48.0336 -13.8581 -12.149
C -50.4025 -13.8625 -12.1004
C -45.6159 -9.81307 -12.256
C -47.9868 -9.75454 -12.068
C -47.4433 -11.4866 9.55196
C -48.7168 -12.2163 9.03031
C -43.764 -13.6479 9.54086
C -44.9134 -14.4283 8.94796
C -46.1834 -13.6847 9.51135
C -45.0704 -15.8419 9.54742
C -49.985 -11.4638 9.58839
C -51.2126 -12.2306 9.08005
C -48.6929 -13.6812 9.5474
C -49.9646 -10.028 9.05995
C -46.2339 -16.6021 8.93354
C -51.1329 -13.6171 9.68035
C -47.4779 -15.9067 9.49339
C -48.7498 -16.5781 8.96655
C -49.865 -15.7973 9.63086
C -46.1881 -9.41676 9.64138
C -48.7167 -9.40148 9.67235
C -43.6686 -12.2547 8.94
C -44.8968 -11.4896 9.49981
C -46.1807 -12.2153 8.98824
C -47.4554 -14.423 8.99312
C -49.9869 -14.3962 9.05266
C -44.9552 -10.0356 8.98516
C -47.4608 -10.0145 9.07414
C -47.4195 -11.5208 11.1379
C -48.6477 -12.2502 11.6661
C -43.7475 -13.717 11.144
C -43.672 -12.2941 11.6542
C -44.9607 -14.431 11.668
C -46.1771 -13.6933 11.097
C -44.9988 -15.8554 11.1635
C -49.933 -11.5011 11.2033
C -49.8643 -10.0923 11.8228
C -51.1367 -12.2322 11.7799
C -46.1811 -16.6211 11.6745
C -51.1121 -13.6611 11.2794
C -47.4301 -15.9131 11.1052
C -47.4033 -14.4464 11.6322
C -48.6677 -16.5682 11.6912
C -49.8801 -15.8157 11.2377
C -48.6343 -9.40587 11.2995
C -44.8741 -11.5269 11.1159
C -44.8601 -10.129 11.718
C -46.151 -12.2544 11.6227
C -48.669 -13.6987 11.1301
C -49.8848 -14.3956 11.7447
C -46.1093 -9.40913 11.2674
C -47.3617 -10.0996 11.7637
C -47.3567 -11.5949 13.7807
C -48.61 -12.3053 13.2527
C -43.726 -13.7654 13.7082
C -44.9422 -14.4668 13.1943
C -46.1475 -13.737 13.7276
C -44.9302 -15.9003 13.7476
C -49.8464 -11.5835 13.8339
C -51.1038 -12.2532 13.3252
C -48.6187 -13.7397 13.7627
C -49.7941 -10.1694 13.3363
C -46.1796 -16.5971 13.202
C -51.0912 -13.6817 13.8813
C -47.3993 -15.8609 13.7256
C -48.6426 -16.5324 13.202
C -49.8368 -15.8094 13.7894
C -46.0799 -9.48623 13.8508
C -48.5432 -9.50185 13.8851
C -43.6948 -12.3369 13.1702
C -44.8954 -11.6162 13.7438
C -46.1532 -12.296 13.1964
C -47.3995 -14.4349 13.1874
C -49.8736 -14.4004 13.2666
C -44.8648 -10.1928 13.2398
C -47.3336 -10.1653 13.3023
C -47.3109 -11.634 15.3292
C -48.5302 -12.3342 15.8655
C -43.7142 -13.7841 15.216
C -43.6855 -12.4193 15.7937
C -44.9297 -14.4765 15.7974
C -46.1509 -13.7544 15.2743
C -44.9375 -15.8659 15.2624
C -49.7613 -11.6121 15.3959
C -49.7019 -10.2255 15.9639
C -50.9576 -12.3072 15.9887
C -46.1603 -16.5458 15.8333
C -51.0142 -13.6885 15.3974
C -47.375 -15.8459 15.2756
C -47.3532 -14.4413 15.8208
C -48.593 -16.4931 15.8192
C -49.7969 -15.8021 15.2864
C -48.497 -9.53453 15.3928
C -44.885 -11.6666 15.2884
C -44.8888 -10.3027 15.8979
C -46.1096 -12.3594 15.8102
C -48.5819 -13.731 15.3179
C -49.8081 -14.4136 15.873
C -46.0901 -9.57562 15.3703
C -47.3043 -10.2584 15.9231
C -47.274 -11.6912 17.9468
C -48.4918 -12.3658 17.4089
C -43.6845 -13.8163 17.8549
C -44.8998 -14.499 17.3419
C -46.0992 -13.8051 17.8876
C -44.9411 -15.8869 17.945
C -49.6873 -11.6817 18.0174
C -50.9181 -12.3629 17.52
C -48.5223 -13.7677 17.9191
C -49.6703 -10.2705 17.4796
C -46.143 -16.5526 17.3514
C -50.9266 -13.7466 18.0955
C -47.3276 -15.8614 17.9065
C -48.544 -16.5161 17.3226
C -49.7334 -15.8462 17.9471
C -46.0457 -9.67418 18.0665
C -48.4644 -9.58548 18.0441
C -43.6568 -12.431 17.3103
C -44.852 -11.7309 17.912
C -46.0866 -12.4019 17.3572
C -47.3322 -14.4647 17.3613
C -49.7713 -14.453 17.4266
C -44.8784 -10.33 17.4157
C -47.2607 -10.2891 17.4725
C -47.2512 -11.7342 19.4675
C -48.4231 -12.4325 20.0006
C -43.6778 -13.8372 19.3726
C -43.6519 -12.4902 19.9727
C -44.8796 -14.4834 19.9327
C -46.0826 -13.8126 19.4186
C -44.9391 -15.8775 19.4654
C -49.6255 -11.7057 19.569
C -49.5967 -10.3238 20.17
C -50.748 -12.4183 20.2353
C -46.1163 -16.5216 20.0659
C -50.8369 -13.7439 19.6207
C -47.3096 -15.8648 19.4743
C -47.2687 -14.4856 19.9543
C -48.4918 -16.5813 20.0095
C -49.6886 -15.8865 19.4553
C -48.4164 -9.63254 19.5793
C -44.8431 -11.7804 19.4876
C -44.8212 -10.4452 20.1167
C -46.0715 -12.4391 19.9514
C -48.4714 -13.791 19.4448
C -49.6326 -14.5026 20.029
C -46.0049 -9.73425 19.5793
C -47.2364 -10.3973 20.0724
C -55.4308 1.85469 1.07792
C -55.3683 1.89162 2.62996
C -55.2166 1.9832 5.32083
C -56.6934 1.10299 0.59853
C -56.5774 1.18512 3.30298
C -56.4877 1.23765 4.86333
C -56.3066 1.38679 7.54504
C -55.1003 2.061 6.86753
C -38.3483 1.00808 0.290931
C -39.5317 1.77595 0.898084
C -39.4817 1.76062 2.45138
C -38.2575 0.988784 3.0005
C -38.2108 0.974178 4.56513
C -39.3849 1.75902 5.18763
C -39.3347 1.75612 6.7444
C -38.1179 0.966225 7.26388
C -38.5439 -26.8997 0.957486
C -38.6141 -26.9416 2.50829
C -38.7101 -27.0312 5.21522
C -38.7509 -27.078 6.77156
C -39.7448 -27.6285 0.340692
C -39.8864 -27.6678 3.02338
C -39.9411 -27.7126 4.58224
C -40.0324 -27.777 7.26222
C -56.7143 -26.8186 6.96287
C -55.2466 -27.7504 0.617201
C -56.5066 -27.0294 1.13766
C -55.3103 -27.667 3.33325
C -56.5435 -26.9697 2.70113
C -55.363 -27.6228 4.89899
C -56.621 -26.8849 5.41159
C -55.5144 -27.5424 7.59608
C -64.2834 -13.7421 1.40811
C -64.2531 -13.6812 2.96392
C -64.2171 -13.5864 5.67813
C -64.2086 -13.5352 7.22619
C -64.3707 -12.3166 0.813344
C -64.2926 -12.2324 3.49815
C -64.2451 -12.1684 5.05915
C -64.214 -12.0863 7.75712
H -34.692 -10.4763 4.77625
H -34.6535 -15.4069 2.62578
H -34.6137 -15.4183 4.78476
H -34.7192 -10.4494 2.65311
H -32.2738 -10.3775 4.77059
H -32.1603 -15.3634 2.60122
H -32.1065 -15.3627 4.74112
H -32.285 -10.3754 2.59165
H -42.9556 -0.421636 4.98997
H -38.7932 -3.08597 2.75515
H -38.765 -3.09869 4.89514
H -42.9992 -0.466167 2.82601
H -41.5423 1.69501 4.95225
H -37.4267 -1.00693 2.6705
H -37.3939 -1.0226 4.8252
H -41.6135 1.67772 2.79132
H -56.1953 -2.94006 3.11471
H -56.1111 -2.88014 5.27485
H -51.9343 -0.437282 2.84526
H -51.8125 -0.392218 5.02097
H -57.5004 -0.776062 3.10929
H -57.3841 -0.715229 5.28228
H -53.1945 1.70351 2.80117
H -53.0996 1.80183 4.93503
H -60.4193 -15.2221 5.29177
H -60.5473 -10.2967 3.11996
H -60.4935 -10.305 5.26203
H -60.4735 -15.2366 3.14271
H -62.9193 -15.265 5.44033
H -63.188 -10.4302 3.19001
H -63.0873 -10.3788 5.30529
H -62.9022 -15.3598 3.2465
H -56.2342 -22.8555 2.92819
H -56.2043 -22.7964 5.09292
H -51.9076 -25.2875 2.95795
H -51.9327 -25.3064 5.12612
H -57.4732 -25.0311 2.92047
H -64.365 -12.3759 -0.274442
H -65.3121 -11.8251 1.05286
H -50.106 -24.206 4.98608
H -47.6592 -24.1726 2.77803
H -47.6318 -24.208 4.9002
H -45.179 -24.2455 2.73915
H -58.6671 -16.3008 3.09773
H -56.2526 -20.6524 3.00435
H -65.1523 -11.5905 7.52232
H -56.2029 -20.6612 5.14694
H -57.4562 -18.4279 3.06998
H -57.3775 -18.4487 5.20452
H -56.0311 -5.01387 5.29001
H -56.0984 -5.05045 3.13181
H -44.9129 -1.51295 2.89427
H -44.9101 -1.49335 5.04296
H -47.4277 -1.51729 2.98643
H -47.4206 -1.51439 5.092
H -49.9353 -1.47413 5.11871
H -50.0107 -1.46674 2.99125
H -38.9978 -20.7557 2.6956
H -38.9887 -20.7911 4.81775
H -36.4981 -16.4649 2.62503
H -37.764 -18.6197 2.64981
H -37.7414 -18.6572 4.77401
H -36.4585 -16.4977 4.75573
H -38.8603 -5.17038 4.97445
H -36.5147 -9.42211 2.73473
H -37.7126 -7.28492 2.81768
H -37.6738 -7.32213 4.93641
H -36.4905 -9.45391 4.90327
H -38.9005 -5.14789 2.82182
H -53.3499 -27.4272 7.44376
H -43.3265 -25.3109 7.04881
H -39.0206 -22.9325 7.07707
H -42.1431 -27.5009 7.02468
H -37.8215 -25.1577 7.21042
H -57.185 -7.18012 7.48068
H -58.4825 -9.3038 7.51502
H -34.6132 -15.4352 6.98537
H -34.6761 -10.5077 6.95677
H -32.0904 -15.3857 6.93482
H -32.2115 -10.435 6.96388
H -38.7688 -3.1097 7.09668
H -42.9015 -0.445441 7.19769
H -37.3646 -1.04513 7.01511
H -41.4856 1.684 7.17397
H -55.9511 -2.79935 7.47179
H -51.682 -0.373817 7.18835
H -57.2423 -0.541672 7.49275
H -52.9277 1.86603 7.08931
H -60.4266 -10.3132 7.46787
H -60.4081 -15.241 7.52424
H -62.9958 -10.3125 7.4724
H -62.9073 -15.2391 7.63712
H -56.1844 -22.7131 7.31335
H -51.9961 -25.2701 7.33479
H -57.5516 -24.8157 7.27715
H -50.0887 -24.171 7.21119
H -47.616 -24.1911 7.09815
H -45.1487 -24.2234 7.09709
H -58.5371 -16.2905 7.41135
H -56.1069 -20.6036 7.33938
H -57.2961 -18.4359 7.36282
H -55.9521 -5.00593 7.5271
H -44.8466 -1.57024 7.25134
H -47.3714 -1.57234 7.26387
H -49.8522 -1.55303 7.3254
H -39.0154 -20.7888 7.00282
H -36.4739 -16.5076 6.94932
H -37.7486 -18.6722 6.93936
H -36.4839 -9.49152 7.12107
H -37.6595 -7.3621 7.10604
H -38.8605 -5.20134 7.19773
H -57.4613 -9.97053 8.73338
H -59.0371 -12.041 8.66271
H -56.1265 -7.80404 8.71281
H -33.4405 -12.1998 8.19659
H -34.6893 -14.2823 8.27011
H -30.9427 -12.1774 8.21382
H -32.1029 -14.2437 8.23277
H -39.4749 -1.15138 8.32268
H -41.9265 -1.13312 8.46779
H -40.4849 1.04306 8.4316
H -55.0351 -0.805604 8.58132
H -52.6216 -0.942321 8.52923
H -53.826 1.34756 8.4784
H -61.6552 -11.9883 8.74007
H -60.3 -14.0824 8.78771
H -62.8964 -14.0518 8.87416
H -54.1063 -25.3687 8.56733
H -55.1565 -23.2762 8.58043
H -56.6029 -25.3866 8.59001
H -40.0718 -23.4163 8.36805
H -41.2744 -25.5627 8.30917
H -38.8927 -25.719 8.44198
H -53.7271 -7.73801 8.56667
H -42.0609 -14.6422 8.122
H -40.9045 -3.31742 8.37414
H -52.6703 -23.1583 8.4815
H -55.0294 -9.92615 8.56008
H -39.8882 -18.8436 8.21581
H -42.3871 -18.91 8.20938
H -38.6678 -7.95085 8.37754
H -53.7415 -3.15523 8.58578
H -42.2925 -5.52227 8.3704
H -52.8755 -14.5853 8.302
H -44.7994 -5.4909 8.40908
H -48.663 -3.30152 8.49115
H -55.1576 -14.3166 8.52031
H -43.6972 -21.0867 8.2362
H -35.9748 -12.2408 8.20642
H -51.2576 -3.19048 8.51438
H -39.8243 -10.0915 8.2908
H -48.8115 -20.959 8.30773
H -50.1328 -18.8683 8.366
H -46.2553 -20.9864 8.26686
H -42.2278 -9.9991 8.379
H -46.1288 -7.43226 8.299
H -52.6277 -18.8173 8.39966
H -56.3881 -16.4647 8.57506
H -44.8476 -18.8945 8.273
H -52.4831 -5.44649 8.55799
H -48.625 -7.40476 8.342
H -37.2542 -14.4971 8.18736
H -47.5772 -23.0062 8.36531
H -39.7437 -14.4954 8.20617
H -54.8258 -5.56614 8.72111
H -50.1101 -22.9611 8.44578
H -41.0679 -16.6704 8.19269
H -53.9242 -20.9715 8.47323
H -52.6237 -9.88363 8.548
H -43.3227 -16.782 8.112
H -39.9546 -5.71641 8.44181
H -43.4728 -3.28742 8.40147
H -53.9214 -12.1937 8.526
H -46.0815 -3.32956 8.4589
H -56.4125 -12.1 8.58203
H -41.1642 -21.1241 8.24175
H -37.4686 -10.1973 8.34471
H -41.0733 -7.83527 8.34436
H -51.643 -16.7577 8.249
H -47.4924 -18.938 8.33
H -43.5659 -7.72436 8.421
H -47.3774 -5.48478 8.43982
H -53.8785 -16.5773 8.43647
H -42.49 -23.3049 8.25581
H -57.7261 -14.2617 8.61355
H -49.9536 -5.43691 8.49959
H -38.5036 -12.3118 8.21897
H -45.0493 -23.0243 8.34099
H -40.9743 -12.3174 8.307
H -51.3963 -20.9584 8.37681
H -55.1176 -18.7122 8.51705
H -51.2236 -7.6319 8.546
H -38.5742 -16.6875 8.1924
H -53.1088 -27.5126 0.889018
H -43.2418 -25.2947 0.508393
H -39.0143 -22.8036 0.552172
H -41.8961 -27.4888 0.4603
H -37.6937 -24.8994 0.671889
H -58.6281 -9.27643 0.932716
H -57.3242 -7.13602 1.01644
H -34.7782 -10.4872 0.468465
H -34.7551 -15.3986 0.410198
H -32.3044 -10.4244 0.39788
H -32.2471 -15.3922 0.403363
H -43.0836 -0.487034 0.61993
H -38.8987 -3.08221 0.560514
H -41.6767 1.68365 0.61755
H -37.5205 -0.983107 0.485125
H -56.1959 -3.00608 0.892285
H -51.9967 -0.48727 0.648367
H -57.5554 -0.82808 0.915599
H -53.2973 1.67428 0.628228
H -60.4773 -15.2633 0.896363
H -60.5949 -10.3558 0.936999
H -62.9221 -15.4311 1.04911
H -63.2432 -10.4887 0.939265
H -56.2362 -22.8696 0.729558
H -51.943 -25.2742 0.759344
H -57.4572 -25.1067 0.71513
H -45.1824 -24.1917 0.498509
H -50.141 -24.1423 0.60967
H -47.6902 -24.1448 0.597981
H -58.6383 -16.2641 0.899381
H -56.2297 -20.6121 0.796846
H -57.4447 -18.3948 0.880194
H -56.1189 -5.09246 0.922737
H -44.981 -1.60697 0.694836
H -47.4699 -1.57187 0.783826
H -50.0337 -1.53569 0.794308
H -39.076 -20.6967 0.508586
H -37.8582 -18.5648 0.477242
H -36.613 -16.4266 0.441779
H -38.9549 -5.16988 0.613197
H -37.7482 -7.27643 0.632184
H -36.5761 -9.41076 0.519744
H -53.8971 -7.66912 -0.273305
H -41.1033 -3.37969 -0.579477
H -52.8033 -23.2646 -0.473649
H -54.1 -20.9736 -0.439653
H -55.2195 -9.84761 -0.258283
H -40.0467 -18.7841 -0.673752
H -38.7878 -7.82447 -0.631319
H -54.0538 -3.32401 -0.360241
H -42.4273 -5.51201 -0.4784
H -42.5172 -18.8191 -0.601069
H -52.996 -14.498 -0.213
H -43.6559 -3.33092 -0.504152
H -44.9635 -5.47069 -0.408879
H -48.8045 -3.31159 -0.398175
H -54.0511 -12.0795 -0.347
H -55.3322 -14.2449 -0.306534
H -43.7888 -20.9984 -0.620613
H -36.1743 -12.171 -0.719817
H -51.3975 -3.25357 -0.391423
H -39.9797 -9.94787 -0.553908
H -48.9601 -20.8947 -0.545838
H -50.2857 -18.7313 -0.509
H -41.2117 -7.74835 -0.504854
H -42.3836 -9.86806 -0.541
H -46.2465 -7.31699 -0.24
H -46.4017 -20.9109 -0.59021
H -56.5491 -16.405 -0.326766
H -45.0045 -18.7485 -0.618
H -52.6698 -5.4515 -0.307012
H -47.5328 -5.45232 -0.337296
H -48.7187 -7.29134 -0.195
H -37.4234 -14.3659 -0.712122
H -57.8856 -14.1971 -0.296242
H -47.6876 -22.9509 -0.6654
H -42.5097 -23.2345 -0.662265
H -52.8172 -18.7299 -0.413208
H -38.691 -12.1693 -0.626456
H -39.9313 -14.3738 -0.616558
H -55.0704 -5.6132 -0.352839
H -50.2696 -22.9308 -0.617695
H -41.2337 -16.5779 -0.589583
H -51.3463 -7.52266 -0.333
H -52.7604 -9.76648 -0.342
H -55.3167 -18.6473 -0.385902
H -43.4806 -16.635 -0.454
H -40.0501 -5.66763 -0.629023
H -46.2495 -3.34989 -0.442214
H -56.569 -12.0303 -0.274612
H -41.2512 -21.071 -0.662042
H -37.615 -10.0348 -0.712163
H -51.7807 -16.6485 -0.266
H -47.6522 -18.7959 -0.576
H -43.7117 -7.60126 -0.465
H -54.0416 -16.4748 -0.339412
H -50.0935 -5.41368 -0.328632
H -41.1292 -12.1803 -0.585
H -51.5685 -20.9461 -0.476487
H -45.1259 -22.9664 -0.722456
H -38.7587 -16.5845 -0.698165
H -56.3565 -7.73881 -0.304306
H -57.6177 -9.92136 -0.330125
H -59.1768 -11.9977 -0.266379
H -33.5893 -12.1653 -0.802546
H -34.8592 -14.2266 -0.856322
H -31.127 -12.1839 -0.915183
H -32.2979 -14.2498 -0.90055
H -39.7068 -1.16223 -0.680044
H -42.1415 -1.18514 -0.682187
H -40.7838 1.04596 -0.717057
H -55.454 -1.1048 -0.413502
H -53.0251 -1.22105 -0.55377
H -54.333 1.02001 -0.599622
H -61.8336 -12.1112 -0.270375
H -60.4626 -14.0625 -0.351214
H -63.025 -14.3201 -0.261039
H -54.0063 -25.5801 -0.449012
H -55.1708 -23.3851 -0.551801
H -56.4363 -25.6638 -0.545544
H -41.1256 -25.4577 -0.703098
H -40.0415 -23.3466 -0.731919
H -38.6203 -25.4812 -0.681411
H -42.2138 -14.4941 -0.442
H -30.1172 -11.5676 2.57494
H -30.0961 -11.5483 4.69434
H -30.0241 -11.5966 6.86855
H -30.1347 -11.6269 0.388102
H -30.0447 -14.0479 2.55116
H -29.9862 -14.0821 6.88205
H -30.1337 -14.1159 0.360559
H -55.4341 2.87465 0.700178
H -55.2384 3.01676 4.98758
H -57.605 1.63754 0.853845
H -56.6993 1.05809 -0.492401
H -57.5006 1.69022 3.03511
H -57.3956 1.74668 5.17869
H -56.1826 1.40361 8.62832
H -57.2388 1.9143 7.34711
H -55.0601 3.11481 7.13879
H -38.4358 0.974143 -0.795862
H -37.4048 1.50777 0.495442
H -39.5173 2.81238 0.561903
H -39.4308 2.79945 2.75948
H -37.3249 1.45459 2.68984
H -37.2725 1.4589 4.82466
H -39.3642 2.80808 4.90936
H -39.2743 2.78434 7.09802
H -37.1831 1.45805 7.00538
H -38.1212 0.943505 8.3542
H -37.6239 -27.385 0.638725
H -37.807 -27.574 4.95202
H -37.891 -27.6249 7.15428
H -39.7002 -27.5629 -0.746452
H -39.7395 -28.6945 0.557958
H -39.8724 -28.7172 2.73947
H -39.9877 -28.7718 4.82631
H -40.0534 -28.8301 6.98353
H -40.077 -27.7782 8.34794
H -57.6564 -27.2708 7.2703
H -55.2477 -28.8097 0.866074
H -55.2158 -27.719 -0.470964
H -57.395 -27.565 0.803205
H -55.2865 -28.723 3.07008
H -57.4398 -27.5146 2.9738
H -55.3724 -28.6666 5.20605
H -57.5178 -27.4081 5.10522
H -55.5445 -27.4326 8.67973
H -55.5581 -28.6133 7.40469
H -65.1524 -14.3237 1.10491
H -65.1284 -14.2584 3.25763
H -65.0978 -14.1512 5.39064
H -65.0918 -14.0483 7.6067
H -57.4898 -24.9408 5.05614
H -45.1756 -24.2465 4.89943
H -50.1039 -24.1877 2.82035
H -65.232 -11.7677 3.21401
H -65.1618 -11.6544 5.34458
H -58.6039 -16.2995 5.22812
H -64.1408 -12.0957 8.84413
H -43.0643 -14.1018 -2.09057
H -42.9674 -11.6443 -1.53261
H -49.04 -17.3808 -3.63278
H -44.36 -16.3107 -2.05986
H -46.3903 -8.21172 -1.78994
H -50.9884 -9.34325 -1.28213
H -52.2922 -11.5405 -1.28881
H -52.3367 -13.8706 -3.4866
H -51.0806 -16.0853 -3.56704
H -46.4075 -17.4488 -1.53163
H -52.4186 -13.7148 -1.80972
H -44.2347 -9.38256 -3.61366
H -46.5445 -17.4664 -3.65548
H -49.1049 -8.16306 -1.76607
H -46.3451 -8.13207 -3.52488
H -48.8172 -8.09776 -3.42362
H -49.0072 -17.4052 -1.4985
H -42.9995 -11.6191 -3.67916
H -44.2265 -9.38394 -1.47634
H -51.1808 -15.9873 -1.90173
H -43.1071 -14.0016 -3.76049
H -44.3535 -16.2397 -3.74443
H -52.3593 -11.4197 -3.4082
H -51.0375 -9.20552 -3.40863
H -43.1954 -13.9947 -5.89009
H -43.1456 -11.526 -5.7859
H -49.1071 -17.0545 -7.80182
H -44.4204 -16.1353 -5.86917
H -46.4449 -8.03265 -5.62089
H -51.0686 -9.19277 -5.45942
H -52.3934 -11.3617 -5.4776
H -52.3546 -13.8399 -7.59704
H -51.149 -15.8418 -7.71282
H -46.5706 -17.3916 -5.83117
H -52.4622 -13.8566 -5.5487
H -44.4963 -9.44984 -7.76191
H -46.7487 -17.1305 -7.88724
H -48.9221 -8.03742 -5.51685
H -46.6031 -8.12418 -7.64007
H -48.9981 -8.15492 -7.61498
H -49.0878 -17.3056 -5.72791
H -43.4463 -11.5127 -7.85858
H -44.3387 -9.38831 -5.70856
H -51.1849 -16.0739 -5.68696
H -43.4377 -13.8995 -7.98027
H -44.5391 -15.9535 -7.91006
H -52.3275 -11.3389 -7.54714
H -51.0553 -9.35778 -7.52266
H -50.3946 -9.66242 -13.1187
H -51.5256 -11.8549 -13.2167
H -48.0832 -13.7812 -13.2321
H -49.3472 -15.8419 -13.3512
H -46.8744 -11.8142 -13.2137
H -45.6842 -13.8133 -13.3592
H -44.4343 -11.8612 -13.3834
H -45.7477 -9.81061 -13.3381
H -48.0374 -9.74248 -13.1542
H -46.8924 -15.798 -13.5111
H -49.1864 -11.8063 -13.1349
H -50.4266 -13.8356 -13.1861
H -43.5507 -13.8317 -10.0092
H -43.5227 -11.4515 -9.89215
H -49.1863 -16.8834 -12.0003
H -44.6666 -15.8154 -10.0507
H -46.7354 -8.10657 -9.76241
H -51.1468 -9.36268 -9.54924
H -52.3405 -11.2572 -9.7316
H -52.3312 -13.7512 -12.0104
H -51.2783 -15.6773 -11.9107
H -46.8677 -17.0541 -10.0568
H -52.3783 -13.8149 -9.7477
H -44.6928 -9.41103 -12.0619
H -46.9694 -16.948 -12.2252
H -49.0529 -8.10865 -9.70272
H -46.8439 -8.1374 -12.0011
H -49.0948 -8.12557 -11.8573
H -49.1633 -16.9819 -9.90911
H -43.5875 -11.382 -11.9769
H -44.5932 -9.46321 -9.92098
H -51.2075 -15.7466 -9.74477
H -43.6771 -13.7724 -12.1275
H -44.7937 -15.6826 -12.3211
H -52.3449 -11.2004 -11.865
H -51.2153 -9.29631 -11.6348
H -48.6138 -8.36908 11.56
H -42.784 -14.0936 9.71293
H -44.082 -9.52374 9.34309
H -44.1888 -16.5409 9.71688
H -52.0955 -11.754 9.45437
H -42.8309 -14.279 11.3847
H -42.7163 -11.8453 11.3916
H -50.8088 -9.50556 9.47749
H -46.2454 -8.29572 9.89054
H -46.0936 -8.34277 11.5532
H -44.0493 -16.3672 11.3896
H -46.1852 -17.6126 9.26228
H -50.7503 -9.50732 11.5935
H -52.0567 -11.7299 11.514
H -43.9744 -9.58259 11.4325
H -52.1132 -14.1435 9.89913
H -46.1647 -17.6688 11.3982
H -52.0075 -14.1681 11.5415
H -48.9094 -8.35725 9.90904
H -48.6927 -17.6127 11.4111
H -42.7768 -11.8011 9.30997
H -48.7748 -17.5934 9.30826
H -50.8318 -16.3593 11.5491
H -50.7807 -16.3849 9.86176
H -48.4079 -8.54658 15.6736
H -42.8483 -14.2576 13.4411
H -43.9505 -9.69674 13.4933
H -44.0483 -16.4077 13.4712
H -52.0013 -11.7325 13.6022
H -42.9094 -14.3836 15.4701
H -42.862 -11.8829 15.4722
H -50.6788 -9.65868 13.6036
H -46.0954 -8.47675 13.6117
H -46.1296 -8.58718 15.7132
H -44.0566 -16.3293 15.5909
H -46.215 -17.6308 13.469
H -50.5703 -9.75117 15.6725
H -51.7842 -11.7424 15.7227
H -44.0109 -9.81675 15.6258
H -52.0121 -14.1839 13.6275
H -46.209 -17.5529 15.5299
H -51.8597 -14.2233 15.7459
H -48.5242 -8.46248 13.637
H -48.5716 -17.4844 15.5248
H -42.8181 -11.8165 13.4433
H -48.6462 -17.5433 13.4772
H -50.6813 -16.2594 15.5765
H -50.7672 -16.3213 13.5379
H -48.3573 -12.455 21.0794
H -44.8884 -14.44 21.0125
H -50.6065 -12.4694 21.3101
H -49.5698 -10.3162 21.2484
H -46.0804 -16.4634 21.1647
H -48.5028 -16.6363 21.0887
H -43.6164 -12.4901 21.0635
H -46.0627 -12.4757 21.0313
H -47.2781 -14.4615 21.0361
H -49.5963 -14.5364 21.109
H -44.8225 -10.4993 21.201
H -47.2201 -10.4346 21.1576
H -48.285 -8.6793 19.925
H -42.8785 -14.3981 17.5561
H -44.0194 -9.87441 17.7306
H -44.0586 -16.3475 17.6767
H -51.7122 -11.8255 17.9003
H -42.9176 -14.4342 19.6962
H -42.8566 -11.9298 19.6221
H -50.5617 -9.83348 17.7883
H -46.0928 -8.6858 17.7939
H -46.1051 -8.82366 20.021
H -44.1018 -16.2828 19.8532
H -46.1847 -17.5346 17.6742
H -50.517 -9.93614 19.8736
H -51.5751 -11.8486 20.063
H -43.9682 -9.99212 19.8438
H -51.7705 -14.2613 17.8435
H -46.2005 -17.4971 19.8207
H -51.589 -14.2693 20.0585
H -48.4013 -8.58701 17.7647
H -48.3733 -17.5368 19.6391
H -42.8289 -11.8718 17.5904
H -48.4578 -17.5122 17.5777
H -50.5754 -16.2213 19.8532
H -50.6174 -16.3045 17.6566
H -30.0036 -14.0263 4.6974
H -55.3342 2.95229 2.86596
H -37.7189 -27.465 2.82929
H -53.1646 -27.5146 3.05272
H -53.2343 -27.4625 5.24754
H -43.3131 -25.326 2.69557
H -43.3188 -25.332 4.8493
H -39.0282 -22.8583 2.76331
H -39.0217 -22.8973 4.88022
H -42.0395 -27.4983 2.63981
H -42.0839 -27.5107 4.81722
H -37.7483 -24.9682 2.85182
H -37.7941 -25.057 5.006
H -58.579 -9.25973 5.30998
H -57.232 -7.13415 5.31519
H -57.2837 -7.12925 3.18378
H -58.6153 -9.23826 3.13812
C -41.5288 -16.1825 28.1314
C -41.0519 -14.8924 28.1519
C -41.0376 -14.0783 27.0129
C -40.9922 -12.6642 27.0311
C -41.157 -11.946 25.824
C -41.613 -10.595 25.854
C -41.982 -9.955 24.639
C -42.871 -8.844 24.676
C -43.404 -8.32 23.464
C -44.631 -7.579 23.503
C -45.3054 -7.21754 22.3264
C -46.729 -6.95868 22.3567
C -47.5033 -6.73023 21.1762
C -48.9771 -6.90606 21.2282
C -49.806 -6.93792 20.0243
C -51.1313 -7.70318 20.0469
C -51.8017 -8.11451 18.8386
C -52.8095 -9.31022 18.823
C -53.2357 -10.0006 17.6331
C -53.8861 -11.3906 17.6627
C -54.0658 -12.1281 16.4552
C -54.0907 -13.6981 16.4091
C -54.1343 -14.4587 15.1676
C -53.5861 -15.936 15.0922
C -53.3276 -16.7722 13.9679
C -52.4674 -17.8907 13.9412
C -40.926 -11.8644 28.1815
C -41.3597 -10.5619 28.21
C -41.9078 -9.95476 27.0821
C -42.7916 -8.85783 27.1256
C -43.375 -8.396 25.928
C -44.594 -7.657 25.967
C -45.284 -7.384 24.753
C -46.68 -7.109 24.789
C -47.419 -7.03 23.575
C -48.838 -7.243 23.607
C -49.5909 -7.38262 22.4294
C -50.8133 -8.08148 22.431
C -51.5428 -8.38083 21.2468
C -52.5184 -9.51106 21.2374
C -53.1311 -10.0339 20.0468
C -53.7409 -11.4662 20.0571
C -53.9574 -12.2197 18.8379
C -54.0235 -13.7188 18.8242
C -54.0092 -14.4919 17.6025
C -53.427 -15.9269 17.5448
C -53.0913 -16.5989 16.3108
C -52.124 -17.8865 16.2859
C -51.6237 -18.3754 15.0013
C -50.1539 -19.2347 14.924
C -49.3664 -19.7447 13.8143
C -47.9708 -20.0428 13.7941
C -43.2667 -8.27691 28.2969
C -44.4406 -7.5526 28.3331
C -45.2235 -7.37704 27.1949
C -46.6042 -7.13632 27.2063
C -47.348 -7.19414 26.0049
C -48.742 -7.41071 26.0351
C -49.469 -7.534 24.848
C -50.719 -8.216 24.866
C -51.333 -8.604 23.642
C -52.278 -9.684 23.644
C -52.7354 -10.2729 22.4311
C -53.2704 -11.5962 22.4288
C -53.6497 -12.2673 21.2457
C -53.6823 -13.7554 21.2192
C -53.8061 -14.5052 19.9989
C -53.2402 -15.9525 19.9588
C -52.9776 -16.6116 18.724
C -52.0249 -17.9368 18.6938
C -51.4857 -18.4623 17.4515
C -50.1447 -19.2231 17.3931
C -49.412 -19.4827 16.1779
C -47.7872 -19.745 16.1331
C -47.0275 -19.8794 14.8816
C -45.4803 -19.7113 14.8694
C -44.5534 -19.6658 13.7748
C -43.3212 -18.9766 13.7503
C -47.3571 -6.93845 28.3583
C -48.725 -7.13914 28.3771
C -49.4187 -7.58089 27.2584
C -50.6477 -8.27241 27.2744
C -51.1963 -8.74414 26.0675
C -52.1317 -9.79363 26.0709
C -52.582 -10.335 24.873
C -53.099 -11.661 24.863
C -53.313 -12.331 23.625
C -53.342 -13.764 23.603
C -53.3417 -14.5004 22.3891
C -52.8434 -15.8331 22.3351
C -52.6636 -16.5556 21.1226
C -51.7669 -17.7286 21.1114
C -51.3652 -18.4067 19.9001
C -50.058 -19.1373 19.8498
C -49.3843 -19.4966 18.6126
C -47.8356 -19.747 18.5569
C -47.0305 -19.7556 17.3479
C -45.5137 -19.6367 17.3266
C -44.7875 -19.387 16.1167
C -43.4054 -18.5947 16.0698
C -42.7962 -18.1822 14.8186
C -41.7617 -16.9806 14.7823
C -41.202 -16.3005 13.6691
C -40.6355 -14.9944 13.7149
C -51.328 -8.649 28.4297
C -52.251 -9.66332 28.4287
C -52.5318 -10.3843 27.2765
C -53.0408 -11.7038 27.2706
C -53.1401 -12.3865 26.0553
C -53.184 -13.7995 26.0392
C -53.158 -14.481 24.82
C -52.699 -15.828 24.789
C -52.423 -16.454 23.541
C -51.529 -17.577 23.506
C -51.0522 -18.082 22.2885
C -49.8429 -18.8402 22.2385
C -49.2462 -19.2464 21.0313
C -47.7945 -19.5077 20.9726
C -47.0522 -19.7241 19.7638
C -45.4989 -19.5795 19.756
C -44.7555 -19.3526 18.5215
C -43.3832 -18.6274 18.4972
C -42.7722 -18.1595 17.2728
C -41.8165 -16.9322 17.25
C -41.422 -16.285 16.0345
C -40.7516 -14.8313 16.0866
C -40.6152 -14.0841 14.8303
C -40.5802 -12.3857 14.8571
C -40.5299 -11.4165 13.7883
C -41.0141 -10.0545 13.8069
C -53.3485 -12.4369 28.408
C -53.4161 -13.8107 28.3984
C -53.1283 -14.5296 27.2406
C -52.6409 -15.8451 27.2094
C -52.257 -16.4162 25.9746
C -51.3755 -17.5125 25.9407
C -50.936 -18.03 24.717
C -49.721 -18.771 24.679
C -49.103 -19.056 23.428
C -47.696 -19.334 23.39
C -47.0099 -19.3505 22.1496
C -45.5819 -19.1585 22.1356
C -44.8202 -19.1118 20.9491
C -43.5207 -18.412 20.9028
C -42.7995 -18.0951 19.6937
C -41.8251 -16.8984 19.6865
C -41.4006 -16.2505 18.4583
C -40.7222 -14.8063 18.4969
C -40.55 -14.0313 17.272
C -40.5387 -12.4655 17.2973
C -40.7126 -11.65 16.1373
C -41.3104 -10.1203 16.1429
C -41.6182 -9.36188 14.92
C -42.5411 -8.06174 15.0101
C -43.0772 -7.22622 13.9735
C -44.2967 -6.52719 14.0206
C -52.3937 -16.6193 28.3318
C -51.52 -17.6893 28.3064
C -50.8538 -18.0486 27.1447
C -49.6711 -18.8066 27.1087
C -49.016 -19.0148 25.8738
C -47.634 -19.328 25.855
C -46.955 -19.324 24.605
C -45.548 -19.109 24.576
C -44.887 -18.906 23.332
C -43.631 -18.214 23.314
C -43.0367 -17.7961 22.0899
C -42.1224 -16.7034 22.08
C -41.5983 -16.1391 20.8873
C -41.0185 -14.7625 20.913
C -40.6561 -14.0313 19.7283
C -40.6175 -12.5202 19.7422
C -40.6392 -11.7105 18.5309
C -41.2491 -10.2025 18.5519
C -41.6528 -9.47718 17.3739
C -42.5363 -8.21358 17.4534
C -43.1565 -7.69496 16.2831
C -44.5179 -6.90199 16.3222
C -45.2075 -6.49901 15.1112
C -46.7655 -6.24004 15.0938
C -47.6819 -6.00146 14.002
C -49.1086 -6.20672 14.026
C -49.0117 -19.2854 28.2339
C -47.66 -19.5606 28.2178
C -46.8979 -19.4065 27.059
C -45.4999 -19.1896 27.0275
C -44.848 -18.902 25.797
C -43.599 -18.215 25.779
C -43.077 -17.75 24.541
C -42.139 -16.679 24.537
C -41.76 -16.073 23.306
C -41.235 -14.738 23.317
C -41.0591 -14.004 22.1231
C -41.0342 -12.579 22.1348
C -40.933 -11.803 20.9529
C -41.468 -10.3931 20.9716
C -41.6655 -9.58841 19.7909
C -42.5745 -8.30541 19.857
C -43.1405 -7.75132 18.6717
C -44.467 -6.95251 18.7264
C -45.2062 -6.60435 17.5402
C -46.7512 -6.39253 17.5458
C -47.5306 -6.38418 16.3413
C -49.1552 -6.52432 16.387
C -49.8814 -6.72654 15.1286
C -51.3888 -7.52639 15.135
C -52.2749 -7.92471 14.0738
C -53.1603 -9.02586 14.0936
C -44.6853 -19.1176 28.1612
C -43.4721 -18.4697 28.1355
C -42.9877 -17.8244 26.9891
C -42.0621 -16.7595 26.9809
C -41.741 -16.094 25.771
C -41.223 -14.765 25.781
C -41.112 -14.05 24.557
C -41.078 -12.627 24.579
C -41.166 -11.897 23.36
C -41.629 -10.539 23.39
C -41.966 -9.85425 22.1898
C -42.8299 -8.70763 22.2348
C -43.2889 -8.0209 21.0762
C -44.5693 -7.31127 21.1158
C -45.2237 -6.76768 19.9495
C -46.7504 -6.56026 19.9607
C -47.5461 -6.42364 18.749
C -49.1512 -6.5635 18.7941
C -49.9334 -6.76958 17.5848
C -51.2625 -7.56805 17.6016
C -51.9106 -8.07186 16.4257
C -52.8663 -9.35512 16.4188
C -53.4092 -9.92976 15.1813
C -54.0625 -11.3682 15.2111
C -54.5238 -12.2002 14.1292
C -54.571 -13.6054 14.1062
H -42.8588 -18.5009 29.033
H -41.4525 -16.7669 29.0442
H -52.3403 -18.3969 12.9783
H -49.9076 -19.8416 12.8655
H -40.6539 -14.5092 29.0875
H -40.4533 -12.269 29.0728
H -47.5685 -20.4064 12.8422
H -44.861 -20.1837 12.8626
H -41.2162 -9.99619 29.1278
H -42.7012 -8.3586 29.2223
H -42.7019 -19.0787 12.854
H -41.1849 -16.8023 12.6986
H -44.745 -7.1185 29.2826
H -46.8741 -6.56671 29.2579
H -40.2194 -14.6233 12.7706
H -40.1503 -11.7566 12.8185
H -49.2653 -6.9244 29.2961
H -51.1515 -8.10559 29.3525
H -40.938 -9.49978 12.8688
H -42.5187 -7.19608 13.0339
H -52.801 -9.88109 29.3414
H -53.6087 -11.9119 29.3231
H -44.5678 -5.95965 13.128
H -47.2559 -5.71654 13.0333
H -53.7419 -14.3243 29.3008
H -52.9183 -16.4121 29.2599
H -49.6445 -6.09272 13.0758
H -52.1711 -7.37475 13.135
H -51.3919 -18.2723 29.215
H -49.5424 -19.4666 29.165
H -53.6762 -9.25211 13.1572
H -54.8639 -11.6761 13.2332
H -47.1983 -19.9268 29.1344
H -44.994 -19.6043 29.0849
H -54.8921 -14.0899 13.1755
H -53.8643 -16.5564 13.0445
C -41.8802 -15.6567 -7.96641
C -41.2437 -14.406 -7.96702
C -41.2354 -13.5033 -9.06816
C -41.2075 -12.003 -9.02666
C -41.3314 -11.1995 -10.2535
C -41.8804 -9.75202 -10.1768
C -42.3026 -9.0071 -11.3196
C -43.2425 -7.75668 -11.2561
C -43.9457 -7.23879 -12.3941
C -45.2379 -6.51168 -12.3392
C -46.1047 -6.37367 -13.4666
C -47.5342 -6.10153 -13.3952
C -48.333 -6.253 -14.559
C -49.764 -6.462 -14.52
C -50.46 -6.719 -15.736
C -51.716 -7.402 -15.717
C -52.285 -7.838 -16.944
C -53.224 -8.904 -16.947
C -53.623 -9.475 -18.186
C -54.086 -10.808 -18.2069
C -54.1944 -11.4566 -19.4579
C -54.2311 -12.8673 -19.4905
C -54.2974 -13.5414 -20.7285
C -53.8448 -14.8761 -20.7956
C -53.7266 -15.6356 -21.9551
C -52.8846 -16.7185 -22.0127
C -41.2379 -11.1463 -7.85653
C -41.7585 -9.83738 -7.80602
C -42.2449 -9.12864 -8.92589
C -43.1378 -7.87165 -8.83809
C -43.7818 -7.28427 -10.0121
C -45.0839 -6.47173 -9.92657
C -45.8562 -6.20342 -11.0889
C -47.4087 -5.90007 -11.0444
C -48.2548 -5.91707 -12.1871
C -49.8101 -6.05243 -12.1621
C -50.497 -6.52061 -13.3316
C -51.7904 -7.20742 -13.3442
C -52.282 -7.829 -14.481
C -53.234 -8.919 -14.484
C -53.586 -9.53 -15.722
C -54.107 -10.861 -15.748
C -54.248 -11.527 -16.997
C -54.28 -12.947 -17.04
C -54.1185 -13.5864 -18.2845
C -53.6829 -14.9159 -18.3409
C -53.3795 -15.4707 -19.6021
C -52.4972 -16.5665 -19.6679
C -52.0887 -17.0669 -20.9258
C -50.8664 -17.772 -21.0075
C -50.2654 -18.206 -22.1807
C -48.9205 -18.4898 -22.2435
C -43.663 -7.23827 -7.68937
C -44.8621 -6.50437 -7.59013
C -45.7065 -6.20686 -8.67698
C -47.3497 -5.94584 -8.64719
C -48.1531 -5.84929 -9.83436
C -49.8031 -5.99749 -9.76078
C -50.5525 -6.25373 -10.9431
C -51.8432 -6.99657 -10.9666
C -52.4592 -7.51999 -12.1455
C -53.4049 -8.75778 -12.1531
C -53.6744 -9.51113 -13.3057
C -54.2862 -10.8419 -13.3302
C -54.281 -11.589 -14.536
C -54.312 -13.034 -14.58
C -54.171 -13.693 -15.834
C -53.714 -15.047 -15.891
C -53.382 -15.614 -17.152
C -52.499 -16.725 -17.216
C -51.9479 -17.0647 -18.4698
C -50.7461 -17.7906 -18.5351
C -50.1502 -17.9821 -19.8032
C -48.7746 -18.2823 -19.8624
C -48.1182 -18.3258 -21.1189
C -46.7192 -18.1075 -21.1558
C -45.9447 -18.0678 -22.3074
C -44.7272 -17.4178 -22.3327
C -48.1656 -5.87862 -7.47277
C -49.6074 -6.02945 -7.45592
C -50.4633 -6.38758 -8.55041
C -51.7869 -7.1039 -8.53042
C -52.3929 -7.54073 -9.76469
C -53.4559 -8.81585 -9.78554
C -53.8593 -9.43593 -10.9925
C -54.4755 -10.8544 -10.9927
C -54.576 -11.6275 -12.1901
C -54.591 -13.1068 -12.2359
C -54.3446 -13.8269 -13.4323
C -53.8523 -15.2263 -13.4923
C -53.393 -15.75 -14.693
C -52.499 -16.886 -14.758
C -51.954 -17.265 -16.018
C -50.736 -18.011 -16.081
C -50.1 -18.192 -17.34
C -48.708 -18.471 -17.393
C -48.049 -18.3846 -18.6498
C -46.6541 -18.1569 -18.6815
C -46.0598 -17.8455 -19.9241
C -44.8114 -17.1774 -19.9474
C -44.2361 -16.7981 -21.1846
C -43.2928 -15.7386 -21.1783
C -42.7165 -15.1758 -22.3148
C -42.2077 -13.8954 -22.288
C -52.5568 -7.60465 -7.43703
C -53.3671 -8.76202 -7.429
C -53.7921 -9.49391 -8.57357
C -54.4351 -10.9465 -8.58659
C -54.6136 -11.6386 -9.81181
C -54.6277 -13.1882 -9.86561
C -54.4942 -13.9051 -11.0839
C -53.9762 -15.3753 -11.1335
C -53.6158 -16.029 -12.3411
C -52.71 -17.2711 -12.4335
C -52.0005 -17.5344 -13.6393
C -50.7963 -18.2886 -13.7003
C -50.057 -18.381 -14.884
C -48.639 -18.66 -14.938
C -47.959 -18.564 -16.187
C -46.546 -18.349 -16.226
C -45.926 -18.044 -17.469
C -44.68 -17.361 -17.487
C -44.2292 -16.8118 -18.7116
C -43.2998 -15.7553 -18.708
C -42.9979 -15.1306 -19.9378
C -42.4866 -13.8131 -19.9092
C -42.2862 -13.1273 -21.1321
C -42.2779 -11.7122 -21.0959
C -42.2056 -10.8996 -22.2285
C -42.6582 -9.59838 -22.1733
C -54.6379 -11.7909 -7.46191
C -54.6578 -13.1982 -7.51442
C -54.493 -14.0335 -8.68759
C -53.9003 -15.46 -8.71783
C -53.6046 -16.1181 -9.97108
C -52.6732 -17.4231 -10.0513
C -52.1438 -17.9037 -11.2735
C -50.8588 -18.6738 -11.3346
C -50.1451 -18.8095 -12.5732
C -48.6345 -19.0746 -12.6154
C -47.8889 -18.8484 -13.7907
C -46.4361 -18.6624 -13.8558
C -45.803 -18.229 -15.017
C -44.536 -17.532 -15.036
C -44.062 -16.986 -16.263
C -43.118 -15.912 -16.259
C -42.818 -15.248 -17.481
C -42.297 -13.927 -17.457
C -42.286 -13.1868 -18.6599
C -42.2501 -11.7791 -18.6226
C -42.4275 -11.0721 -19.8388
C -42.8819 -9.73558 -19.7881
C -43.1845 -9.06184 -21.0026
C -44.0414 -7.94026 -20.9366
C -44.4956 -7.21338 -22.0378
C -45.6737 -6.49814 -21.9654
C -53.5219 -16.2635 -7.62843
C -52.7457 -17.4259 -7.70843
C -52.0392 -17.9149 -8.86206
C -50.7084 -18.714 -8.92606
C -50.055 -18.9983 -10.1914
C -48.5125 -19.2601 -10.2292
C -47.7966 -19.2257 -11.4653
C -46.2474 -19.0674 -11.5004
C -45.575 -18.701 -12.7153
C -44.2276 -17.957 -12.7186
C -43.8124 -17.2657 -13.8728
C -42.8385 -16.1611 -13.8718
C -42.642 -15.375 -15.027
C -42.106 -14.032 -15.004
C -42.075 -13.277 -16.211
C -42.037 -11.849 -16.168
C -42.224 -11.114 -17.372
C -42.677 -9.769 -17.315
C -43.1293 -9.15606 -18.5194
C -44.0028 -8.04804 -18.4574
C -44.5775 -7.59145 -19.6694
C -45.7842 -6.86412 -19.6011
C -46.4306 -6.46071 -20.7953
C -47.8095 -6.1659 -20.7179
C -48.6176 -5.83511 -21.8063
C -49.9746 -6.08207 -21.7787
C -49.9211 -19.1921 -7.85364
C -48.5101 -19.3799 -7.90541
C -47.6907 -19.2866 -9.03434
C -46.1595 -19.1277 -9.04995
C -45.459 -18.8477 -10.3238
C -44.0941 -18.0461 -10.3584
C -43.5183 -17.5143 -11.5492
C -42.5291 -16.36 -11.5256
C -42.2146 -15.6377 -12.7126
C -41.6052 -14.2041 -12.6973
C -41.7409 -13.3858 -13.8301
C -41.6641 -11.9163 -13.7836
C -42.029 -11.168 -14.918
C -42.496 -9.8 -14.859
C -42.944 -9.167 -16.055
C -43.836 -8.052 -15.992
C -44.436 -7.574 -17.19
C -45.649 -6.837 -17.128
C -46.3702 -6.64552 -18.3292
C -47.7487 -6.37454 -18.2677
C -48.4712 -6.32545 -19.4783
C -49.8614 -6.53731 -19.4388
C -50.5915 -6.60992 -20.6474
C -51.848 -7.25383 -20.6169
C -52.5998 -7.54155 -21.7547
C -53.4518 -8.62221 -21.7747
C -45.2344 -18.9617 -7.97912
C -44.0249 -18.2696 -7.99843
C -43.4165 -17.6605 -9.10561
C -42.4106 -16.3366 -9.06778
C -42.0506 -15.6971 -10.3172
C -41.3976 -14.2592 -10.324
C -41.3213 -13.4699 -11.5061
C -41.2373 -11.9544 -11.4387
C -41.4543 -11.1537 -12.5985
C -42.0407 -9.70803 -12.5499
C -42.6387 -9.09347 -13.6781
C -43.5287 -7.87351 -13.5995
C -44.285 -7.561 -14.734
C -45.521 -6.812 -14.67
C -46.256 -6.582 -15.868
C -47.658 -6.302 -15.812
C -48.408 -6.282 -17.02
C -49.813 -6.493 -16.982
C -50.4916 -6.75337 -18.1907
C -51.7343 -7.41219 -18.1701
C -52.3106 -7.80364 -19.3966
C -53.2503 -8.8672 -19.4102
C -53.6758 -9.40799 -20.6484
C -54.179 -10.7266 -20.674
C -54.5802 -11.41 -21.8166
C -54.6873 -12.7827 -21.8305
H -43.4819 -18.2021 -7.05033
H -42.0465 -16.0926 -6.98065
H -52.8673 -17.3049 -22.931
H -50.8608 -18.36 -23.0783
H -40.8458 -14.0534 -7.01509
H -40.8919 -11.5803 -6.91305
H -48.5053 -18.8577 -23.1809
H -46.2801 -18.551 -23.2225
H -41.8846 -9.38722 -6.81922
H -43.0915 -7.37517 -6.77366
H -44.1563 -17.4142 -23.2609
H -42.6243 -15.745 -23.2387
H -45.1722 -6.15632 -6.60631
H -47.6466 -5.79919 -6.50375
H -41.7155 -13.5179 -23.1818
H -41.7996 -11.274 -23.1658
H -50.1142 -5.89356 -6.50208
H -52.3972 -7.11771 -6.4762
H -42.5874 -8.9943 -23.0748
H -43.9357 -7.18823 -22.9739
H -53.635 -9.17467 -6.44799
H -54.7358 -11.3119 -6.48984
H -45.9991 -5.95605 -22.8543
H -48.1878 -5.37865 -22.6994
H -54.7645 -13.7233 -6.562
H -53.8434 -15.9556 -6.62409
H -50.5505 -5.84085 -22.6699
H -52.505 -6.9376 -22.6552
H -52.6102 -18.01 -6.79925
H -50.4242 -19.3303 -6.89794
H -53.9801 -8.82237 -22.704
H -54.8586 -10.8851 -22.7266
H -48.0043 -19.4554 -6.9367
H -45.5475 -19.3701 -7.0133
H -55.0702 -13.2758 -22.7232
H -54.3217 -15.3973 -22.8358
C -78.0314 -11.9851 -8.02153
C -77.9713 -11.9902 -6.45415
C -78.0697 -14.9613 -8.52664
C -78.0045 -14.9559 -5.99429
C -79.427 -12.651 -5.878
C -79.468 -14.154 -7.988
C -79.448 -14.155 -6.405
C -79.456 -12.649 -8.511
C -75.3737 -12.0707 -8.13636
C -75.3019 -12.0755 -6.58516
C -75.4127 -14.9944 -8.61488
C -75.3197 -14.9785 -6.07029
C -76.6312 -12.7783 -6.02572
C -76.7267 -14.2424 -8.08201
C -76.6767 -14.2426 -6.53053
C -76.7313 -12.7677 -8.57591
C -72.7874 -12.091 -8.26824
C -72.7032 -12.0763 -6.71293
C -72.8046 -15.0213 -8.71185
C -72.6882 -14.9682 -6.15867
C -73.9946 -12.7971 -6.12767
C -74.0871 -14.274 -8.17275
C -74.0191 -14.2617 -6.61574
C -74.1152 -12.8191 -8.69093
C -70.2307 -12.0868 -8.43332
C -70.14 -12.0628 -6.87836
C -70.2466 -15.0366 -8.83389
C -70.1009 -14.9529 -6.29326
C -71.3929 -12.7843 -6.27117
C -71.5046 -14.2821 -8.29208
C -71.4234 -14.2473 -6.73849
C -71.5373 -12.8296 -8.83883
C -67.699 -12.0772 -8.60335
C -67.5972 -12.0509 -7.06345
C -67.7123 -15.0421 -9.02459
C -67.5337 -14.958 -6.46294
C -68.8281 -12.7735 -6.44471
C -68.9496 -14.2874 -8.45146
C -68.854 -14.2477 -6.90303
C -68.9947 -12.8355 -9.00168
C -65.1826 -12.0458 -8.78528
C -65.0806 -12.0249 -7.2388
C -65.1687 -15.0167 -9.23344
C -64.9768 -14.9529 -6.67021
C -66.2956 -12.7628 -6.62802
C -66.4168 -14.2836 -8.64423
C -66.3066 -14.2435 -7.08648
C -66.4686 -12.8128 -9.1844
C -62.6672 -12.0269 -8.92763
C -62.5748 -12.002 -7.38521
C -63.7913 -12.7275 -6.79353
C -63.9032 -14.2174 -8.81611
C -63.7941 -14.1783 -7.28297
C -63.9545 -12.7712 -9.35462
C -31.4224 -12.1772 -9.06089
C -31.5011 -12.1673 -7.51392
C -28.9027 -12.2329 -8.95035
C -28.9592 -12.2244 -7.39281
C -28.981 -15.1947 -9.36479
C -29.007 -15.1329 -6.80996
C -30.2641 -12.8973 -6.91387
C -30.2097 -14.3759 -8.91624
C -30.2397 -14.3592 -7.37443
C -30.1571 -12.9409 -9.48697
C -26.372 -12.2981 -8.86746
C -26.4086 -12.3113 -7.31855
C -26.4171 -15.2206 -9.36785
C -26.4283 -15.2082 -6.80795
C -27.7058 -12.9897 -6.83717
C -27.6853 -14.4723 -8.87571
C -27.7007 -14.4579 -7.31866
C -27.6406 -13.0113 -9.3999
C -23.8176 -12.3245 -8.81102
C -23.8455 -12.3613 -7.26059
C -23.8487 -15.2377 -9.37654
C -23.855 -15.2631 -6.81642
C -25.1407 -13.0637 -6.79494
C -25.1289 -14.505 -8.85928
C -25.1343 -14.5127 -7.31078
C -25.0907 -13.0372 -9.34729
C -21.2302 -12.338 -8.78353
C -21.2468 -12.3881 -7.23712
C -21.2465 -15.2511 -9.37678
C -21.2567 -15.2947 -6.82176
C -22.5572 -13.1109 -6.76836
C -22.5422 -14.527 -8.85678
C -22.5495 -14.5564 -7.3086
C -22.5258 -13.0451 -9.31264
C -18.5863 -12.3447 -8.81444
C -18.5827 -12.3857 -7.24481
C -18.6117 -15.3163 -9.37546
C -18.6254 -15.361 -6.811
C -19.915 -13.131 -6.76569
C -19.9124 -14.5498 -8.85434
C -19.9195 -14.5854 -7.30138
C -19.9086 -13.0641 -9.3161
C -17.246 -13.153 -6.741
C -17.252 -14.649 -8.856
C -17.261 -14.651 -7.272
C -17.229 -13.149 -9.378
C -77.8798 -10.5306 -8.57048
C -77.7402 -10.5508 -5.89725
C -75.2234 -7.66192 -8.12143
C -75.1307 -7.68465 -6.56842
C -75.3313 -10.6002 -8.63484
C -75.1973 -10.6071 -6.1004
C -76.3402 -8.42103 -5.94952
C -76.5676 -9.84143 -8.07445
C -76.4873 -9.85142 -6.52354
C -76.5011 -8.39194 -8.61976
C -72.6991 -7.67141 -8.28688
C -72.5956 -7.6884 -6.74358
C -72.7819 -10.6256 -8.78718
C -72.6279 -10.6131 -6.22811
C -73.8337 -8.42638 -6.16358
C -74.0083 -9.88071 -8.20894
C -73.9141 -9.88758 -6.66004
C -73.9951 -8.41122 -8.70584
C -70.1899 -7.6632 -8.46634
C -70.0783 -7.6693 -6.9175
C -70.2476 -10.6226 -8.95923
C -70.0788 -10.5989 -6.39654
C -71.3111 -8.41643 -6.33566
C -71.4752 -9.88468 -8.37591
C -71.3735 -9.88178 -6.83008
C -71.4843 -8.4082 -8.87899
C -67.6807 -7.65473 -8.64988
C -67.5636 -7.65286 -7.10756
C -67.7279 -10.6073 -9.12398
C -67.5475 -10.579 -6.58602
C -68.7896 -8.39535 -6.50656
C -68.9495 -9.87508 -8.54429
C -68.8487 -9.86674 -7.00277
C -68.9735 -8.40516 -9.06233
C -65.158 -7.63644 -8.83696
C -65.0504 -7.64333 -7.28941
C -65.2098 -10.5857 -9.31432
C -65.0292 -10.5548 -6.75857
C -66.2805 -8.3752 -6.69056
C -66.4318 -9.85369 -8.7312
C -66.3234 -9.83552 -7.18661
C -66.4593 -8.38163 -9.25106
C -62.6422 -7.64315 -8.99897
C -62.5375 -7.64488 -7.45352
C -62.6831 -10.5849 -9.47694
C -62.513 -10.5462 -6.91534
C -63.7611 -8.36941 -6.86467
C -63.9086 -9.84162 -8.90166
C -63.8076 -9.82896 -7.35124
C -63.9388 -8.37941 -9.41116
C -60.1327 -7.62846 -9.1602
C -60.0295 -7.6383 -7.62495
C -61.2443 -8.37526 -7.02657
C -61.387 -9.83754 -9.07204
C -61.2874 -9.83203 -7.52881
C -61.4204 -8.37477 -9.58591
C -33.9388 -7.74416 -9.24181
C -34.043 -7.79888 -7.70317
C -31.4381 -7.77907 -9.07429
C -31.5331 -7.82484 -7.52606
C -31.4016 -10.723 -9.59925
C -31.5466 -10.7105 -7.03796
C -32.8289 -8.53738 -7.12029
C -32.6791 -9.9552 -9.18131
C -32.7773 -9.97614 -7.63545
C -32.6573 -8.48988 -9.67488
C -28.9117 -7.83722 -8.94103
C -28.9986 -7.88041 -7.39158
C -28.8796 -10.7715 -9.47105
C -28.9975 -10.7711 -6.9073
C -30.2959 -8.57668 -6.96502
C -30.1602 -10.0018 -9.03131
C -30.2419 -10.017 -7.47969
C -30.1492 -8.53097 -9.5267
C -26.3906 -7.89596 -8.78955
C -26.4691 -7.94589 -7.24823
C -26.3505 -10.8266 -9.35918
C -26.4474 -10.8606 -6.80623
C -27.7578 -8.646 -6.83353
C -27.6333 -10.0709 -8.90665
C -27.7027 -10.0935 -7.36053
C -27.623 -8.59137 -9.38232
C -23.8785 -7.93314 -8.6567
C -23.9428 -7.99636 -7.11269
C -23.8113 -10.8495 -9.27512
C -23.8847 -10.9216 -6.71649
C -25.2217 -8.71962 -6.69606
C -25.1018 -10.1158 -8.79179
C -25.1555 -10.1569 -7.24558
C -25.1065 -8.63315 -9.25432
C -21.3406 -7.92254 -8.5645
C -21.3883 -8.00421 -7.01198
C -21.2586 -10.8465 -9.22459
C -21.302 -10.9444 -6.67701
C -22.6748 -8.76156 -6.59715
C -22.5585 -10.141 -8.70804
C -22.5931 -10.2012 -7.16847
C -22.5868 -8.64837 -9.14358
C -18.7107 -10.8452 -9.30202
C -18.7286 -10.9485 -6.59946
C -20.143 -8.76817 -6.4752
C -19.9851 -10.118 -8.6852
C -20.0068 -10.1925 -7.12333
C -20.0798 -8.63414 -9.14681
C -75.1991 -6.20944 -8.6418
C -75.0258 -6.25014 -5.99089
C -72.6855 -3.22482 -8.1858
C -72.553 -3.27151 -6.62994
C -72.7117 -6.18021 -8.75914
C -72.5222 -6.22677 -6.22609
C -73.7302 -4.05811 -5.99469
C -73.9405 -5.44733 -8.14677
C -73.8269 -5.48547 -6.6002
C -73.9612 -3.9831 -8.65988
C -70.1423 -3.23079 -8.40769
C -70.015 -3.27141 -6.86623
C -70.2098 -6.1769 -8.9585
C -70.0174 -6.20207 -6.41566
C -71.2399 -4.02169 -6.27651
C -71.4186 -5.44131 -8.3463
C -71.3021 -5.46793 -6.81282
C -71.4528 -3.95479 -8.81126
C -67.6148 -3.22769 -8.61711
C -67.4916 -3.26573 -7.08073
C -67.6994 -6.17649 -9.14493
C -67.5045 -6.18935 -6.60592
C -68.7224 -4.00593 -6.48371
C -68.9101 -5.44087 -8.54356
C -68.7872 -5.4599 -7.0053
C -68.9282 -3.96025 -9.03192
C -65.0832 -3.23058 -8.80644
C -64.9709 -3.26377 -7.26425
C -65.1773 -6.16403 -9.34317
C -64.9901 -6.18434 -6.773
C -66.2089 -3.9965 -6.68984
C -66.3926 -5.43774 -8.73509
C -66.2732 -5.45336 -7.19605
C -66.4038 -3.9592 -9.2229
C -62.5445 -3.23138 -8.96241
C -62.4446 -3.26792 -7.41682
C -62.6454 -6.17123 -9.5043
C -62.4656 -6.18544 -6.95005
C -63.6877 -4.00116 -6.84561
C -63.8626 -5.43189 -8.9146
C -63.7559 -5.45145 -7.36473
C -63.8587 -3.95686 -9.40788
C -60.0101 -3.2271 -9.1168
C -59.9148 -3.26487 -7.5711
C -60.1281 -6.1639 -9.66835
C -59.9583 -6.19216 -7.10665
C -61.1542 -4.00672 -7.01001
C -61.3402 -5.43128 -9.07762
C -61.2352 -5.45636 -7.53511
C -61.3219 -3.95907 -9.55943
C -57.4837 -3.2109 -9.27417
C -57.3895 -3.25777 -7.73437
C -58.6304 -4.00687 -7.15662
C -58.8191 -5.44266 -9.22797
C -58.7162 -5.46402 -7.6804
C -58.7885 -3.95819 -9.71557
C -36.6087 -3.39297 -9.18631
C -36.6938 -3.48938 -7.64624
C -34.0797 -3.37759 -9.0616
C -34.1694 -3.4706 -7.50919
C -33.9524 -6.27356 -9.6938
C -34.1053 -6.38291 -7.14302
C -35.4469 -4.24177 -7.11511
C -35.2567 -5.58373 -9.23278
C -35.3503 -5.6607 -7.69308
C -35.2998 -4.09303 -9.66766
C -31.5286 -3.41013 -8.91614
C -31.6196 -3.48975 -7.36577
C -31.4331 -6.30083 -9.54355
C -31.5866 -6.38881 -6.98169
C -32.9082 -4.21758 -6.97277
C -32.7377 -5.56968 -9.08771
C -32.8262 -5.64017 -7.54209
C -32.7621 -4.08784 -9.5301
C -28.9859 -3.45476 -8.74222
C -29.0848 -3.53216 -7.2042
C -28.9052 -6.35171 -9.3904
C -29.0633 -6.44771 -6.83821
C -30.3731 -4.25383 -6.81919
C -30.2044 -5.61455 -8.93697
C -30.2995 -5.6775 -7.38775
C -30.2132 -4.13109 -9.3705
C -26.4731 -3.49999 -8.56529
C -26.5709 -3.58718 -7.0212
C -26.397 -6.40528 -9.22697
C -26.5492 -6.51293 -6.67949
C -27.8587 -4.31163 -6.6475
C -27.682 -5.67254 -8.76987
C -27.7757 -5.73861 -7.23016
C -27.6862 -4.18371 -9.20155
C -23.9551 -3.50246 -8.39536
C -24.0418 -3.59694 -6.85127
C -23.8857 -6.43206 -9.07656
C -24.0171 -6.5663 -6.53738
C -25.3322 -4.35759 -6.47991
C -25.1748 -5.71229 -8.60584
C -25.2586 -5.78897 -7.06481
C -25.1781 -4.21282 -9.02245
C -21.392 -6.44154 -9.02705
C -21.5023 -6.58996 -6.3657
C -22.8292 -4.39398 -6.29012
C -22.6529 -5.7172 -8.47041
C -22.7266 -5.80688 -6.92488
C -22.6901 -4.23004 -8.91112
C -72.6729 -1.75891 -8.7059
C -72.4258 -1.8578 -6.00254
C -70.0776 1.18954 -8.24402
C -69.9522 1.12126 -6.68358
C -70.1571 -1.73981 -8.85424
C -69.9417 -1.82722 -6.32444
C -71.1258 0.341622 -6.02944
C -71.3917 -1.01135 -8.22022
C -71.2558 -1.06898 -6.65789
C -71.3641 0.456835 -8.73245
C -67.5397 1.17313 -8.44406
C -67.4195 1.10221 -6.91035
C -67.6201 -1.744 -9.0802
C -67.4245 -1.8243 -6.53364
C -68.6378 0.353847 -6.33616
C -68.8365 -1.02148 -8.43992
C -68.7115 -1.08058 -6.90172
C -68.8505 0.465666 -8.8775
C -64.9886 1.16983 -8.63639
C -64.886 1.09765 -7.09585
C -65.0853 -1.73941 -9.26611
C -64.9078 -1.81913 -6.72607
C -66.1276 0.347768 -6.54286
C -66.3062 -1.02214 -8.64905
C -66.1919 -1.08211 -7.10705
C -66.3126 0.46838 -9.08347
C -62.4318 1.1873 -8.79403
C -62.3406 1.11096 -7.25095
C -62.5303 -1.74886 -9.4261
C -62.3762 -1.82391 -6.8747
C -63.5903 0.355495 -6.71333
C -63.7603 -1.02953 -8.82316
C -63.6618 -1.08232 -7.2789
C -63.751 0.471955 -9.25729
C -59.8832 1.22062 -8.94063
C -59.7982 1.13072 -7.3882
C -59.9831 -1.72999 -9.57403
C -59.8376 -1.81956 -7.02505
C -61.0529 0.363408 -6.8565
C -61.2151 -1.01337 -8.97328
C -61.1251 -1.07534 -7.42524
C -61.2014 0.486933 -9.41032
C -57.3187 1.25126 -9.09244
C -57.234 1.15515 -7.5416
C -57.459 -1.70631 -9.74149
C -57.2999 -1.81041 -7.18894
C -58.4991 0.376007 -7.00762
C -58.6765 -0.989112 -9.12551
C -58.5843 -1.05867 -7.5785
C -58.6454 0.517182 -9.55818
C -54.7387 1.31152 -9.25617
C -54.6672 1.18362 -7.7073
C -55.9279 0.385377 -7.17584
C -56.1429 -0.970504 -9.29285
C -56.0524 -1.06082 -7.75523
C -56.0678 0.557339 -9.72459
C -52.146 1.44603 -9.36968
C -52.12 1.29251 -7.81694
C -53.3393 0.494056 -7.30455
C -53.4351 0.782862 -9.96609
C -49.577 1.48291 -9.37378
C -49.5798 1.33112 -7.83693
C -50.8311 0.575611 -7.35892
C -50.8505 0.856267 -10.0074
C -47.0251 1.47504 -9.29834
C -47.0587 1.3418 -7.75934
C -48.328 0.592749 -7.33691
C -48.2862 0.852625 -9.95661
C -44.4845 1.39847 -9.18656
C -44.5443 1.28749 -7.64417
C -45.8381 0.586827 -7.20942
C -45.7528 0.801691 -9.84286
C -41.9411 1.28239 -9.07213
C -41.997 1.18023 -7.52558
C -43.3236 0.519377 -7.07747
C -43.2174 0.689454 -9.71228
C -39.3676 1.11976 -8.99033
C -39.4289 1.0172 -7.43741
C -40.7798 0.382276 -6.96904
C -40.6788 0.554158 -9.62925
C -36.7976 1.05537 -8.90203
C -36.8632 0.950586 -7.34625
C -36.6678 -1.88365 -9.59663
C -36.7916 -2.05301 -7.05094
C -38.1662 0.179796 -6.94713
C -37.9895 -1.18105 -9.09763
C -38.0645 -1.28244 -7.55264
C -38.0619 0.351075 -9.49782
C -34.2206 1.00986 -8.78014
C -34.3037 0.910618 -7.22748
C -34.116 -1.88501 -9.47731
C -34.2584 -2.04707 -6.91785
C -35.5987 0.157785 -6.84686
C -35.4412 -1.17159 -8.98716
C -35.5206 -1.27609 -7.44563
C -35.4749 0.330067 -9.38904
C -31.6554 0.943881 -8.63156
C -31.7517 0.847443 -7.08395
C -31.5431 -1.91961 -9.32104
C -31.7011 -2.07208 -6.78428
C -33.0505 0.117733 -6.71204
C -32.8754 -1.20942 -8.85674
C -32.968 -1.30568 -7.30484
C -32.9019 0.284825 -9.25558
C -29.1032 0.895207 -8.45682
C -29.2125 0.796379 -6.92093
C -28.994 -1.96625 -9.16075
C -29.1752 -2.11665 -6.61729
C -30.5046 0.0624314 -6.5532
C -30.3126 -1.25294 -8.6988
C -30.4137 -1.34383 -7.16069
C -30.3327 0.228944 -9.1035
C -26.5566 0.876488 -8.25903
C -26.666 0.776156 -6.72288
C -26.4762 -2.00743 -8.97204
C -26.6537 -2.16544 -6.43489
C -27.9666 0.0230692 -6.37975
C -27.7771 -1.29335 -8.51556
C -27.8858 -1.38865 -6.98085
C -27.7858 0.193711 -8.90886
C -23.9787 -2.01757 -8.84825
C -24.1488 -2.19589 -6.20838
C -25.4593 0.000223919 -6.13901
C -25.2509 -1.30519 -8.33232
C -25.3537 -1.40646 -6.7853
C -25.2785 0.179769 -8.76642
C -70.0554 2.65483 -8.75102
C -69.8454 2.52503 -6.06341
C -67.4988 5.53854 -8.2258
C -67.3949 5.45108 -6.6784
C -67.543 2.65567 -8.87698
C -67.3612 2.52698 -6.33503
C -68.5875 4.6982 -6.07157
C -68.7808 3.3724 -8.24685
C -68.6712 3.29746 -6.69435
C -68.7689 4.83151 -8.73622
C -64.9526 5.54286 -8.38422
C -64.864 5.45204 -6.85137
C -64.9989 2.65855 -9.05597
C -64.8402 2.51812 -6.51547
C -66.0938 4.69095 -6.3154
C -66.2329 3.35172 -8.42901
C -66.1311 3.27013 -6.89476
C -66.2524 4.83656 -8.85141
C -62.4124 5.59651 -8.51223
C -62.3383 5.49573 -6.96192
C -62.4372 2.68592 -9.21601
C -62.2939 2.53698 -6.65882
C -63.5726 4.70443 -6.45405
C -63.6887 3.36549 -8.59456
C -63.601 3.27808 -7.04838
C -63.7058 4.86136 -9.00015
C -59.8681 5.65815 -8.60045
C -59.7967 5.54319 -7.05391
C -59.8793 2.73816 -9.34099
C -59.7443 2.56336 -6.79115
C -61.0327 4.75008 -6.55863
C -61.1289 3.41765 -8.7227
C -61.0501 3.3214 -7.17487
C -61.1516 4.9296 -9.12012
C -57.3032 5.71284 -8.69486
C -57.2356 5.58216 -7.14708
C -57.3177 2.78066 -9.47504
C -57.1907 2.59078 -6.92901
C -58.4802 4.78483 -6.66945
C -58.5707 3.46371 -8.84827
C -58.4932 3.35075 -7.30135
C -58.595 4.9873 -9.21619
C -54.7448 5.77195 -8.79265
C -54.6876 5.63212 -7.25355
C -54.7554 2.85636 -9.60478
C -54.6495 2.62305 -7.06286
C -55.9272 4.81672 -6.78085
C -56.0139 3.51361 -8.96897
C -55.9405 3.38628 -7.4293
C -56.0317 5.04407 -9.31892
C -52.1601 5.79371 -8.88291
C -52.1252 5.65185 -7.34039
C -52.1722 2.96196 -9.69664
C -52.1134 2.69758 -7.1671
C -53.3897 4.86143 -6.87779
C -53.4571 3.59217 -9.07905
C -53.4094 3.44727 -7.53714
C -53.4722 5.11482 -9.41742
C -49.5728 5.82032 -8.93689
C -49.5623 5.68412 -7.39419
C -49.5801 2.99369 -9.72558
C -49.5734 2.74009 -7.1946
C -50.834 4.88831 -6.94437
C -50.8731 3.63733 -9.14423
C -50.8562 3.49089 -7.60723
C -50.8754 5.14248 -9.48674
C -46.9753 5.82068 -8.92839
C -46.9962 5.69363 -7.37988
C -46.9974 2.97987 -9.67547
C -47.0564 2.76128 -7.13175
C -48.2876 4.92507 -6.95283
C -48.2869 3.6639 -9.14264
C -48.3049 3.52428 -7.60146
C -48.2741 5.16179 -9.50808
C -44.3966 5.76614 -8.87323
C -44.4376 5.65502 -7.32339
C -44.44 2.90224 -9.58048
C -44.5294 2.71511 -7.03665
C -45.7423 4.91695 -6.90761
C -45.7213 3.62929 -9.07347
C -45.7623 3.50883 -7.52468
C -45.6837 5.11916 -9.45708
C -41.8276 5.67581 -8.78595
C -41.8812 5.57423 -7.23376
C -41.8822 2.78961 -9.46962
C -41.9823 2.6171 -6.93693
C -43.1953 4.85497 -6.83084
C -43.1579 3.53276 -8.97809
C -43.2156 3.42943 -7.43818
C -43.1153 5.0283 -9.37848
C -39.2747 5.59941 -8.69055
C -39.332 5.50268 -7.14952
C -39.3249 2.65352 -9.37934
C -39.4202 2.48916 -6.84131
C -40.6404 4.76812 -6.7422
C -40.6029 3.42301 -8.87859
C -40.6599 3.32379 -7.33375
C -40.5519 4.9342 -9.28622
C -36.7315 5.50739 -8.60511
C -36.7934 5.42284 -7.05755
C -36.776 2.56939 -9.29406
C -36.8828 2.40185 -6.74287
C -38.1009 4.68648 -6.64783
C -38.0567 3.3238 -8.78694
C -38.1128 3.22266 -7.24019
C -38.0088 4.83924 -9.19743
C -34.202 5.41418 -8.49797
C -34.2721 5.33787 -6.95009
C -34.2134 2.50905 -9.18697
C -34.3483 2.34404 -6.62536
C -35.5801 4.60169 -6.55174
C -35.5082 3.24248 -8.692
C -35.5796 3.14428 -7.14184
C -35.4675 4.75297 -9.09992
C -31.6667 5.31984 -8.35897
C -31.7517 5.24716 -6.8149
C -31.6572 2.42964 -9.03057
C -31.8171 2.27584 -6.49046
C -33.0547 4.52605 -6.41971
C -32.9641 3.16563 -8.56304
C -33.0455 3.07903 -7.01194
C -32.9205 4.65595 -8.97723
C -29.1265 5.22808 -8.20132
C -29.2271 5.14576 -6.65776
C -29.1104 2.37849 -8.85713
C -29.2922 2.20807 -6.31732
C -30.5459 4.43026 -6.27956
C -30.4199 3.08956 -8.40399
C -30.5206 3.00148 -6.86369
C -30.3843 4.56829 -8.82106
C -26.589 2.34201 -8.71658
C -26.7917 2.16187 -6.07599
C -28.0526 4.33725 -6.04516
C -27.8674 3.04383 -8.21312
C -27.9862 2.94161 -6.66888
C -27.8607 4.49869 -8.69177
C -67.4895 6.99383 -8.70809
C -67.3218 6.83359 -6.0293
C -65.0353 9.9519 -8.10575
C -64.9727 9.85392 -6.54554
C -64.9806 7.04275 -8.78317
C -64.8437 6.88109 -6.24835
C -66.1365 9.02297 -5.98088
C -66.2399 7.72435 -8.17688
C -66.1504 7.62782 -6.62366
C -66.2662 9.19106 -8.65894
C -62.4796 10.0416 -8.16791
C -62.4294 9.93873 -6.61743
C -62.4546 7.10964 -8.90203
C -62.3471 6.93336 -6.35607
C -63.6571 9.11607 -6.15041
C -63.7061 7.77789 -8.29264
C -63.6352 7.67515 -6.7583
C -63.7486 9.28342 -8.68478
C -59.9429 10.1044 -8.22743
C -59.8904 9.99555 -6.67494
C -59.9082 7.17686 -8.98045
C -59.8132 6.97406 -6.43121
C -61.1322 9.18487 -6.20153
C -61.179 7.84861 -8.38762
C -61.1173 7.73605 -6.83739
C -61.2151 9.36998 -8.76183
C -57.3699 10.1325 -8.29744
C -57.3145 10.0321 -6.75439
C -57.3517 7.23147 -9.05313
C -57.2536 7.01615 -6.50983
C -58.5776 9.22549 -6.27646
C -58.6254 7.89778 -8.4474
C -58.5657 7.77658 -6.90534
C -58.6642 9.41802 -8.8184
C -54.7814 10.1383 -8.37472
C -54.7333 10.0393 -6.83068
C -54.7754 7.28137 -9.1482
C -54.6923 7.05235 -6.60088
C -56.0071 9.25796 -6.35293
C -56.0588 7.94497 -8.53032
C -56.006 7.82195 -6.98599
C -56.0934 9.45347 -8.89885
C -52.1811 10.1311 -8.45265
C -52.139 10.0386 -6.90792
C -52.1812 7.2976 -9.23038
C -52.1179 7.061 -6.68104
C -53.4179 9.26935 -6.4334
C -53.4633 7.96099 -8.61296
C -53.4213 7.84075 -7.06775
C -53.4906 9.46072 -8.97402
C -49.5762 10.1265 -8.50749
C -49.5513 10.0344 -6.96479
C -49.5716 7.31816 -9.28985
C -49.5445 7.08963 -6.74387
C -50.8402 9.27103 -6.49644
C -50.872 7.97044 -8.69048
C -50.8456 7.84832 -7.14058
C -50.8903 9.46293 -9.05129
C -46.9581 10.1073 -8.53288
C -46.9542 10.012 -6.99101
C -46.9604 7.31766 -9.30356
C -46.977 7.10407 -6.7512
C -48.26 9.26632 -6.54455
C -48.2701 7.97645 -8.72826
C -48.2642 7.86193 -7.18712
C -48.2749 9.46143 -9.08839
C -44.3343 10.0867 -8.53397
C -44.3505 9.99572 -6.98519
C -44.3556 7.25942 -9.26565
C -44.4123 7.07336 -6.71271
C -45.6612 9.25391 -6.55177
C -45.6562 7.95631 -8.73595
C -45.6741 7.84897 -7.18664
C -45.6451 9.4421 -9.10143
C -41.7458 10.0495 -8.49796
C -41.772 9.96965 -6.95408
C -41.7843 7.17603 -9.18468
C -41.8534 7.01124 -6.63473
C -43.0757 9.22934 -6.51806
C -43.0656 7.90408 -8.67646
C -43.1014 7.80525 -7.12808
C -43.0351 9.39118 -9.06885
C -39.1648 9.99741 -8.45442
C -39.2035 9.92962 -6.89758
C -39.2227 7.09884 -9.10542
C -39.3045 6.95416 -6.55254
C -40.5179 9.19383 -6.4631
C -40.5004 7.83673 -8.60236
C -40.5457 7.75019 -7.0475
C -40.4606 9.32827 -9.01613
C -36.5989 9.94709 -8.39585
C -36.6484 9.88322 -6.84061
C -36.6745 7.0156 -9.02637
C -36.7693 6.88333 -6.47111
C -37.9597 9.14771 -6.39517
C -37.9433 7.77 -8.52599
C -37.9927 7.69355 -6.97427
C -37.8857 9.26234 -8.96535
C -34.0604 9.85834 -8.31398
C -34.1132 9.80118 -6.76648
C -34.1421 6.91326 -8.92594
C -34.2485 6.79472 -6.37675
C -35.4213 9.08244 -6.32363
C -35.4022 7.69083 -8.44087
C -35.4641 7.6211 -6.88932
C -35.3376 9.18526 -8.88878
C -31.5188 9.73067 -8.21099
C -31.5787 9.67469 -6.661
C -31.6082 6.80281 -8.79614
C -31.7406 6.69707 -6.25141
C -32.9079 8.97803 -6.24062
C -32.8743 7.57463 -8.33592
C -32.9436 7.5156 -6.7903
C -32.8038 9.06591 -8.78898
C -29.1005 6.68438 -8.70582
C -29.2548 6.55864 -6.03775
C -30.408 8.8369 -6.06216
C -30.3353 7.46556 -8.19845
C -30.4139 7.40182 -6.64943
C -30.2908 8.93116 -8.71417
C -65.0713 11.4291 -8.59332
C -64.9918 11.2567 -5.87803
C -62.5518 11.5649 -8.56796
C -62.4771 11.405 -5.9902
C -63.8628 12.1615 -8.02231
C -63.8133 12.0849 -6.40918
C -60.028 14.555 -7.939
C -59.984 14.508 -6.384
C -59.9932 11.6333 -8.60371
C -59.9091 11.472 -6.0508
C -61.26 13.755 -5.791
C -61.2993 12.3426 -8.01456
C -61.2507 12.2541 -6.44699
C -61.347 13.855 -8.46
C -57.377 14.506 -8.059
C -57.336 14.473 -6.503
C -57.3975 11.6364 -8.68144
C -57.3086 11.4918 -6.13897
C -58.64 13.774 -5.92
C -58.6827 12.3464 -8.0977
C -58.6337 12.278 -6.52888
C -58.72 13.843 -8.566
C -54.755 14.467 -8.158
C -54.717 14.442 -6.6
C -54.7918 11.6259 -8.76498
C -54.7091 11.483 -6.21514
C -56.014 13.744 -6.022
C -56.0772 12.3254 -8.18148
C -56.0263 12.265 -6.61722
C -56.087 13.794 -8.671
C -52.144 14.434 -8.235
C -52.113 14.415 -6.678
C -52.1844 11.6076 -8.83686
C -52.1206 11.4811 -6.28733
C -53.406 13.716 -6.105
C -53.4691 12.2986 -8.2646
C -53.4235 12.2489 -6.70379
C -53.469 13.755 -8.756
C -49.544 14.405 -8.293
C -49.517 14.388 -6.735
C -49.5772 11.5929 -8.90547
C -49.5309 11.4666 -6.33786
C -50.809 13.69 -6.17
C -50.8686 12.2808 -8.33134
C -50.8344 12.2356 -6.76599
C -50.861 13.724 -8.823
C -46.945 14.38 -8.328
C -46.925 14.362 -6.771
C -46.9516 11.573 -8.92586
C -46.9386 11.439 -6.36935
C -48.219 13.662 -6.217
C -48.255 12.257 -8.37383
C -48.2359 12.2142 -6.81166
C -48.258 13.696 -8.87
C -44.349 14.36 -8.344
C -44.336 14.337 -6.786
C -44.3301 11.5498 -8.94202
C -44.3353 11.4264 -6.37687
C -45.631 13.635 -6.243
C -45.64 12.2316 -8.39547
C -45.6305 12.1868 -6.83105
C -45.658 13.674 -8.897
C -41.753 14.343 -8.335
C -41.745 14.312 -6.777
C -41.7294 11.5186 -8.92818
C -41.7554 11.406 -6.37018
C -43.046 13.608 -6.25
C -43.0322 12.2157 -8.40317
C -43.0339 12.1685 -6.84197
C -43.058 13.658 -8.904
C -39.155 14.328 -8.304
C -39.153 14.285 -6.746
C -39.1327 11.4742 -8.89519
C -39.1779 11.3794 -6.3293
C -40.458 13.58 -6.235
C -40.4326 12.1899 -8.38514
C -40.4478 12.1425 -6.82003
C -40.459 13.646 -8.888
C -36.549 14.319 -8.243
C -36.554 14.258 -6.691
C -36.5514 11.4407 -8.84178
C -36.6099 11.3467 -6.28999
C -37.866 13.547 -6.2
C -37.8443 12.1654 -8.35002
C -37.869 12.1119 -6.78514
C -37.853 13.639 -8.848
C -33.9893 11.3611 -8.77358
C -34.0659 11.2678 -6.22936
C -35.257 13.52 -6.145
C -35.2593 12.1392 -8.29159
C -35.2951 12.0759 -6.74091
C -35.232 13.649 -8.778
C -31.4755 11.1985 -8.7526
C -31.5585 11.1054 -6.07632
C -32.6794 12.0277 -8.22522
C -32.7202 11.9624 -6.66515
C -77.9135 -16.4682 -8.05341
C -77.8766 -16.4586 -6.49385
C -75.3232 -16.462 -8.11115
C -75.2795 -16.4465 -6.56142
C -75.196 -19.4231 -8.5727
C -75.1564 -19.3767 -6.0106
C -76.5358 -17.1888 -6.02366
C -76.4772 -18.6904 -8.06561
C -76.4545 -18.6729 -6.51125
C -76.5969 -17.2097 -8.57871
C -72.7362 -16.4642 -8.16969
C -72.679 -16.4352 -6.62417
C -72.6777 -19.3999 -8.60264
C -72.6008 -19.329 -6.04442
C -73.9445 -17.1478 -6.0769
C -73.9412 -18.6616 -8.09117
C -73.9056 -18.6303 -6.54011
C -74.0228 -17.1992 -8.62133
C -70.1832 -16.4748 -8.28114
C -70.1016 -16.4289 -6.732
C -70.1715 -19.4223 -8.66522
C -70.0474 -19.3272 -6.12579
C -71.3554 -17.1391 -6.14889
C -71.4098 -18.6608 -8.14593
C -71.3514 -18.6142 -6.60062
C -71.4718 -17.2191 -8.69374
C -67.653 -16.4837 -8.46036
C -67.5446 -16.4325 -6.91479
C -67.6735 -19.4489 -8.8234
C -67.4935 -19.335 -6.27199
C -68.781 -17.1407 -6.28484
C -68.8914 -18.6789 -8.26006
C -68.8018 -18.6237 -6.71786
C -68.9511 -17.2367 -8.83212
C -65.1075 -16.4938 -8.70549
C -64.976 -16.4431 -7.14411
C -65.1859 -19.513 -9.02442
C -64.9682 -19.3529 -6.4953
C -66.224 -17.1367 -6.49485
C -66.3841 -18.6998 -8.46245
C -66.2696 -18.6284 -6.92042
C -66.436 -17.2463 -9.03814
C -62.6943 -19.6203 -9.31045
C -62.4689 -19.4225 -6.65714
C -63.6932 -17.2096 -6.69241
C -63.8693 -18.7761 -8.71403
C -63.7389 -18.6802 -7.15471
C -63.9517 -17.3493 -9.3596
C -31.597 -19.6179 -9.20845
C -31.5161 -19.6111 -6.54686
C -29.0382 -16.6535 -8.79495
C -29.0146 -16.624 -7.25272
C -29.0672 -19.5942 -9.2278
C -28.9943 -19.5881 -6.68357
C -30.2087 -17.409 -6.61905
C -30.3291 -18.8666 -8.69666
C -30.2801 -18.8624 -7.14842
C -30.3 -17.4307 -9.27326
C -26.4575 -16.6731 -8.84508
C -26.4395 -16.6628 -7.30756
C -26.5304 -19.5968 -9.31548
C -26.4661 -19.5859 -6.76658
C -27.7127 -17.3618 -6.76765
C -27.7746 -18.8573 -8.78296
C -27.7389 -18.8447 -7.24219
C -27.7596 -17.396 -9.30922
C -23.8907 -16.7105 -8.88923
C -23.8788 -16.7136 -7.34043
C -23.966 -19.6294 -9.39612
C -23.9197 -19.6314 -6.83153
C -25.1645 -17.4108 -6.81646
C -25.2254 -18.8828 -8.86368
C -25.1935 -18.8817 -7.31634
C -25.2012 -17.4185 -9.37375
C -21.3019 -16.7295 -8.90602
C -21.2972 -16.7451 -7.35347
C -21.4036 -19.6764 -9.42534
C -21.3809 -19.6762 -6.8617
C -22.6025 -17.4595 -6.85486
C -22.6562 -18.9238 -8.91177
C -22.6411 -18.9257 -7.3599
C -22.6154 -17.4477 -9.40895
C -18.7248 -16.7989 -8.90779
C -18.7212 -16.8164 -7.36142
C -20.03 -17.4981 -6.86274
C -20.1132 -18.9617 -8.92231
C -20.1019 -18.963 -7.37387
C -20.0416 -17.483 -9.42253
C -75.1446 -20.8816 -8.04141
C -75.1202 -20.8477 -6.49571
C -72.6406 -20.8556 -8.06248
C -72.5986 -20.8084 -6.51553
C -72.6292 -23.8049 -8.47528
C -72.5588 -23.7113 -5.90325
C -73.8473 -21.5385 -5.97526
C -73.8647 -23.0575 -7.96837
C -73.8247 -23.0074 -6.42413
C -73.8979 -21.6186 -8.53789
C -70.1259 -20.8637 -8.11824
C -70.0631 -20.8107 -6.57193
C -70.1272 -23.8027 -8.54004
C -70.0376 -23.7147 -5.96656
C -71.3132 -21.5135 -6.00635
C -71.3662 -23.0512 -8.01733
C -71.3197 -22.9941 -6.46368
C -71.3904 -21.6015 -8.57523
C -67.6128 -20.8938 -8.24444
C -67.5309 -20.8233 -6.70209
C -67.6291 -23.8491 -8.62543
C -67.5135 -23.7454 -6.06665
C -68.7672 -21.5224 -6.10257
C -68.8571 -23.0693 -8.09808
C -68.7882 -23.015 -6.55118
C -68.8911 -21.6241 -8.65118
C -65.125 -20.9405 -8.41374
C -65.0219 -20.8512 -6.87802
C -65.1394 -23.9137 -8.7373
C -65.008 -23.791 -6.17853
C -66.2451 -21.5439 -6.23431
C -66.3516 -23.1219 -8.20385
C -66.2773 -23.0485 -6.65957
C -66.4024 -21.68 -8.7869
C -62.6145 -21.0271 -8.61944
C -62.4994 -20.9084 -7.07039
C -62.6343 -23.9996 -8.85996
C -62.5037 -23.8442 -6.31835
C -63.739 -21.589 -6.42064
C -63.858 -23.1943 -8.34685
C -63.7763 -23.1006 -6.80289
C -63.9163 -21.7629 -8.94706
C -60.1333 -24.0581 -9.03852
C -60.015 -23.9057 -6.38854
C -61.2559 -21.6654 -6.51314
C -61.3396 -23.2594 -8.49304
C -61.2648 -23.1567 -6.93217
C -61.4229 -21.8607 -9.16873
C -34.2091 -24.0762 -9.21684
C -34.1662 -24.1032 -6.57257
C -31.6545 -21.0621 -8.65383
C -31.6177 -21.0708 -7.09588
C -31.6933 -24.0217 -9.18606
C -31.6526 -24.0616 -6.65731
C -32.8506 -21.8632 -6.53122
C -32.9653 -23.3002 -8.66611
C -32.9387 -23.3143 -7.12199
C -32.9054 -21.8359 -9.19886
C -29.088 -21.0575 -8.71569
C -29.0468 -21.0632 -7.17012
C -29.1745 -23.992 -9.24418
C -29.1183 -24.028 -6.68847
C -30.3275 -21.8126 -6.63437
C -30.4153 -23.268 -8.68929
C -30.3828 -23.2828 -7.15388
C -30.3888 -21.796 -9.18252
C -26.5491 -21.0652 -8.7989
C -26.5101 -21.0664 -7.24765
C -26.6453 -24.0144 -9.31515
C -26.5718 -24.0452 -6.76445
C -27.7815 -21.8011 -6.70609
C -27.8767 -23.2654 -8.76677
C -27.8433 -23.2773 -7.22125
C -27.8529 -21.7894 -9.26062
C -23.9995 -21.1019 -8.87904
C -23.9693 -21.1042 -7.32682
C -24.1047 -24.0373 -9.38729
C -24.0423 -24.0676 -6.82404
C -25.2393 -21.8244 -6.77402
C -25.3379 -23.2916 -8.84161
C -25.3004 -23.3037 -7.27984
C -25.3072 -21.8155 -9.3455
C -21.4619 -21.1467 -8.9161
C -21.44 -21.1457 -7.36653
C -22.7136 -21.8596 -6.84097
C -22.8199 -23.3274 -8.89834
C -22.7833 -23.3283 -7.35044
C -22.7584 -21.8577 -9.40492
C -72.6185 -25.232 -7.89335
C -72.5645 -25.1852 -6.35551
C -70.1177 -25.2531 -7.98192
C -70.0574 -25.2082 -6.41829
C -70.1282 -28.1612 -8.45045
C -70.0325 -28.159 -5.8852
C -71.3054 -25.9277 -5.85939
C -71.3672 -27.426 -7.88597
C -71.3 -27.403 -6.34385
C -71.3974 -25.9864 -8.42791
C -67.603 -25.288 -8.06903
C -67.535 -25.2414 -6.51161
C -67.5949 -28.1923 -8.52899
C -67.5176 -28.1872 -5.96303
C -68.7823 -25.9556 -5.94089
C -68.8496 -27.4526 -7.98443
C -68.7939 -27.4323 -6.43024
C -68.8807 -26.0069 -8.50989
C -65.086 -25.3448 -8.15328
C -65.0226 -25.2882 -6.61063
C -65.0704 -28.2733 -8.58441
C -64.9992 -28.2343 -6.01981
C -66.2575 -25.9898 -6.03604
C -66.3178 -27.4982 -8.05532
C -66.2666 -27.4714 -6.50739
C -66.3608 -26.0564 -8.5885
C -62.581 -25.4265 -8.26952
C -62.5132 -25.3535 -6.72185
C -62.5544 -28.3561 -8.65241
C -62.4647 -28.294 -6.08515
C -63.7528 -26.0454 -6.11684
C -63.8033 -27.5739 -8.1187
C -63.7505 -27.5317 -6.57391
C -63.8596 -26.1366 -8.68388
C -60.0488 -25.4718 -8.39974
C -59.9809 -25.3883 -6.8518
C -60.0033 -28.4314 -8.74059
C -59.9052 -28.3324 -6.18934
C -61.2218 -26.0917 -6.25117
C -61.2649 -27.6514 -8.22222
C -61.2077 -27.5972 -6.67279
C -61.3417 -26.2092 -8.78897
C -57.4775 -28.4737 -8.89794
C -57.3784 -28.3435 -6.22506
C -58.7174 -26.1233 -6.30618
C -58.7117 -27.6898 -8.32966
C -58.6541 -27.6118 -6.77968
C -58.8359 -26.2658 -8.96978
C -36.814 -28.5469 -9.19398
C -36.7044 -28.5273 -6.5128
C -34.2501 -25.5365 -8.69187
C -34.2215 -25.5496 -7.14893
C -34.2891 -28.503 -9.21412
C -34.2076 -28.4969 -6.6721
C -35.4467 -26.318 -6.5916
C -35.5531 -27.7716 -8.69
C -35.4976 -27.7732 -7.13371
C -35.4993 -26.3097 -9.23726
C -31.7118 -25.5067 -8.73322
C -31.6787 -25.5257 -7.18964
C -31.7523 -28.4609 -9.29357
C -31.6847 -28.4663 -6.72803
C -32.9344 -26.2889 -6.69271
C -33.0007 -27.744 -8.74945
C -32.9613 -27.7508 -7.21122
C -32.9849 -26.265 -9.22207
C -29.1874 -25.4774 -8.77278
C -29.1506 -25.4967 -7.22136
C -29.2172 -28.4384 -9.35983
C -29.1556 -28.4626 -6.78829
C -30.4108 -26.2556 -6.71538
C -30.4719 -27.7101 -8.8095
C -30.4284 -27.725 -7.25231
C -30.4657 -26.2176 -9.2775
C -26.6636 -25.4945 -8.84383
C -26.6211 -25.5105 -7.292
C -26.7034 -28.4252 -9.42167
C -26.6364 -28.4611 -6.84456
C -27.8763 -26.2542 -6.76819
C -27.9492 -27.6977 -8.86343
C -27.9074 -27.7168 -7.30601
C -27.9453 -26.2167 -9.32585
C -24.1444 -25.5017 -8.90925
C -24.0998 -25.5238 -7.36408
C -25.3518 -26.2676 -6.83716
C -25.4413 -27.6914 -8.93076
C -25.3947 -27.7149 -7.38389
C -25.4281 -26.2251 -9.40146
C -70.0795 -29.616 -7.96081
C -70.0296 -29.6179 -6.41668
C -67.5445 -29.6448 -8.03866
C -67.5107 -29.6618 -6.48681
C -67.521 -32.532 -8.6594
C -67.5097 -32.616 -6.07926
C -68.7649 -30.3919 -5.97108
C -68.7771 -31.8036 -8.09484
C -68.7634 -31.8365 -6.54454
C -68.8241 -30.335 -8.53939
C -65.0062 -29.7252 -8.07187
C -64.9779 -29.7203 -6.51415
C -64.9699 -32.6175 -8.64261
C -64.967 -32.6741 -6.07853
C -66.2441 -30.4369 -6.00337
C -66.24 -31.8619 -8.11824
C -66.2322 -31.8948 -6.56154
C -66.2844 -30.395 -8.58588
C -62.4686 -29.8032 -8.10822
C -62.4356 -29.7845 -6.55675
C -62.4294 -32.7302 -8.62617
C -62.4187 -32.7472 -6.06389
C -63.7018 -30.4968 -6.03527
C -63.6888 -31.9528 -8.1132
C -63.684 -31.968 -6.56326
C -63.745 -30.4905 -8.59839
C -59.9136 -29.8798 -8.18094
C -59.8779 -29.8381 -6.62789
C -59.8767 -32.8162 -8.62587
C -59.8532 -32.8053 -6.07029
C -61.1511 -30.5446 -6.06654
C -61.149 -32.0391 -8.11097
C -61.1376 -32.0327 -6.55689
C -61.1999 -30.5829 -8.64529
C -57.315 -29.9132 -8.25798
C -57.2831 -29.8474 -6.70719
C -57.3269 -32.8933 -8.65704
C -57.295 -32.853 -6.10473
C -58.5617 -30.5804 -6.14016
C -58.5912 -32.1119 -8.14693
C -58.5718 -32.0833 -6.60445
C -58.6236 -30.659 -8.68972
C -54.6625 -30.0766 -8.27689
C -54.6437 -30.0286 -6.73576
C -54.7501 -32.9939 -8.67984
C -54.7295 -32.9358 -6.13979
C -55.9807 -30.6428 -6.19561
C -56.0241 -32.1907 -8.19387
C -56.008 -32.1574 -6.64639
C -56.0126 -30.7172 -8.7444
C -52.1018 -30.1935 -8.28891
C -52.0823 -30.1546 -6.75149
C -52.1773 -33.0978 -8.70551
C -52.149 -33.0368 -6.14824
C -53.3844 -30.7981 -6.21231
C -53.4391 -32.3129 -8.20953
C -53.4209 -32.2756 -6.66202
C -53.4125 -30.8763 -8.76438
C -49.589 -30.2579 -8.32601
C -49.5651 -30.2128 -6.78212
C -49.6222 -33.166 -8.74455
C -49.587 -33.0946 -6.17244
C -50.8298 -30.8974 -6.23256
C -50.877 -32.4082 -8.23781
C -50.8574 -32.367 -6.6895
C -50.8644 -30.9666 -8.79414
C -47.0904 -30.2681 -8.35645
C -47.0624 -30.2246 -6.81357
C -47.0675 -33.1846 -8.76959
C -47.0298 -33.1107 -6.19908
C -48.305 -30.9344 -6.26262
C -48.3382 -32.4484 -8.27283
C -48.3119 -32.4036 -6.71682
C -48.349 -31.0097 -8.8301
C -44.5606 -30.2287 -8.40313
C -44.5316 -30.1826 -6.86211
C -44.5257 -33.154 -8.80826
C -44.4777 -33.0849 -6.24391
C -45.7786 -30.9024 -6.29735
C -45.796 -32.4311 -8.30642
C -45.7716 -32.3837 -6.74537
C -45.8264 -30.9842 -8.86311
C -42.0148 -30.2094 -8.45849
C -41.9817 -30.1596 -6.91095
C -41.9833 -33.1205 -8.85126
C -41.9241 -33.0451 -6.2945
C -43.2382 -30.8738 -6.35081
C -43.2565 -32.3979 -8.34956
C -43.2264 -32.3524 -6.79653
C -43.2912 -30.956 -8.90709
C -39.4786 -30.1416 -8.50951
C -39.4338 -30.1043 -6.97086
C -39.428 -33.0638 -8.92253
C -39.3423 -32.9927 -6.36849
C -40.6787 -30.8421 -6.40312
C -40.7058 -32.3573 -8.40484
C -40.6633 -32.316 -6.8499
C -40.7403 -30.9208 -8.96166
C -36.8854 -30.0013 -8.59821
C -36.8257 -29.9816 -7.04244
C -36.887 -32.9866 -9.03714
C -36.7749 -32.9415 -6.48566
C -38.0986 -30.741 -6.47922
C -38.1476 -32.2709 -8.49369
C -38.0867 -32.24 -6.94131
C -38.176 -30.7963 -9.03916
C -34.3119 -29.9714 -8.69748
C -34.2491 -29.9663 -7.15332
C -34.3418 -32.9101 -9.1692
C -34.2251 -32.8956 -6.62289
C -35.5044 -30.7114 -6.59039
C -35.6019 -32.2043 -8.61004
C -35.5267 -32.1858 -7.06415
C -35.6104 -30.7378 -9.12981
C -31.7514 -29.9296 -8.79142
C -31.7045 -29.938 -7.23423
C -31.7897 -32.8543 -9.29853
C -31.669 -32.858 -6.73545
C -32.9554 -30.673 -6.68709
C -33.0396 -32.1445 -8.73279
C -32.9696 -32.1434 -7.18582
C -33.0549 -30.6801 -9.24628
C -29.2044 -29.9097 -8.87022
C -29.1651 -29.9208 -7.31143
C -29.2346 -32.8218 -9.4081
C -29.1391 -32.8473 -6.84843
C -30.4122 -30.664 -6.77237
C -30.492 -32.1109 -8.84987
C -30.4273 -32.1173 -7.29513
C -30.4948 -30.6461 -9.34645
C -26.6851 -29.8918 -8.92702
C -26.6419 -29.9106 -7.37604
C -27.88 -30.6669 -6.85361
C -27.9507 -32.0992 -8.92753
C -27.9018 -32.1118 -7.38846
C -27.9463 -30.6378 -9.41758
C -67.5111 -34.0035 -8.20452
C -67.5249 -34.0508 -6.65908
C -64.9658 -34.092 -8.18395
C -64.9818 -34.13 -6.63263
C -65.0176 -37.0015 -8.77809
C -65.0744 -37.0567 -6.21105
C -66.283 -34.8276 -6.16565
C -66.2702 -36.2197 -8.27502
C -66.3004 -36.2629 -6.72697
C -66.2531 -34.7496 -8.73759
C -62.4186 -34.198 -8.15135
C -62.4303 -34.2127 -6.59612
C -62.4859 -37.1535 -8.70187
C -62.5366 -37.1942 -6.15392
C -63.7299 -34.9148 -6.12457
C -63.731 -36.3454 -8.22254
C -63.7576 -36.3777 -6.67252
C -63.7018 -34.8662 -8.69029
C -59.8791 -34.2954 -8.13003
C -59.8754 -34.2982 -6.57799
C -59.9526 -37.2561 -8.66548
C -59.9811 -37.2833 -6.10262
C -61.1784 -35.0087 -6.08726
C -61.1988 -36.4705 -8.16613
C -61.2208 -36.4894 -6.61168
C -61.1603 -34.9883 -8.6488
C -57.3284 -34.369 -8.13608
C -57.3266 -34.3553 -6.58272
C -57.3932 -37.3057 -8.63585
C -57.414 -37.3172 -6.07403
C -58.6263 -35.0788 -6.07597
C -58.661 -36.5516 -8.14425
C -58.6712 -36.5607 -6.58855
C -58.621 -35.072 -8.63936
C -54.7654 -34.4445 -8.14676
C -54.7565 -34.422 -6.60159
C -54.8241 -37.3599 -8.62478
C -54.8219 -37.3494 -6.05347
C -56.0557 -35.1156 -6.07842
C -56.0937 -36.6013 -8.12196
C -56.0981 -36.6018 -6.56626
C -56.0605 -35.138 -8.6343
C -52.1931 -34.5362 -8.16175
C -52.1801 -34.5104 -6.61247
C -52.2429 -37.4152 -8.61909
C -52.2279 -37.388 -6.06544
C -53.4844 -35.1796 -6.08162
C -53.5211 -36.6628 -8.1165
C -53.5163 -36.6499 -6.56618
C -53.5026 -35.2158 -8.64533
C -49.625 -34.5941 -8.19031
C -49.6025 -34.5625 -6.6338
C -49.66 -37.4626 -8.64543
C -49.6365 -37.4429 -6.07693
C -50.8972 -35.2547 -6.10303
C -50.9329 -36.7294 -8.12851
C -50.9215 -36.7103 -6.58162
C -50.9289 -35.2937 -8.66223
C -47.0565 -34.6199 -8.21601
C -47.0347 -34.578 -6.66543
C -47.0756 -37.4816 -8.66543
C -47.0444 -37.4643 -6.10929
C -48.3133 -35.2883 -6.12296
C -48.3528 -36.769 -8.14799
C -48.3399 -36.7462 -6.59814
C -48.3461 -35.337 -8.6876
C -44.5058 -34.594 -8.25542
C -44.478 -34.5564 -6.699
C -44.5099 -37.4862 -8.70302
C -44.4628 -37.4625 -6.14619
C -45.7487 -35.2883 -6.15923
C -45.7794 -36.7676 -8.18035
C -45.7568 -36.7509 -6.63166
C -45.782 -35.3343 -8.72132
C -41.9518 -34.5633 -8.29469
C -41.9129 -34.5256 -6.74547
C -41.94 -37.4725 -8.76062
C -41.8807 -37.4455 -6.19922
C -43.1731 -35.2617 -6.20611
C -43.2186 -36.7582 -8.22511
C -43.1867 -36.7314 -6.68301
C -43.2307 -35.3099 -8.75811
C -39.393 -34.5153 -8.38198
C -39.3405 -34.4818 -6.82779
C -39.37 -37.4487 -8.84132
C -39.2749 -37.4262 -6.28324
C -40.5969 -35.227 -6.25589
C -40.6482 -36.733 -8.297
C -40.601 -36.7109 -6.73786
C -40.6785 -35.2731 -8.82759
C -36.8533 -34.4526 -8.50564
C -36.7781 -34.4272 -6.95297
C -36.818 -37.4047 -8.96194
C -36.6868 -37.3819 -6.40955
C -38.0262 -35.1823 -6.36603
C -38.0815 -36.6915 -8.39608
C -38.0163 -36.6726 -6.84572
C -38.1375 -35.2334 -8.92852
C -34.3024 -34.3818 -8.65622
C -34.2221 -34.3667 -7.1115
C -34.2906 -37.3316 -9.13511
C -34.1358 -37.3253 -6.58911
C -35.4549 -35.1241 -6.51749
C -35.5387 -36.6273 -8.5525
C -35.4526 -36.6132 -7.00436
C -35.5934 -35.1598 -9.07318
C -31.7597 -34.3236 -8.8009
C -31.6791 -34.3237 -7.24617
C -31.7342 -37.2315 -9.31665
C -31.5889 -37.2542 -6.76403
C -32.9143 -35.0751 -6.67838
C -32.9978 -36.5493 -8.7289
C -32.9094 -36.5463 -7.18018
C -33.0504 -35.082 -9.23374
C -29.222 -34.2777 -8.92023
C -29.1523 -34.2927 -7.37409
C -30.3753 -35.041 -6.81205
C -30.4619 -36.4739 -8.88835
C -30.3759 -36.4904 -7.34324
C -30.5036 -35.0158 -9.38084
C -65.0879 -38.4733 -8.29596
C -65.1246 -38.5051 -6.74976
C -62.5701 -38.6546 -8.22221
C -62.6046 -38.686 -6.67645
C -63.9461 -39.3671 -6.20523
C -63.879 -39.3181 -8.76421
C -60.0172 -38.7475 -8.17048
C -60.045 -38.7661 -6.61689
C -61.3792 -39.4946 -6.1501
C -61.323 -39.4496 -8.6935
C -57.444 -38.7813 -8.13818
C -57.4544 -38.7949 -6.58661
C -58.7764 -39.5256 -6.10381
C -58.7447 -39.4962 -8.65486
C -54.8564 -38.8215 -8.11669
C -54.8539 -38.8208 -6.5641
C -56.1727 -39.5384 -6.07205
C -56.1641 -39.5257 -8.62988
C -52.2638 -38.8622 -8.11494
C -52.2539 -38.858 -6.56311
C -53.5664 -39.5572 -6.05749
C -53.5723 -39.5581 -8.61962
C -49.6743 -38.9032 -8.1361
C -49.6584 -38.8956 -6.58324
C -50.9621 -39.5843 -6.06433
C -50.9823 -39.5939 -8.62664
C -47.0871 -38.9238 -8.1605
C -47.066 -38.9139 -6.61629
C -48.3588 -39.6062 -6.0867
C -48.3922 -39.6162 -8.65389
C -44.5108 -38.9325 -8.19534
C -44.4794 -38.9193 -6.64982
C -45.7702 -39.622 -6.12415
C -45.8131 -39.6335 -8.68733
C -41.9253 -38.9202 -8.25434
C -41.8842 -38.9134 -6.70687
C -43.1721 -39.6296 -6.17472
C -43.2262 -39.6353 -8.73777
C -39.3267 -38.9084 -8.33347
C -39.2746 -38.9057 -6.78709
C -40.5571 -39.6316 -6.24872
C -40.6366 -39.6307 -8.79836
C -36.7507 -38.8795 -8.46075
C -36.68 -38.879 -6.89875
C -37.9469 -39.63 -6.33267
C -38.0478 -39.6251 -8.89497
C -34.211 -38.8115 -8.63813
C -34.1177 -38.8214 -7.0842
C -35.338 -39.6026 -6.46865
C -35.4724 -39.6005 -9.04429
C -31.6869 -38.6928 -8.81824
C -31.5997 -38.7182 -7.27946
C -32.786 -39.4478 -6.64346
C -32.9452 -39.4223 -9.31898
C -60.129 -41.672 -8.771
C -60.142 -41.733 -6.085
C -61.443 -40.971 -8.228
C -61.459 -41.018 -6.651
C -57.513 -41.7 -8.727
C -57.511 -41.727 -6.03
C -58.812 -40.99 -8.18
C -58.816 -41.016 -6.598
C -54.91 -41.726 -8.703
C -54.897 -41.733 -6.003
C -56.202 -41.013 -8.15
C -56.199 -41.023 -6.568
C -52.312 -41.749 -8.697
C -52.289 -41.743 -5.996
C -53.601 -41.033 -8.139
C -53.592 -41.035 -6.555
C -49.718 -41.77 -8.709
C -49.685 -41.755 -6.007
C -51.004 -41.053 -8.144
C -50.989 -41.047 -6.561
C -47.123 -41.788 -8.737
C -47.081 -41.769 -6.036
C -48.409 -41.071 -8.166
C -48.387 -41.062 -6.583
C -44.528 -41.803 -8.782
C -44.477 -41.785 -6.082
C -45.813 -41.087 -8.204
C -45.786 -41.077 -6.621
C -41.927 -41.813 -8.846
C -41.869 -41.801 -6.148
C -43.214 -41.101 -8.258
C -43.182 -41.093 -6.675
C -39.319 -41.818 -8.927
C -39.253 -41.821 -6.233
C -40.611 -41.111 -8.328
C -40.574 -41.108 -6.747
C -36.693 -41.811 -9.041
C -36.615 -41.844 -6.331
C -37.997 -41.118 -8.42
C -37.953 -41.128 -6.833
C -35.41 -41.07 -8.513
C -35.355 -41.099 -6.95
C -62.841 -41.736 -6.19
C -64.057 -40.828 -8.28
C -64.081 -40.884 -6.697
C -62.801 -41.628 -8.826
C -32.666 -41.068 -6.493
C -33.976 -41.793 -8.608
C -33.919 -41.836 -7.045
C -32.766 -40.994 -9.197
C -32.658 13.402 -6.079
C -33.89 14.32 -8.163
C -33.905 14.239 -6.581
C -32.62 13.555 -8.721
C -62.718 14.48 -5.662
C -64.017 13.775 -7.78
C -63.962 13.702 -6.22
C -62.812 14.603 -8.353
H -80.343 -12.161 -8.131
H -80.331 -12.166 -6.221
H -80.395 -14.578 -8.349
H -80.363 -14.589 -6.025
H -16.321 -12.709 -8.987
H -16.319 -12.711 -7.084
H -16.353 -15.134 -9.213
H -16.378 -15.145 -6.887
H -78.7318 -17.0131 -6.10692
H -78.7802 -17.0294 -8.40381
H -60.13 -42.719 -8.501
H -60.126 -42.768 -6.398
H -62.963 -42.652 -8.519
H -62.994 -42.716 -6.621
H -64.955 -41.25 -8.71
H -65 -41.353 -6.375
H -31.832 -41.426 -8.862
H -31.772 -41.482 -6.94
H -33.886 -42.771 -9.062
H -33.803 -42.856 -6.703
H -31.732 13.994 -8.284
H -62.942 15.576 -7.898
H -62.875 15.504 -5.977
H -64.959 14.203 -8.098
H -64.86 14.084 -5.754
H -78.7509 -9.93189 -8.3129
H -78.6267 -9.93998 -6.04903
H -72.266 0.992654 -8.42299
H -72.0585 0.90539 -6.11362
H -73.5702 -1.22908 -8.38565
H -73.3629 -1.30637 -6.09957
H -77.4002 -7.8421 -8.33959
H -77.258 -7.85306 -6.09165
H -69.6662 5.36187 -8.42573
H -69.5178 5.2547 -6.20164
H -70.9584 3.18339 -8.451
H -70.7821 3.07571 -6.1714
H -74.8673 -3.46205 -8.33386
H -74.6763 -3.51482 -6.10714
H -76.1033 -5.67168 -8.35223
H -75.9523 -5.68678 -6.12976
H -67.1965 9.69377 -8.38188
H -67.0905 9.53446 -6.11748
H -68.4011 7.5188 -8.42045
H -68.2507 7.36426 -6.14349
H -21.7864 -3.71013 -8.59142
H -21.9009 -3.83755 -6.42395
H -19.1771 -8.0875 -8.87909
H -19.2385 -8.18523 -6.64401
H -17.8038 -10.2914 -9.07024
H -17.8372 -10.3559 -6.79297
H -20.4829 -5.9104 -8.74202
H -20.5862 -6.01684 -6.51116
H -24.3828 0.707361 -8.43192
H -24.5305 0.562715 -6.25629
H -23.0749 -1.49418 -8.53093
H -23.2229 -1.63297 -6.33592
H -26.9557 5.01862 -8.37017
H -27.108 4.87039 -6.17043
H -25.6943 2.87659 -8.38994
H -25.8652 2.72697 -6.19217
H -29.3585 9.42566 -8.4312
H -29.448 9.33133 -6.22956
H -28.1753 7.18411 -8.41216
H -28.2981 7.06566 -6.181
H -60.033 15.599 -8.225
H -59.97 15.533 -6.036
H -57.372 15.548 -8.352
H -57.312 15.502 -6.169
H -54.75 15.507 -8.457
H -54.696 15.473 -6.271
H -52.141 15.473 -8.538
H -52.093 15.446 -6.351
H -49.538 15.444 -8.596
H -49.5 15.42 -6.409
H -46.939 15.419 -8.632
H -46.911 15.393 -6.444
H -44.343 15.4 -8.644
H -44.323 15.367 -6.456
H -41.746 15.384 -8.631
H -41.738 15.341 -6.442
H -39.145 15.372 -8.589
H -39.146 15.311 -6.403
H -36.56 15.366 -8.518
H -36.568 15.28 -6.336
H -77.3532 -19.2449 -8.40097
H -77.3164 -19.2209 -6.13172
H -72.2703 -27.9535 -8.19027
H -72.176 -27.8995 -5.93056
H -73.4422 -25.6755 -5.9361
H -73.522 -25.756 -8.19992
H -74.758 -23.589 -8.29256
H -74.6991 -23.5201 -6.02677
H -75.9863 -21.3809 -6.10588
H -76.0319 -21.417 -8.37785
H -69.6695 -32.3118 -8.45815
H -69.661 -32.3458 -6.19796
H -70.9112 -30.1183 -6.02169
H -70.978 -30.1415 -8.28076
H -19.2425 -19.5042 -9.294
H -19.2276 -19.5052 -7.01231
H -17.8565 -17.3784 -7.00777
H -17.8654 -17.351 -9.28944
H -27.0788 -32.6211 -9.31835
H -27.0007 -32.6271 -7.06062
H -23.2071 -26.0585 -7.04152
H -23.2722 -26.0208 -9.30596
H -21.9519 -23.8616 -9.28304
H -21.8898 -23.8485 -7.00743
H -20.562 -21.6865 -7.01416
H -20.596 -21.6925 -9.29119
H -25.7345 -30.4152 -7.04718
H -25.7969 -30.3853 -9.31899
H -24.5583 -28.1917 -9.32588
H -24.4992 -28.2487 -7.06737
H -65.9994 -38.9315 -8.68351
H -67.1685 -36.7014 -8.66215
H -67.2114 -36.774 -6.41425
H -68.426 -34.5668 -6.32838
H -68.4017 -34.5058 -8.57943
H -66.0593 -38.9657 -6.42981
H -30.6821 -39.2174 -6.97543
H -30.8094 -39.1872 -9.22851
H -29.5897 -36.9777 -9.30331
H -29.4564 -36.9883 -7.04072
H -28.2438 -34.802 -7.05915
H -28.3554 -34.7939 -9.32915
H -57.527 -42.744 -8.446
H -57.509 -42.766 -6.33
H -54.919 -42.768 -8.412
H -54.898 -42.775 -6.294
H -52.319 -42.789 -8.402
H -52.296 -42.786 -6.282
H -49.722 -42.809 -8.41
H -49.692 -42.799 -6.292
H -47.124 -42.827 -8.437
H -47.092 -42.813 -6.318
H -44.525 -42.843 -8.484
H -44.488 -42.829 -6.365
H -41.921 -42.853 -8.549
H -41.881 -42.845 -6.431
H -39.309 -42.86 -8.636
H -39.269 -42.863 -6.522
H -36.677 -42.853 -8.751
H -36.63 -42.881 -6.639
H -30.5331 11.6786 -8.48325
H -30.598 11.5864 -6.26026
H -66.0099 11.9093 -8.31405
H -65.9458 11.7534 -6.0629
H -33.76 15.354 -8.455
H -33.793 15.21 -6.116
H -31.744 13.893 -6.387
H -60.146 -41.744 -5.003
H -25.158 -17.4074 -5.72781
H -57.512 -41.721 -4.948
H -70.0019 -19.2861 -5.03731
H -71.3136 -17.0932 -5.06202
H -54.894 -41.716 -4.922
H -52.282 -41.72 -4.915
H -67.4051 -19.2798 -5.19033
H -68.7006 -17.0979 -5.20173
H -47.065 -41.742 -4.955
H -44.456 -41.758 -5.001
H -62.4236 -19.3407 -5.57028
H -63.6244 9.02387 -5.0669
H -39.226 -41.804 -5.152
H -66.3081 -34.8655 -5.08202
H -36.585 -41.841 -5.25
H -32.725 -21.9379 -5.44886
H -66.1409 -17.0696 -5.41121
H -31.6252 -10.6873 -5.95486
H -32.9085 -8.5464 -6.03589
H -22.5862 -17.46 -5.76661
H -29.0617 -10.7603 -5.82014
H -30.3638 -8.58928 -5.8787
H -26.5006 -10.8658 -5.71895
H -27.8235 -8.66609 -5.74661
H -43.077 9.15345 -5.43272
H -23.9278 -10.9497 -5.62995
H -25.2847 -8.74846 -5.61061
H -48.2954 -35.2659 -5.03735
H -47.0204 -37.4592 -5.01173
H -61.1108 9.07782 -5.1218
H -32.626 -41.096 -5.412
H -21.3265 -10.9935 -5.58967
H -22.7196 -8.81086 -5.50992
H -36.5886 -28.5666 -5.42788
H -30.2839 -21.8352 -5.54643
H -18.8055 -11.0534 -5.51361
H -20.2227 -8.87477 -5.39197
H -74.8884 -6.32397 -4.91196
H -72.4264 -6.2614 -5.15843
H -73.5673 -4.13557 -4.91956
H -49.673 -41.73 -4.926
H -32.677 13.334 -5
H -69.9284 -6.2113 -5.3295
H -71.1353 -4.05958 -5.19907
H -52.2235 -37.3855 -4.97456
H -31.4005 -19.651 -5.4636
H -67.4164 -6.20564 -5.52204
H -68.6221 -4.03043 -5.39357
H -28.9482 -19.5905 -5.59663
H -64.916 -6.19049 -5.68614
H -66.1135 -4.01856 -5.60539
H -44.4326 -37.4195 -5.05382
H -58.5452 9.12923 -5.19298
H -26.4376 -19.5712 -5.67813
H -62.3904 -6.19487 -5.86422
H -63.619 -4.01594 -5.75904
H -45.7307 -35.2729 -5.07392
H -62.4348 -28.2539 -4.99678
H -64.8881 -19.2846 -5.41207
H -27.7401 -21.8066 -5.61742
H -23.8979 -19.6245 -5.74216
H -59.8877 -6.21063 -6.02178
H -61.0867 -4.02391 -5.92389
H -21.3653 -19.6756 -5.77469
H -58.5429 -4.02239 -6.07395
H -72.5397 -23.6709 -4.81519
H -20.0158 -17.5014 -5.77671
H -69.9889 -23.6752 -4.87828
H -71.2759 -21.4578 -4.90997
H -41.843 -41.777 -5.067
H -67.4676 -23.7062 -4.98622
H -43.1514 -35.241 -5.1179
H -25.2044 -21.829 -5.68385
H -63.6386 -17.1732 -5.60302
H -66.1747 -21.4906 -5.149
H -61.2539 -21.6017 -5.42463
H -34.1801 -6.42635 -6.05957
H -35.5164 -4.30645 -6.03279
H -32.9544 8.93742 -5.15326
H -31.6664 -6.41929 -5.89641
H -32.9833 -4.26698 -5.88863
H -39.2148 -37.4199 -5.19105
H -53.3891 9.16939 -5.35034
H -29.1344 -6.48708 -5.75229
H -30.4443 -4.30404 -5.73366
H -40.5611 -35.2092 -5.16945
H -29.1235 -28.4913 -5.69886
H -26.6253 -6.56224 -5.59531
H -27.9486 -4.37556 -5.56492
H -24.0775 -6.62889 -5.45226
H -25.4043 -4.42722 -5.396
H -21.6033 -6.69722 -5.28481
H -22.9389 -4.49694 -5.21138
H -68.703 -21.4802 -5.02062
H -72.2326 -1.95012 -4.93391
H -41.8422 -37.4345 -5.11379
H -69.8408 -1.8685 -5.20918
H -70.9357 0.245172 -4.96409
H -67.3311 -1.86914 -5.45245
H -68.5412 0.300571 -5.25197
H -36.606 -37.3802 -5.32531
H -50.8259 9.17808 -5.41036
H -64.8312 -1.85194 -5.6412
H -66.0483 0.30393 -5.45653
H -37.9718 -35.1475 -5.27871
H -26.5962 -28.4748 -5.75809
H -31.6471 -24.0923 -5.56888
H -62.3112 -1.85319 -5.7886
H -63.5133 0.314093 -5.62761
H -71.2763 -25.9059 -4.77312
H -29.0828 -24.0309 -5.59944
H -59.7556 -1.84643 -5.94038
H -60.9877 0.308774 -5.77133
H -64.9555 -23.7421 -5.09123
H -26.5368 -24.0664 -5.67442
H -57.2136 -1.84431 -6.10628
H -58.4286 0.323575 -5.92247
H -24.0043 -24.0958 -5.73872
H -55.8375 0.314018 -6.09307
H -22.6938 -21.8683 -5.75436
H -53.2911 0.424676 -6.21679
H -34.1735 -28.5029 -5.58363
H -48.2499 9.16651 -5.45869
H -50.8214 0.526257 -6.26928
H -25.3066 -26.2932 -5.7516
H -27.8471 -30.7029 -5.7668
H -48.3679 0.529044 -6.24934
H -68.7301 -25.9369 -4.86655
H -45.8898 0.565823 -6.11978
H -50.8891 -35.2359 -5.01627
H -62.473 -23.7877 -5.23061
H -43.3709 0.526119 -5.98789
H -63.65 -21.5002 -5.34002
H -40.7943 0.395226 -5.87862
H -36.8559 -2.12895 -5.96826
H -38.2222 0.0998339 -5.86208
H -45.6683 9.16082 -5.46628
H -34.3217 -2.11596 -5.83425
H -35.6499 0.0864085 -5.76233
H -32.8456 -35.0755 -5.59034
H -59.8645 -28.2924 -5.10063
H -69.9941 -28.1703 -4.80043
H -31.77 -2.13213 -5.69941
H -33.1255 0.0482101 -5.62856
H -66.2065 -25.9659 -4.93886
H -68.745 -30.4488 -4.88979
H -29.2651 -2.18724 -5.53546
H -30.5874 -0.0110528 -5.47049
H -60.0319 -23.864 -5.29745
H -26.7379 -2.23256 -5.35202
H -28.0623 -0.0565428 -5.29867
H -24.2683 -2.30391 -5.13076
H -25.5804 -0.109283 -5.06079
H -69.6867 2.43454 -4.98703
H -67.273 2.4688 -5.25379
H -68.4614 4.61387 -4.98803
H -73.8394 -21.5029 -4.89005
H -64.767 2.44845 -5.43628
H -66.0124 4.63723 -5.23078
H -30.5119 8.78399 -4.97702
H -62.2285 2.47336 -5.57354
H -63.514 4.61716 -5.36561
H -44.4481 -33.0393 -5.15558
H -63.7232 -26.0009 -5.02814
H -59.6806 2.48706 -5.70707
H -60.9861 4.672 -5.47387
H -35.3755 -26.3613 -5.5043
H -61.3933 -39.4984 -5.06188
H -57.1345 2.50759 -5.84557
H -58.4427 4.68283 -5.58693
H -32.9146 -26.3144 -5.60403
H -54.5929 2.5056 -5.98108
H -55.8721 4.70838 -5.69964
H -30.3942 -26.2822 -5.62663
H -52.0781 2.57811 -6.08651
H -53.3488 4.75454 -5.79605
H -27.845 -26.278 -5.67819
H -39.3363 6.88744 -5.46748
H -49.573 2.63509 -6.11137
H -50.8081 4.77825 -5.86224
H -47.0959 2.67104 -6.04808
H -48.2812 4.8241 -5.86899
H -67.5107 -32.6735 -4.98645
H -61.1833 -26.024 -5.16442
H -44.5722 2.64868 -5.95094
H -45.7623 4.83819 -5.82264
H -64.97 -32.7094 -4.99153
H -66.2251 -30.4562 -4.92819
H -42.0313 2.55952 -5.851
H -43.238 4.78947 -5.74604
H -62.4345 -32.7615 -4.97118
H -63.6994 -30.5073 -4.95172
H -39.4616 2.41317 -5.75514
H -40.6748 4.69742 -5.65799
H -59.8346 -32.8106 -4.97869
H -61.119 -30.5248 -4.97401
H -36.9316 2.32025 -5.65932
H -38.1393 4.61017 -5.56314
H -57.2766 -32.835 -5.01509
H -58.5266 -30.5476 -5.05103
H -55.9721 9.1699 -5.26877
H -34.404 2.26619 -5.54122
H -35.6301 4.51845 -5.46794
H -54.7328 -32.9075 -5.05031
H -55.9792 -30.5925 -5.10779
H -31.887 2.19707 -5.40745
H -33.1158 4.44886 -5.3352
H -52.1348 -32.9946 -5.05973
H -53.3772 -30.7513 -5.12841
H -58.7376 -26.1088 -5.21559
H -29.3889 2.12687 -5.23639
H -30.6342 4.36271 -5.19716
H -49.5694 -33.0596 -5.08507
H -50.811 -30.8549 -5.14985
H -26.9263 2.05052 -4.99978
H -28.1959 4.25461 -4.96755
H -47.0125 -33.0809 -5.10932
H -48.2913 -30.8886 -5.17819
H -62.849 -41.78 -5.109
H -67.1766 6.72054 -4.92376
H -64.7729 6.8014 -5.15767
H -66.0191 8.9156 -4.90123
H -45.7591 -30.8689 -5.21224
H -62.3146 6.85191 -5.26227
H -77.9983 -14.9405 -4.9016
H -79.408 -12.649 -4.797
H -41.8941 -33.0127 -5.20479
H -43.225 -30.8197 -5.26773
H -31.6627 -28.4706 -5.63985
H -59.7804 6.88849 -5.34714
H -75.285 -14.9524 -4.98971
H -76.5827 -12.782 -4.93802
H -39.3026 -32.976 -5.27997
H -40.6474 -30.7836 -5.31948
H -57.2165 6.90494 -5.42854
H -72.6471 -14.9244 -5.07086
H -73.932 -12.7811 -5.04336
H -36.7265 -32.909 -5.39882
H -38.0588 -30.6903 -5.39295
H -54.6548 6.95217 -5.51863
H -70.0334 -14.9057 -5.20901
H -71.3248 -12.7508 -5.18548
H -34.1703 -32.8796 -5.53701
H -35.4669 -30.6987 -5.50344
H -52.1058 6.94542 -5.59961
H -67.4711 -14.9151 -5.37796
H -68.7526 -12.7374 -5.35957
H -31.6251 -32.8527 -5.64609
H -32.9194 -30.6617 -5.59902
H -49.5228 6.97007 -5.66309
H -64.8786 -14.932 -5.58656
H -66.2191 -12.723 -5.54277
H -29.0922 -32.8722 -5.76166
H -30.3824 -30.6783 -5.68146
H -63.7572 -34.9417 -5.03581
H -46.9649 7.00022 -5.66754
H -63.7296 -12.7147 -5.70913
H -44.4246 6.9906 -5.62773
H -62.5591 -37.2104 -5.06767
H -57.3991 -28.3376 -5.13222
H -41.8854 6.94173 -5.54915
H -40.5319 9.13288 -5.37712
H -36.8032 6.82102 -5.38553
H -37.9799 9.09914 -5.30715
H -49.6275 -37.4135 -4.99089
H -34.2897 6.74521 -5.29089
H -35.4579 9.04455 -5.23535
H -65.0941 -37.0909 -5.12557
H -29.3914 6.48152 -4.95805
H -31.8022 6.65866 -5.1657
H -53.4711 -35.1637 -4.98568
H -61.214 13.709 -4.711
H -59.9846 -37.2961 -5.00167
H -64.8974 11.1444 -4.80033
H -61.1836 -35.0326 -5.02975
H -58.6251 -35.0793 -5.00429
H -59.8792 11.3891 -4.97844
H -54.808 -37.3552 -4.95687
H -58.603 13.739 -4.84
H -62.453 11.3176 -4.90472
H -55.983 13.715 -4.941
H -62.666 14.431 -4.583
H -29.0316 -15.0856 -5.72284
H -30.3141 -12.8536 -5.82716
H -52.0762 11.407 -5.19557
H -53.379 13.693 -5.024
H -26.4167 -15.2011 -5.71992
H -27.7483 -12.9569 -5.74917
H -49.5116 11.3918 -5.25522
H -50.788 13.667 -5.089
H -23.8547 -15.2683 -5.72791
H -25.1689 -13.0711 -5.70721
H -46.9278 11.3613 -5.28397
H -48.202 13.64 -5.136
H -64.9722 -28.2122 -4.93147
H -21.2644 -15.3034 -5.73252
H -22.5728 -13.1182 -5.68061
H -44.3379 11.3583 -5.29288
H -45.621 13.612 -5.162
H -18.6359 -15.3883 -5.71913
H -19.9256 -13.1487 -5.67438
H -41.7562 11.3452 -5.27933
H -43.041 13.58 -5.169
H -30.0705 -17.4416 -5.53776
H -17.258 -13.151 -5.659
H -39.1954 11.3251 -5.24371
H -40.459 13.545 -5.154
H -57.4169 -37.309 -4.99502
H -34.0501 -37.3284 -5.50619
H -35.3869 -35.1141 -5.43028
H -36.6232 11.3078 -5.19782
H -37.873 13.503 -5.119
H -77.6049 -10.6166 -4.81377
H -31.5163 -37.2606 -5.67735
H -34.0965 11.2423 -5.13973
H -35.272 13.46 -5.065
H -75.1168 -10.6091 -5.01199
H -76.1898 -8.49118 -4.87271
H -31.6594 11.0529 -4.99004
H -30.313 -35.0551 -5.72635
H -72.5481 -10.5927 -5.14302
H -73.7561 -8.42804 -5.07415
H -67.4894 -28.2046 -4.84273
H -56.0541 -35.095 -4.98824
H -63.9647 -39.3716 -5.11643
H -75.1585 -19.3513 -4.92264
H -69.995 -10.5864 -5.31176
H -71.2266 -8.4136 -5.25189
H -57.2741 11.4136 -5.05378
H -76.5332 -17.1843 -4.93304
H -58.7816 -39.5286 -5.01548
H -67.4667 -10.561 -5.50047
H -68.7065 -8.40371 -5.42269
H -56.1794 -39.5289 -4.98363
H -53.5629 -39.5521 -4.97964
H -27.6938 -17.3452 -5.67921
H -64.947 -10.5387 -5.67345
H -66.1949 -8.36524 -5.60504
H -50.9502 -39.5926 -4.97477
H -48.3491 -39.6009 -5.00291
H -62.423 -10.5249 -5.83367
H -63.6895 -8.37882 -5.7788
H -45.7387 -39.615 -5.02359
H -43.15 -39.6198 -5.09264
H -61.1616 -8.37279 -5.94196
H -40.5365 -39.6249 -5.14359
H -37.8974 -39.6202 -5.24441
H -35.2567 -39.5908 -5.38283
H -34.0729 -24.1682 -5.48691
H -32.7141 -39.3868 -5.54415
H -54.678 11.408 -5.13087
H -72.5737 -19.2885 -4.95353
H -73.9292 -17.1194 -4.9944
H -78.1389 -14.9585 -9.61604
H -79.464 -12.646 -9.593
H -75.4598 -15.0005 -9.70325
H -76.7744 -12.756 -9.666
H -72.862 -15.0341 -9.79849
H -74.1795 -12.832 -9.77695
H -70.3174 -15.079 -9.91855
H -71.6082 -12.8547 -9.92473
H -67.7953 -15.0974 -10.1085
H -69.0743 -12.8738 -10.0871
H -65.233 -15.0398 -10.3196
H -66.543 -12.8464 -10.2698
H -64.0018 -12.8012 -10.4405
H -28.962 -15.2439 -10.4517
H -30.1185 -12.9891 -10.5736
H -26.4044 -15.2368 -10.4561
H -27.6129 -13.0189 -10.4882
H -23.8392 -15.2145 -10.465
H -25.072 -13.0382 -10.4356
H -21.2418 -15.2181 -10.4653
H -22.5153 -12.9965 -10.399
H -18.6077 -15.2801 -10.4671
H -19.932 -13.0209 -10.4056
H -17.225 -13.143 -10.46
H -77.864 -10.5687 -9.66343
H -75.3754 -10.6125 -9.72303
H -76.4985 -8.41841 -9.71103
H -72.8398 -10.6456 -9.87352
H -74.0596 -8.40689 -9.79237
H -70.3257 -10.6339 -10.0452
H -71.556 -8.41453 -9.96468
H -67.8041 -10.6193 -10.2104
H -69.049 -8.41764 -10.1494
H -65.2671 -10.6015 -10.4014
H -66.5315 -8.38646 -10.339
H -62.7443 -10.6218 -10.5612
H -64 -8.39383 -10.4975
H -61.4884 -8.3935 -10.6717
H -31.3382 -10.7477 -10.6838
H -32.5901 -8.4812 -10.7604
H -28.8333 -10.7926 -10.559
H -30.1052 -8.52718 -10.6147
H -26.3049 -10.8282 -10.447
H -27.56 -8.58018 -10.4695
H -23.7796 -10.8209 -10.3623
H -25.0628 -8.60016 -10.3409
H -21.2453 -10.7973 -10.3126
H -22.5465 -8.59774 -10.2312
H -18.7973 -10.8337 -10.3928
H -20.1191 -8.6008 -10.2381
H -75.2057 -6.22151 -9.73302
H -72.7829 -6.17131 -9.84542
H -73.9956 -3.9854 -9.74873
H -70.2957 -6.17745 -10.0437
H -71.5381 -3.93578 -9.89583
H -67.7848 -6.16417 -10.231
H -69.0086 -3.95319 -10.1179
H -65.2523 -6.15958 -10.4311
H -66.4868 -3.93546 -10.3091
H -62.7061 -6.16892 -10.5917
H -63.9275 -3.93434 -10.4956
H -60.1857 -6.15518 -10.7546
H -61.3758 -3.94164 -10.6464
H -58.8508 -3.93977 -10.7996
H -33.9051 -6.231 -10.7786
H -35.2598 -4.04399 -10.7517
H -31.3752 -6.27327 -10.63
H -32.7203 -4.02758 -10.6154
H -28.8393 -6.31315 -10.4772
H -30.1481 -4.06721 -10.4558
H -26.3387 -6.363 -10.3125
H -27.6159 -4.12853 -10.2863
H -23.8283 -6.37795 -10.1625
H -25.1056 -4.15086 -10.1069
H -21.4122 -6.40684 -10.1178
H -22.6678 -4.18104 -9.99974
H -72.6894 -1.76363 -9.79611
H -70.2457 -1.69083 -9.93844
H -71.3866 0.455575 -9.82024
H -67.7044 -1.70449 -10.1656
H -68.9406 0.523154 -9.96068
H -65.1595 -1.69584 -10.3525
H -66.3961 0.530011 -10.1678
H -62.5863 -1.71319 -10.5141
H -63.8156 0.524587 -10.3442
H -60.0392 -1.7093 -10.6603
H -61.2605 0.534391 -10.4972
H -57.5191 -1.68919 -10.8268
H -58.7047 0.571757 -10.6437
H -56.1278 0.607238 -10.8106
H -53.5064 1.00629 -11.0322
H -50.8517 1.05993 -11.0806
H -48.2588 1.02605 -11.0341
H -45.693 0.957213 -10.9214
H -43.1666 0.823952 -10.7934
H -40.6309 0.697065 -10.7077
H -36.6261 -1.80916 -10.6802
H -38.0477 0.422025 -10.5848
H -34.0731 -1.82001 -10.5621
H -35.4277 0.410359 -10.4729
H -31.489 -1.84377 -10.4057
H -32.8533 0.370343 -10.3399
H -28.9177 -1.89659 -10.2442
H -30.2679 0.308928 -10.1872
H -26.3992 -1.93821 -10.0556
H -27.7071 0.273702 -9.99117
H -23.9607 -1.975 -9.93716
H -25.238 0.241704 -9.85414
H -70.0605 2.6558 -9.84273
H -67.6197 2.70715 -9.96213
H -68.7755 4.84372 -9.82733
H -65.0605 2.72061 -10.1415
H -66.318 4.89774 -9.9351
H -62.4898 2.75357 -10.3027
H -63.7531 4.92706 -10.0861
H -59.923 2.8144 -10.4274
H -61.189 5.01076 -10.2063
H -57.3661 2.87662 -10.5582
H -58.6358 5.09134 -10.3001
H -54.7994 2.96788 -10.6875
H -56.0682 5.15073 -10.4019
H -52.2082 3.09313 -10.7763
H -53.5104 5.23814 -10.4977
H -49.5749 3.11502 -10.8077
H -50.8883 5.26734 -10.5673
H -46.9588 3.08182 -10.7583
H -48.2621 5.28433 -10.5902
H -44.3943 2.98624 -10.665
H -45.6573 5.22238 -10.5403
H -41.8434 2.85999 -10.5551
H -43.0767 5.10485 -10.4633
H -39.283 2.72204 -10.4653
H -40.507 5.00225 -10.3712
H -36.7377 2.64037 -10.379
H -37.9779 4.89607 -10.2847
H -34.1598 2.58389 -10.2715
H -35.4231 4.81893 -10.1861
H -31.6019 2.50356 -10.1153
H -32.8602 4.71954 -10.0629
H -29.0459 2.45414 -9.94064
H -30.3177 4.62605 -9.90557
H -26.555 2.38517 -9.80538
H -27.8301 4.52465 -9.78095
H -67.4876 7.01475 -9.79798
H -65.0263 7.11403 -9.86704
H -66.2385 9.20843 -9.74843
H -62.494 7.18039 -9.98768
H -63.7769 9.36157 -9.77081
H -59.9326 7.26231 -10.066
H -61.243 9.45764 -9.84504
H -57.3842 7.3285 -10.1368
H -58.6882 9.50555 -9.90279
H -54.8093 7.40551 -10.2292
H -56.1242 9.54913 -9.98239
H -52.2229 7.41744 -10.3121
H -53.5299 9.56335 -10.0567
H -49.5919 7.44111 -10.3717
H -50.9215 9.57985 -10.1329
H -46.957 7.42264 -10.3882
H -48.2843 9.58217 -10.1696
H -44.3296 7.34889 -10.3505
H -45.6457 9.55427 -10.1841
H -41.7453 7.24724 -10.27
H -43.0102 9.47846 -10.1528
H -39.1894 7.16801 -10.1914
H -40.4443 9.40364 -10.101
H -36.6432 7.06861 -10.1138
H -37.8521 9.32076 -10.0505
H -34.0964 6.97161 -10.0127
H -35.2998 9.23484 -9.97377
H -31.5543 6.85724 -9.88174
H -32.7597 9.10945 -9.87587
H -29.1004 6.68537 -9.79698
H -30.2907 8.92389 -9.80489
H -65.0325 11.4565 -9.68237
H -62.5555 11.6488 -9.65132
H -60.0396 11.7168 -9.69183
H -61.387 13.895 -9.541
H -57.431 11.7135 -9.76868
H -58.754 13.869 -9.648
H -54.8249 11.6926 -9.85197
H -56.117 13.81 -9.753
H -52.2057 11.6905 -9.92188
H -53.495 13.767 -9.838
H -49.6005 11.6909 -9.98971
H -50.882 13.733 -9.905
H -46.9645 11.6684 -10.01
H -48.273 13.706 -9.952
H -44.3325 11.6278 -10.0272
H -45.668 13.686 -9.979
H -41.7089 11.5688 -10.0149
H -43.062 13.674 -9.986
H -39.1203 11.5162 -9.98212
H -40.457 13.669 -9.97
H -36.5231 11.4741 -9.92951
H -37.844 13.673 -9.93
H -33.9632 11.3829 -9.86179
H -35.216 13.699 -9.859
H -31.5093 11.1748 -9.84325
H -75.2217 -19.4431 -9.65823
H -76.6359 -17.2335 -9.66611
H -72.6997 -19.4224 -9.6896
H -74.0569 -17.2218 -9.70732
H -70.2238 -19.4608 -9.7509
H -71.5193 -17.2579 -9.77947
H -67.7697 -19.5054 -9.90556
H -69.0261 -17.2977 -9.91599
H -65.3061 -19.6026 -10.1025
H -66.5294 -17.3012 -10.1218
H -62.859 -19.7727 -10.3783
H -64.1513 -17.4455 -10.4285
H -31.5416 -19.6658 -10.2976
H -29.0933 -19.6118 -10.3154
H -30.2741 -17.4885 -10.3623
H -26.5623 -19.6124 -10.4035
H -27.7783 -17.4117 -10.3981
H -23.9804 -19.6285 -10.4857
H -25.2125 -17.4171 -10.4624
H -21.4047 -19.6831 -10.5117
H -22.6125 -17.4344 -10.4975
H -20.0325 -17.4809 -10.5091
H -72.6445 -23.8559 -9.56022
H -73.9079 -21.6708 -9.62257
H -70.149 -23.8487 -9.62818
H -71.424 -21.6448 -9.66252
H -67.6843 -23.8928 -9.71269
H -68.9535 -21.6731 -9.73647
H -65.2075 -23.9715 -9.82194
H -66.485 -21.7597 -9.86902
H -62.7165 -24.0769 -9.94268
H -64.0108 -21.8384 -10.0286
H -60.2297 -24.1597 -10.12
H -61.5403 -21.9933 -10.2447
H -34.1466 -24.0991 -10.3071
H -31.6994 -23.9965 -10.2745
H -32.8401 -21.8605 -10.2872
H -29.2007 -23.9618 -10.333
H -30.4082 -21.8057 -10.2715
H -26.6731 -23.9941 -10.4055
H -27.8791 -21.7742 -10.3494
H -24.1144 -24.0147 -10.4734
H -25.3405 -21.8145 -10.4353
H -22.7729 -21.863 -10.4914
H -70.1754 -28.1451 -9.5365
H -71.44 -26.0097 -9.51303
H -67.6347 -28.1711 -9.61713
H -68.9267 -26.031 -9.5978
H -65.108 -28.2842 -9.67044
H -66.4158 -26.0828 -9.67455
H -62.5994 -28.3811 -9.73862
H -63.9271 -26.1846 -9.76869
H -60.0616 -28.4758 -9.82714
H -61.4133 -26.2669 -9.87366
H -57.6093 -28.5881 -9.97623
H -58.9567 -26.3779 -10.0473
H -36.7836 -28.6068 -10.2834
H -34.3133 -28.5147 -10.3027
H -35.4417 -26.3445 -10.3262
H -31.7848 -28.4594 -10.3816
H -32.9909 -26.2545 -10.3113
H -29.2362 -28.4322 -10.4508
H -30.4755 -26.1959 -10.3666
H -26.7351 -28.4077 -10.5089
H -27.9739 -26.1912 -10.4156
H -25.4468 -26.1962 -10.4878
H -67.5399 -32.4858 -9.74824
H -68.8556 -30.299 -9.62725
H -64.9751 -32.5914 -9.7322
H -66.3078 -30.3727 -9.6747
H -62.4236 -32.721 -9.71203
H -63.7767 -30.4855 -9.68419
H -59.9075 -32.8151 -9.71157
H -61.2434 -30.6027 -9.73158
H -57.3432 -32.9043 -9.74393
H -58.6626 -30.6898 -9.77783
H -54.7662 -33.0106 -9.76725
H -56.0477 -30.7576 -9.83304
H -52.2001 -33.1305 -9.7917
H -53.4176 -30.907 -9.85148
H -49.6439 -33.1985 -9.83187
H -50.877 -31.0008 -9.88078
H -47.0845 -33.2254 -9.8576
H -48.3542 -31.0395 -9.91946
H -44.5461 -33.1887 -9.89531
H -45.8402 -31.012 -9.9531
H -42.0015 -33.1575 -9.93633
H -43.3295 -30.9779 -9.99556
H -39.4674 -33.0848 -10.0086
H -40.7643 -30.9367 -10.0507
H -36.9396 -33.0051 -10.1245
H -38.1943 -30.8297 -10.1273
H -34.395 -32.9001 -10.2577
H -35.6445 -30.7569 -10.218
H -31.8363 -32.8492 -10.3887
H -33.0919 -30.6818 -10.3342
H -29.2626 -32.8028 -10.4965
H -30.526 -30.6375 -10.4371
H -27.9665 -30.6349 -10.5057
H -64.9987 -36.9671 -9.87034
H -66.2493 -34.7101 -9.82883
H -62.4477 -37.1346 -9.78412
H -63.6923 -34.837 -9.77814
H -59.9372 -37.2507 -9.74676
H -61.1638 -34.9761 -9.72919
H -57.402 -37.299 -9.71483
H -58.6215 -35.0781 -9.72014
H -54.8104 -37.359 -9.7057
H -56.0656 -35.1362 -9.71719
H -52.2429 -37.4059 -9.69851
H -53.5096 -35.2176 -9.72989
H -49.6729 -37.4609 -9.72442
H -50.9395 -35.3111 -9.74617
H -47.0807 -37.4853 -9.74545
H -48.3629 -35.3627 -9.7721
H -44.5225 -37.4763 -9.7855
H -45.7953 -35.3579 -9.80554
H -41.9797 -37.4741 -9.84226
H -43.2464 -35.3254 -9.8407
H -39.4195 -37.4597 -9.92306
H -40.7127 -35.2977 -9.90938
H -36.8933 -37.407 -10.042
H -38.1952 -35.2529 -10.0111
H -34.3735 -37.3295 -10.2204
H -35.6491 -35.1741 -10.1579
H -31.7983 -37.2263 -10.4
H -33.1037 -35.0779 -10.3227
H -30.548 -35.0073 -10.4717
H -63.8416 -39.3184 -9.85003
H -61.2883 -39.4429 -9.7841
H -58.7315 -39.4787 -9.74425
H -56.1518 -39.5157 -9.7189
H -53.5707 -39.5432 -9.70938
H -50.9945 -39.5731 -9.71531
H -48.3992 -39.6057 -9.74148
H -45.8404 -39.6172 -9.77495
H -43.2491 -39.6127 -9.82617
H -40.665 -39.6159 -9.8866
H -38.1063 -39.6202 -9.98399
H -35.5488 -39.6302 -10.1254
H -33.0389 -39.2605 -10.3968
H -60.121 -41.634 -9.853
H -57.511 -41.673 -9.809
H -54.912 -41.708 -9.785
H -52.319 -41.735 -9.779
H -49.729 -41.76 -9.791
H -47.139 -41.779 -9.819
H -44.548 -41.793 -9.864
H -41.952 -41.802 -9.928
H -39.349 -41.803 -10.009
H -36.725 -41.787 -10.123
H -62.779 -41.58 -9.907
H -32.805 -40.954 -10.278
H -32.605 13.611 -9.802
H -62.85 14.654 -9.434
H -62.9886 -16.8564 -9.27657
H -62.7767 -16.765 -7.06271
H -61.7463 -19.0902 -9.21874
H -61.5648 -18.9368 -7.02301
H -31.2158 -16.9186 -9.00464
H -31.1687 -16.932 -6.77968
H -32.5026 -19.0634 -8.95891
H -32.4407 -19.0602 -6.73303
H -60.4816 -21.3208 -9.04484
H -60.3447 -21.1584 -6.83956
H -59.2013 -23.5073 -8.89652
H -59.0994 -23.3872 -6.67832
H -33.8264 -21.2991 -8.94983
H -33.7861 -21.3241 -6.69701
H -35.1358 -23.5454 -8.98509
H -35.0945 -23.5576 -6.75912
H -57.9132 -25.7039 -8.82374
H -57.8107 -25.5953 -6.60134
H -54.5929 -29.0681 -8.67609
H -54.5735 -28.9983 -6.39632
H -56.5713 -27.8927 -8.75921
H -56.4945 -27.7864 -6.52126
H -52.0656 -29.1793 -8.68269
H -52.0409 -29.1198 -6.41516
H -49.5665 -29.2432 -8.71789
H -49.5491 -29.1787 -6.44285
H -47.11 -29.2531 -8.74948
H -47.0815 -29.1877 -6.48122
H -44.5849 -29.2183 -8.80745
H -44.5294 -29.1461 -6.53057
H -42.0447 -29.195 -8.85102
H -41.9872 -29.1219 -6.58259
H -39.5693 -29.1243 -8.88552
H -39.4932 -29.0713 -6.63902
H -36.4207 -25.7657 -9.01976
H -36.375 -25.7827 -6.79803
H -37.7067 -27.9725 -8.95927
H -37.6108 -27.9593 -6.69535
H -50.8163 -0.458871 -7.70259
H -48.2869 -0.236335 -9.8658
H -48.3081 -0.446832 -7.67362
H -63.0217 -14.6802 -9.23982
H -62.8571 -14.6184 -6.96
H -61.6679 -12.5109 -7.06949
H -61.799 -12.5422 -9.33111
H -31.1259 -14.8169 -9.29352
H -31.1658 -14.8137 -7.03235
H -32.4023 -12.6885 -7.2001
H -32.3022 -12.6832 -9.45131
H -59.1174 -8.15304 -7.33351
H -59.2732 -8.14455 -9.5835
H -33.5504 -10.4541 -9.60129
H -33.6859 -10.5032 -7.35311
H -34.9544 -8.33128 -7.4404
H -34.803 -8.24817 -9.67067
H -57.9686 -5.96741 -9.65821
H -57.8193 -6.00338 -7.38548
H -56.4917 -3.79988 -7.44613
H -56.6241 -3.72384 -9.70338
H -36.1089 -6.09641 -9.67497
H -36.2372 -6.22505 -7.4167
H -37.5879 -4.0431 -7.36538
H -37.464 -3.90566 -9.62476
H -55.3018 -1.50144 -9.73772
H -55.1768 -1.6416 -7.48226
H -53.355 -0.298592 -9.88874
H -53.2826 -0.527283 -7.6654
H -50.8312 -0.229318 -9.91825
H -45.8289 -0.462064 -7.51104
H -43.2822 -0.386845 -9.55304
H -43.3671 -0.53149 -7.36315
H -38.8329 -1.71089 -9.53264
H -38.939 -1.85676 -7.25636
H -40.7688 -0.519246 -9.47215
H -40.8638 -0.664709 -7.25438
H -45.7922 -0.281626 -9.71947
H -60.5222 -10.3428 -9.49755
H -60.3774 -10.3408 -7.22067
C 5.88563 -11.9023 -8.82277
C 5.88146 -11.9203 -7.25205
C 5.87261 -14.8884 -9.3033
C 5.85846 -14.8854 -6.77093
C 4.475 -12.594 -6.764
C 4.434 -14.097 -8.874
C 4.454 -14.098 -7.291
C 4.446 -12.592 -9.397
C 8.55661 -11.9646 -8.76184
C 8.56009 -12.0022 -7.21884
C 8.51801 -14.9034 -9.287
C 8.52154 -14.9101 -6.73743
C 7.21315 -12.7044 -6.74359
C 7.19859 -14.1562 -8.79545
C 7.19907 -14.1715 -7.24879
C 7.22102 -12.676 -9.28786
C 11.1501 -11.9962 -8.78423
C 11.1731 -12.0188 -7.23019
C 11.1286 -14.9063 -9.28831
C 11.1634 -14.9225 -6.73772
C 9.85703 -12.741 -6.72682
C 9.82666 -14.1787 -8.7909
C 9.84151 -14.1937 -7.23177
C 9.83427 -12.7067 -9.27886
C 13.7062 -12.0114 -8.82839
C 13.7487 -12.0153 -7.27308
C 13.693 -14.931 -9.312
C 13.7575 -14.924 -6.7617
C 12.4663 -12.7404 -6.73769
C 12.4186 -14.1894 -8.79361
C 12.4536 -14.1945 -7.24294
C 12.4134 -12.7319 -9.30546
C 16.2305 -12.011 -8.92174
C 16.3069 -12.0092 -7.37431
C 16.226 -14.9606 -9.3931
C 16.3236 -14.9255 -6.83084
C 15.0457 -12.7378 -6.81063
C 14.9799 -14.2099 -8.85226
C 15.0281 -14.2007 -7.30429
C 14.9497 -12.7511 -9.37524
C 18.7381 -11.9953 -9.08478
C 18.8453 -11.9871 -7.54234
C 18.7579 -14.9737 -9.51234
C 18.8978 -14.903 -6.94772
C 17.6094 -12.7235 -6.93352
C 17.5081 -14.2258 -8.96212
C 17.5819 -14.2021 -7.40633
C 17.4616 -12.7509 -9.49054
C 21.2351 -11.9981 -9.29968
C 21.359 -11.9839 -7.76197
C 20.1444 -12.6917 -7.1179
C 20.0055 -14.1681 -9.12441
C 20.1087 -14.1525 -7.59014
C 19.941 -12.7313 -9.67353
C 52.5297 -12.0528 -10.6391
C 52.4037 -12.1307 -9.09666
C 55.0458 -12.1267 -10.4349
C 54.9202 -12.1979 -8.88198
C 55.0098 -15.0738 -11.0586
C 54.8115 -15.1486 -8.51193
C 53.6039 -12.9048 -8.50991
C 53.7607 -14.2731 -10.624
C 53.6246 -14.3308 -9.08421
C 53.8179 -12.7936 -11.075
C 57.5713 -12.2092 -10.2499
C 57.4573 -12.273 -8.69805
C 57.5664 -15.1193 -10.8677
C 57.385 -15.1886 -8.31414
C 56.1358 -12.9932 -8.32208
C 56.2676 -14.3785 -10.4418
C 56.1523 -14.4353 -8.8918
C 56.3338 -12.8798 -10.8862
C 60.1181 -12.2566 -10.0492
C 60.0112 -12.3131 -8.50713
C 60.1289 -15.15 -10.6721
C 59.9507 -15.2228 -8.12551
C 58.6946 -13.0375 -8.14076
C 58.8178 -14.4251 -10.2467
C 58.7116 -14.4743 -8.70331
C 58.8739 -12.9415 -10.6849
C 62.699 -12.2812 -9.87074
C 62.6154 -12.3339 -8.32768
C 62.7069 -15.1853 -10.4813
C 62.5603 -15.2468 -7.92571
C 61.2708 -13.0612 -7.94129
C 61.3915 -14.4589 -10.0464
C 61.2935 -14.5049 -8.4978
C 61.4315 -12.9739 -10.4874
C 65.3333 -12.3078 -9.75653
C 65.2854 -12.3338 -8.18203
C 65.327 -15.2581 -10.309
C 65.2189 -15.3022 -7.74646
C 63.9227 -13.0726 -7.77071
C 64.0046 -14.4962 -9.86356
C 63.9285 -14.5288 -8.31134
C 64.0299 -13.0159 -10.317
C 66.656 -13.096 -7.627
C 66.65 -14.592 -9.742
C 66.641 -14.594 -8.158
C 66.673 -13.092 -10.264
C 6.08776 -10.4236 -9.31844
C 6.08656 -10.4829 -6.63839
C 8.73768 -7.56059 -8.62036
C 8.76643 -7.61982 -7.06482
C 8.63433 -10.4865 -9.22728
C 8.65066 -10.5555 -6.68894
C 7.51716 -8.36069 -6.54234
C 7.37352 -9.73326 -8.72185
C 7.38488 -9.78356 -7.16342
C 7.48262 -8.26602 -9.2179
C 11.2747 -7.58912 -8.65939
C 11.3232 -7.64645 -7.1137
C 11.1877 -10.5233 -9.26445
C 11.2277 -10.5695 -6.70618
C 10.0402 -8.39163 -6.62144
C 9.94588 -9.78655 -8.72093
C 9.96416 -9.83215 -7.17328
C 9.9889 -8.29963 -9.16572
C 13.7769 -7.59367 -8.76046
C 13.8512 -7.63792 -7.21364
C 13.7091 -10.5453 -9.32967
C 13.8056 -10.562 -6.76244
C 12.5897 -8.38896 -6.67474
C 12.4763 -9.80561 -8.77297
C 12.5234 -9.83615 -7.22195
C 12.4961 -8.31934 -9.23155
C 16.2838 -7.6045 -8.92841
C 16.3897 -7.63197 -7.38061
C 16.2198 -10.5423 -9.43695
C 16.3654 -10.5455 -6.88634
C 15.1408 -8.37249 -6.79937
C 14.996 -9.81023 -8.86928
C 15.0739 -9.827 -7.32384
C 14.9872 -8.33163 -9.35847
C 18.7884 -7.60822 -9.14034
C 18.9254 -7.62361 -7.59388
C 18.7169 -10.5437 -9.61604
C 18.9196 -10.5242 -7.0643
C 17.6867 -8.35392 -6.97972
C 17.509 -9.8054 -9.02234
C 17.619 -9.81157 -7.48026
C 17.485 -8.33602 -9.53368
C 21.2913 -7.62501 -9.40475
C 21.4526 -7.6287 -7.85882
C 21.2192 -10.5617 -9.85591
C 21.4641 -10.5241 -7.30293
C 20.2327 -8.34762 -7.21087
C 20.0211 -9.80942 -9.23922
C 20.1545 -9.80495 -7.69513
C 19.9813 -8.35671 -9.75915
C 23.7807 -7.61462 -9.71436
C 23.956 -7.63723 -8.18122
C 22.7661 -8.36149 -7.50284
C 22.5334 -9.8359 -9.50991
C 22.6817 -9.82363 -7.97287
C 22.476 -8.37282 -10.0522
C 49.9978 -7.62628 -10.5614
C 49.8821 -7.74651 -9.0352
C 52.4995 -7.6652 -10.3741
C 52.3854 -7.7823 -8.82585
C 52.5612 -10.568 -11.0702
C 52.3529 -10.7083 -8.52259
C 51.0837 -8.52382 -8.48676
C 51.2693 -9.82698 -10.6342
C 51.1418 -9.93231 -9.09437
C 51.2879 -8.33398 -11.0289
C 55.0174 -7.73159 -10.1845
C 54.9015 -7.83738 -8.63821
C 55.0782 -10.6341 -10.869
C 54.8785 -10.777 -8.31207
C 53.6026 -8.56625 -8.27379
C 53.7798 -9.8915 -10.421
C 53.6625 -9.98153 -8.88137
C 53.7942 -8.39385 -10.8315
C 57.5335 -7.80913 -10.0102
C 57.427 -7.90489 -8.47654
C 57.5998 -10.718 -10.6844
C 57.412 -10.8441 -8.13033
C 56.1355 -8.6385 -8.10078
C 56.3057 -9.97441 -10.2238
C 56.1828 -10.0619 -8.68424
C 56.3127 -8.47173 -10.6418
C 60.0465 -7.85256 -9.85472
C 59.9559 -7.9348 -8.30734
C 60.1326 -10.7729 -10.491
C 59.9583 -10.8841 -7.94471
C 58.6585 -8.67814 -7.92388
C 58.828 -10.034 -10.0436
C 58.7174 -10.1111 -8.50419
C 58.831 -8.54344 -10.4777
C 62.5757 -7.85584 -9.71957
C 62.4982 -7.93747 -8.16859
C 62.6821 -10.7938 -10.3266
C 62.547 -10.8886 -7.7783
C 61.2018 -8.70257 -7.7719
C 61.3641 -10.0756 -9.87135
C 61.2716 -10.1439 -8.33218
C 61.3453 -8.58982 -10.3178
C 65.2184 -10.8278 -10.3013
C 65.1304 -10.8801 -7.60388
C 63.736 -8.69452 -7.60579
C 63.937 -10.0715 -9.74702
C 63.869 -10.1314 -8.19508
C 63.8523 -8.58672 -10.2555
C 8.78971 -6.09691 -9.09149
C 8.86939 -6.20505 -6.43032
C 11.3308 -3.17529 -8.47301
C 11.4117 -3.24452 -6.91864
C 11.2855 -6.09829 -9.09927
C 11.3908 -6.20218 -6.54863
C 10.1989 -4.02051 -6.33751
C 10.0423 -5.37139 -8.5243
C 10.1043 -5.43967 -6.97369
C 10.0737 -3.90714 -9.00822
C 13.865 -3.19681 -8.62485
C 13.9643 -3.24763 -7.07495
C 13.7793 -6.11199 -9.21637
C 13.9261 -6.18527 -6.67054
C 12.7141 -3.99681 -6.51931
C 12.5716 -5.38303 -8.61937
C 12.6501 -5.43938 -7.07741
C 12.5691 -3.90544 -9.0661
C 16.3835 -3.19339 -8.80489
C 16.5061 -3.2467 -7.27152
C 16.274 -6.12577 -9.39921
C 16.4628 -6.17503 -6.84521
C 15.2605 -3.98908 -6.69039
C 15.0781 -5.39593 -8.77741
C 15.1762 -5.43926 -7.23581
C 15.0819 -3.91371 -9.2373
C 18.8929 -3.20398 -9.05015
C 19.0411 -3.26076 -7.51087
C 18.7659 -6.13261 -9.63467
C 19.0117 -6.17683 -7.0738
C 17.8038 -3.99363 -6.90493
C 17.5773 -5.4036 -8.98172
C 17.7107 -5.44422 -7.44169
C 17.5766 -3.9207 -9.44181
C 21.3992 -3.21264 -9.33083
C 21.5659 -3.27068 -7.79133
C 21.2682 -6.14449 -9.90925
C 21.5493 -6.17915 -7.36672
C 20.3425 -4.00922 -7.16956
C 20.0836 -5.41257 -9.25299
C 20.2415 -5.44919 -7.71239
C 20.0739 -3.93035 -9.71896
C 23.9143 -3.19111 -9.63327
C 24.0855 -3.25818 -8.09565
C 23.7599 -6.1402 -10.2225
C 24.0568 -6.19459 -7.67321
C 22.8734 -4.00929 -7.47184
C 22.5875 -5.40378 -9.55451
C 22.7578 -5.44845 -8.0168
C 22.5853 -3.91994 -10.0147
C 26.4313 -3.16186 -9.90314
C 26.5988 -3.2508 -8.37369
C 25.3851 -4.01788 -7.76541
C 25.0861 -5.40301 -9.86267
C 25.2646 -5.46251 -8.3179
C 25.1014 -3.9043 -10.3105
C 47.3228 -3.2775 -10.3276
C 47.2432 -3.42587 -8.79374
C 49.8558 -3.27754 -10.2019
C 49.759 -3.41497 -8.64837
C 49.9938 -6.14145 -10.95
C 49.8109 -6.35221 -8.4103
C 48.4873 -4.20725 -8.2993
C 48.6874 -5.46036 -10.4755
C 48.5805 -5.60068 -8.94815
C 48.6394 -3.9543 -10.8498
C 52.3913 -3.307 -10.0226
C 52.2972 -3.43075 -8.48123
C 52.5019 -6.17133 -10.7662
C 52.3172 -6.36613 -8.21392
C 51.0111 -4.18537 -8.12477
C 51.2002 -5.45912 -10.2945
C 51.091 -5.58534 -8.76095
C 51.1789 -3.97332 -10.6791
C 54.9291 -3.35733 -9.86269
C 54.831 -3.47496 -8.32015
C 55.0127 -6.23502 -10.589
C 54.8436 -6.41946 -8.03689
C 53.5427 -4.21518 -7.95528
C 53.7136 -5.50905 -10.113
C 53.6087 -5.62754 -8.56823
C 53.7041 -4.01211 -10.5001
C 57.4374 -3.40727 -9.69981
C 57.3455 -3.52571 -8.15808
C 57.5216 -6.30853 -10.4313
C 57.353 -6.4838 -7.88067
C 56.0558 -4.27584 -7.78883
C 56.234 -5.57403 -9.95101
C 56.1322 -5.69099 -8.40786
C 56.2213 -4.07404 -10.3472
C 59.955 -3.43148 -9.5655
C 59.877 -3.53693 -8.0166
C 60.03 -6.36118 -10.2768
C 59.8951 -6.5096 -7.72737
C 58.5853 -4.31192 -7.64144
C 58.7425 -5.63215 -9.79665
C 58.6481 -5.73872 -8.25496
C 58.7248 -4.13148 -10.1885
C 62.5254 -6.37671 -10.2036
C 62.3939 -6.52433 -7.54204
C 61.1023 -4.33214 -7.48112
C 61.2579 -5.64736 -9.66894
C 61.1802 -5.74388 -8.11289
C 61.209 -4.16294 -10.1322
C 11.3636 -1.72111 -8.9946
C 11.5363 -1.82882 -6.29424
C 13.9376 1.19224 -8.51662
C 14.043 1.13481 -6.95932
C 13.8675 -1.72042 -9.08035
C 14.038 -1.79993 -6.5424
C 12.8508 0.367332 -6.32544
C 12.6321 -0.99017 -8.48286
C 12.7254 -1.04569 -6.92522
C 12.665 0.465493 -9.01694
C 16.47 1.17681 -8.65771
C 16.5881 1.11151 -7.12162
C 16.385 -1.71899 -9.27168
C 16.5877 -1.81032 -6.72097
C 15.3493 0.373318 -6.56394
C 15.1724 -1.00793 -8.65045
C 15.2902 -1.06558 -7.11168
C 15.1695 0.466617 -9.1101
C 18.9919 1.18031 -8.87076
C 19.1255 1.10686 -7.33038
C 18.8795 -1.72385 -9.4932
C 19.1268 -1.82063 -6.95323
C 17.8879 0.363256 -6.74629
C 17.6901 -1.00232 -8.84422
C 17.8231 -1.07041 -7.30354
C 17.6806 0.470921 -9.2905
C 21.5134 1.19861 -9.12629
C 21.6597 1.12723 -7.5876
C 21.3933 -1.72745 -9.76716
C 21.6642 -1.83636 -7.2278
C 20.4409 0.360833 -6.99129
C 20.199 -1.01909 -9.09392
C 20.3599 -1.0832 -7.55487
C 20.1964 0.47251 -9.52672
C 24.0505 1.23868 -9.40292
C 24.1878 1.14954 -7.85432
C 23.9254 -1.68599 -10.058
C 24.1848 -1.818 -7.52037
C 22.9658 0.371745 -7.26009
C 22.7215 -0.992618 -9.37991
C 22.8796 -1.06667 -7.83684
C 22.7124 0.509093 -9.80477
C 26.6195 1.2766 -9.60757
C 26.7239 1.1763 -8.06252
C 26.4611 -1.64966 -10.3111
C 26.6939 -1.8125 -7.76479
C 25.4914 0.392061 -7.5085
C 25.2563 -0.954973 -9.64688
C 25.4011 -1.04217 -8.10623
C 25.2783 0.547651 -10.06
C 29.2034 1.33133 -9.74257
C 29.2712 1.237 -8.19193
C 28.0259 0.418475 -7.69817
C 27.7938 -0.9338 -9.8522
C 27.9183 -1.03122 -8.31259
C 27.8717 0.590597 -10.245
C 31.7825 1.46124 -9.80627
C 31.8191 1.3623 -8.25207
C 30.5981 0.591277 -7.7073
C 30.5106 0.760637 -10.3828
C 34.3416 1.50464 -9.82869
C 34.3565 1.39426 -8.28996
C 33.1115 0.666029 -7.75845
C 33.0741 0.845597 -10.4205
C 36.8768 1.48573 -9.80816
C 36.8735 1.38434 -8.27411
C 35.6135 0.667141 -7.79386
C 35.6038 0.852336 -10.4174
C 39.4017 1.42203 -9.78329
C 39.3969 1.31739 -8.23955
C 38.1125 0.64137 -7.74515
C 38.1272 0.799932 -10.3739
C 41.9457 1.33577 -9.80381
C 41.947 1.21903 -8.24958
C 40.6445 0.545068 -7.72634
C 40.6433 0.733294 -10.3742
C 44.5135 1.18894 -9.85473
C 44.5166 1.05988 -8.30845
C 43.198 0.410755 -7.77696
C 43.1829 0.620699 -10.4343
C 47.1055 1.13858 -9.87088
C 47.0786 1.00289 -8.31758
C 47.2555 -1.76315 -10.677
C 47.139 -2.01808 -8.13424
C 45.7987 0.216014 -7.90978
C 45.9277 -1.07729 -10.1309
C 45.8702 -1.22572 -8.58813
C 45.8196 0.453449 -10.4556
C 49.6895 1.09168 -9.80549
C 49.6432 0.974992 -8.25402
C 49.8114 -1.775 -10.5621
C 49.6741 -2.00169 -8.00583
C 48.3575 0.204124 -7.85985
C 48.4807 -1.08309 -10.0472
C 48.4159 -1.2185 -8.50153
C 48.4267 0.423844 -10.4041
C 52.2708 1.02656 -9.68981
C 52.1929 0.924935 -8.14159
C 52.3711 -1.81795 -10.4044
C 52.2225 -2.01677 -7.8623
C 50.8993 0.182086 -7.75867
C 51.0446 -1.1177 -9.9301
C 50.9587 -1.24003 -8.38346
C 51.0142 0.376201 -10.3072
C 54.8206 0.973695 -9.53793
C 54.7293 0.884526 -7.99297
C 54.9101 -1.86548 -10.2528
C 54.7583 -2.06608 -7.70568
C 53.4448 0.146669 -7.61322
C 53.6063 -1.16608 -9.76482
C 53.5156 -1.27391 -8.22661
C 53.5895 0.313949 -10.1646
C 57.3777 0.955082 -9.37465
C 57.2722 0.860882 -7.81895
C 57.4316 -1.91346 -10.0896
C 57.281 -2.10971 -7.54175
C 55.976 0.108501 -7.46516
C 56.1383 -1.20306 -9.6085
C 56.0449 -1.31815 -8.06982
C 56.131 0.275445 -10.0069
C 59.9161 -1.94782 -10.0066
C 59.7767 -2.13901 -7.34115
C 58.4565 0.0632943 -7.21321
C 58.6618 -1.22707 -9.45285
C 58.5717 -1.33775 -7.88963
C 58.6455 0.253719 -9.89086
C 13.9692 2.64401 -9.02766
C 14.1309 2.54237 -6.34913
C 16.4691 5.53243 -8.48139
C 16.5899 5.4744 -6.93012
C 16.4493 2.65113 -9.11064
C 16.633 2.54542 -6.55923
C 15.3947 4.70951 -6.32216
C 15.217 3.36884 -8.50148
C 15.3181 3.30474 -6.9515
C 15.2061 4.8205 -8.99154
C 18.993 5.55275 -8.68207
C 19.1213 5.48703 -7.14415
C 18.961 2.66061 -9.30908
C 19.1725 2.54635 -6.7698
C 17.9049 4.72692 -6.56217
C 17.7481 3.36027 -8.66784
C 17.8677 3.29371 -7.12851
C 17.6982 4.82882 -9.10679
C 21.5063 5.60546 -8.92565
C 21.6367 5.53534 -7.38368
C 21.4872 2.68607 -9.55596
C 21.7139 2.56766 -7.0104
C 20.4358 4.74893 -6.79368
C 20.2641 3.37624 -8.89803
C 20.3965 3.30518 -7.35385
C 20.2068 4.85983 -9.33717
C 24.0386 5.6715 -9.14102
C 24.1636 5.59398 -7.59784
C 24.0394 2.74629 -9.80951
C 24.2434 2.59431 -7.2627
C 22.9583 4.79623 -7.03168
C 22.8057 3.42537 -9.1488
C 22.9332 3.34893 -7.60477
C 22.7409 4.92444 -9.57884
C 26.6013 5.72803 -9.31756
C 26.6961 5.63867 -7.76917
C 26.6084 2.79426 -9.99978
C 26.7636 2.62621 -7.45657
C 25.479 4.83974 -7.23169
C 25.3537 3.47897 -9.36284
C 25.459 3.38458 -7.82248
C 25.2981 4.98634 -9.77847
C 29.1655 5.79413 -9.43284
C 29.222 5.69437 -7.88957
C 29.1728 2.86584 -10.1323
C 29.2805 2.68917 -7.58622
C 27.9965 4.88636 -7.38354
C 27.9123 3.5318 -9.52455
C 27.9865 3.43311 -7.98618
C 27.8754 5.04734 -9.93009
C 31.7591 5.81415 -9.48074
C 31.7903 5.72136 -7.93819
C 31.7512 2.95743 -10.195
C 31.8204 2.7954 -7.65758
C 30.5204 4.95485 -7.4655
C 30.4617 3.61052 -9.61771
C 30.5178 3.52112 -8.07002
C 30.4502 5.11571 -10.0148
C 34.3442 5.83615 -9.5298
C 34.3622 5.74807 -7.98477
C 34.338 2.99343 -10.2308
C 34.3643 2.81922 -7.69118
C 33.092 4.97735 -7.51699
C 33.0479 3.66142 -9.6635
C 33.0829 3.56576 -8.1282
C 33.0436 5.14398 -10.0634
C 36.9353 5.836 -9.52579
C 36.9345 5.74414 -7.9709
C 36.8998 2.98459 -10.2217
C 36.8858 2.82084 -7.67013
C 35.6435 4.99672 -7.53016
C 35.6318 3.67831 -9.68062
C 35.6353 3.58364 -8.13615
C 35.6406 5.1605 -10.086
C 39.5027 5.79139 -9.49977
C 39.5041 5.70439 -7.95082
C 39.4359 2.92328 -10.1883
C 39.4311 2.75696 -7.64872
C 38.2002 4.97406 -7.50262
C 38.1809 3.65029 -9.65358
C 38.1763 3.55612 -8.10419
C 38.2107 5.13461 -10.0604
C 42.0669 5.71527 -9.49475
C 42.0627 5.62971 -7.94153
C 41.9842 2.83613 -10.189
C 41.9878 2.65263 -7.64514
C 40.7649 4.90053 -7.48384
C 40.7301 3.5745 -9.63633
C 40.7341 3.46788 -8.09111
C 40.7648 5.06033 -10.0401
C 44.6121 5.64966 -9.50622
C 44.6116 5.56344 -7.96202
C 44.5399 2.72626 -10.2094
C 44.5516 2.53031 -7.6792
C 43.3219 4.82729 -7.49416
C 43.2828 3.47766 -9.63592
C 43.2903 3.37169 -8.09935
C 43.3196 4.97752 -10.0485
C 47.1683 5.56878 -9.51886
C 47.1561 5.47445 -7.96738
C 47.1057 2.6536 -10.2382
C 47.0833 2.45514 -7.68099
C 45.8632 4.74036 -7.52063
C 45.8387 3.38701 -9.66695
C 45.8378 3.27708 -8.12327
C 45.8665 4.8993 -10.0658
C 49.7103 5.49494 -9.50195
C 49.6827 5.40637 -7.95427
C 49.6839 2.58794 -10.2044
C 49.6268 2.40635 -7.63491
C 48.3953 4.6524 -7.51107
C 48.3992 3.31606 -9.66884
C 48.3746 3.2026 -8.11383
C 48.4238 4.82574 -10.0718
C 52.2495 5.39983 -9.47588
C 52.2174 5.331 -7.93073
C 52.2553 2.5091 -10.1139
C 52.1554 2.36661 -7.56544
C 50.9213 4.60323 -7.48099
C 50.9545 3.2456 -9.61896
C 50.9119 3.15832 -8.06602
C 50.9756 4.73904 -10.0318
C 54.8038 5.30576 -9.41047
C 54.7415 5.24397 -7.86287
C 54.812 2.44288 -9.98334
C 54.6723 2.31945 -7.43006
C 53.4398 4.53243 -7.43578
C 53.5183 3.16564 -9.51876
C 53.4459 3.09703 -7.98205
C 53.5215 4.63548 -9.97694
C 57.3537 2.40973 -9.87254
C 57.1488 2.25451 -7.1648
C 55.9256 4.45788 -7.23771
C 56.0746 3.1105 -9.3772
C 55.9828 3.04176 -7.81058
C 56.0494 4.55603 -9.923
C 16.438 6.9723 -8.97984
C 16.6667 6.87446 -6.3013
C 18.8687 9.96303 -8.49693
C 19.0059 9.90213 -6.94414
C 18.9284 7.03401 -9.12476
C 19.1563 6.93768 -6.58812
C 17.8614 9.08875 -6.31976
C 17.6934 7.71982 -8.48175
C 17.824 7.66856 -6.93102
C 17.6206 9.18096 -8.97078
C 21.3949 10.0681 -8.73666
C 21.5289 10.0057 -7.19046
C 21.4316 7.10602 -9.35664
C 21.6465 6.99064 -6.81565
C 20.3464 9.18188 -6.6105
C 20.2072 7.79188 -8.71308
C 20.336 7.72478 -7.17689
C 20.1166 9.28865 -9.14862
C 23.9454 10.1306 -8.92679
C 24.0484 10.0763 -7.37685
C 23.9745 7.18105 -9.56674
C 24.1606 7.05132 -7.01593
C 22.8434 9.27755 -6.81893
C 22.7209 7.87501 -8.93144
C 22.8429 7.80435 -7.38246
C 22.6467 9.38034 -9.36342
C 26.5243 10.1708 -9.08614
C 26.6011 10.1139 -7.53589
C 26.5457 7.23641 -9.72979
C 26.6849 7.09612 -7.18264
C 25.3715 9.3199 -6.99908
C 25.274 7.92128 -9.1152
C 25.3762 7.84884 -7.56971
C 25.2129 9.42904 -9.54213
C 29.1271 10.1736 -9.1793
C 29.177 10.1114 -7.63546
C 29.1338 7.29262 -9.84077
C 29.2171 7.13794 -7.28109
C 27.9123 9.35427 -7.12867
C 27.8496 7.9714 -9.2483
C 27.9115 7.89444 -7.70169
C 27.8048 9.46955 -9.67103
C 31.735 10.1673 -9.24153
C 31.761 10.1038 -7.69932
C 31.7419 7.30181 -9.89919
C 31.795 7.14804 -7.33767
C 30.4856 9.34942 -7.20401
C 30.4463 7.98541 -9.32521
C 30.4854 7.90585 -7.77484
C 30.4214 9.47137 -9.74751
C 34.3442 10.1644 -9.28565
C 34.362 10.1035 -7.73869
C 34.349 7.31903 -9.94221
C 34.3718 7.16882 -7.38007
C 33.0675 9.35788 -7.24808
C 33.0448 7.9974 -9.37552
C 33.0678 7.91678 -7.82371
C 33.0259 9.48048 -9.80265
C 36.9515 10.1412 -9.29843
C 36.9626 10.0929 -7.75183
C 36.9445 7.31188 -9.94024
C 36.9451 7.17367 -7.37472
C 35.6586 9.36062 -7.27568
C 35.6522 7.9978 -9.39571
C 35.6551 7.92772 -7.84263
C 35.6471 9.46698 -9.82327
C 39.5606 10.116 -9.31065
C 39.5633 10.0669 -7.76197
C 39.5368 7.26834 -9.93173
C 39.5227 7.14688 -7.36714
C 38.2559 9.34632 -7.27797
C 38.2467 7.97893 -9.39654
C 38.25 7.90855 -7.84262
C 38.2498 9.45352 -9.83158
C 42.1593 10.0888 -9.33174
C 42.1532 10.0412 -7.77575
C 42.1046 7.20612 -9.91979
C 42.1029 7.08526 -7.3703
C 40.8572 9.31475 -7.28768
C 40.8305 7.93367 -9.39493
C 40.8304 7.87038 -7.84728
C 40.8496 9.41242 -9.84515
C 44.7493 10.0426 -9.31756
C 44.7379 9.99225 -7.76578
C 44.666 7.14285 -9.93221
C 44.6625 7.02188 -7.37364
C 43.4335 9.27119 -7.29318
C 43.4045 7.88112 -9.39445
C 43.4057 7.81878 -7.84433
C 43.4428 9.36461 -9.85082
C 47.3068 10.0024 -9.29119
C 47.2941 9.93514 -7.7371
C 47.2165 7.07208 -9.92793
C 47.2002 6.92974 -7.36425
C 45.9981 9.20351 -7.27452
C 45.9648 7.81872 -9.38657
C 45.9626 7.7447 -7.84195
C 46.0133 9.31173 -9.83508
C 49.8433 9.92984 -9.26634
C 49.832 9.84902 -7.71369
C 49.7497 6.99439 -9.91613
C 49.7333 6.85721 -7.36619
C 48.5355 9.13076 -7.24825
C 48.5036 7.75438 -9.37576
C 48.4915 7.67142 -7.82263
C 48.5569 9.25849 -9.81305
C 52.3931 9.81945 -9.28226
C 52.3893 9.75228 -7.72571
C 52.2838 6.88879 -9.90772
C 52.2535 6.77303 -7.36091
C 51.0739 9.02804 -7.25464
C 51.0355 7.66 -9.37452
C 51.0268 7.58305 -7.8328
C 51.0852 9.15577 -9.80496
C 54.7855 6.75997 -9.9384
C 54.7386 6.6575 -7.25707
C 53.5889 8.91829 -7.20609
C 53.5791 7.55564 -9.36535
C 53.5644 7.49364 -7.81354
C 53.6057 9.03117 -9.85338
C 18.769 11.423 -9.01621
C 19.0203 11.3139 -6.30272
C 21.2835 11.5828 -9.201
C 21.5125 11.4794 -6.61903
C 20.0094 12.2155 -8.55186
C 20.15 12.1127 -6.94293
C 23.874 14.612 -8.825
C 23.918 14.565 -7.27
C 23.8748 11.6454 -9.38448
C 24.0396 11.5739 -6.84058
C 22.642 13.812 -6.677
C 22.5769 12.3784 -8.80031
C 22.6841 12.3243 -7.23168
C 22.555 13.912 -9.346
C 26.525 14.563 -8.945
C 26.566 14.53 -7.389
C 26.4918 11.6651 -9.52829
C 26.6098 11.5876 -6.97462
C 25.262 13.831 -6.806
C 25.2026 12.394 -8.95007
C 25.2829 12.3506 -7.38149
C 25.182 13.9 -9.452
C 29.147 14.524 -9.044
C 29.185 14.499 -7.486
C 29.1151 11.6592 -9.62563
C 29.1888 11.5693 -7.06454
C 27.888 13.801 -6.908
C 27.8203 12.3737 -9.06045
C 27.8859 12.3364 -7.49317
C 27.815 13.851 -9.557
C 31.758 14.491 -9.121
C 31.789 14.472 -7.564
C 31.727 11.6382 -9.68186
C 31.7738 11.5569 -7.13379
C 30.496 13.773 -6.991
C 30.4347 12.3495 -9.13174
C 30.4696 12.3199 -7.56912
C 30.433 13.812 -9.642
C 34.358 14.462 -9.179
C 34.385 14.445 -7.621
C 34.3419 11.6276 -9.74625
C 34.3765 11.5525 -7.16923
C 33.093 13.747 -7.056
C 33.0426 12.327 -9.20101
C 33.0675 12.2957 -7.63001
C 33.041 13.781 -9.709
C 36.957 14.437 -9.214
C 36.977 14.419 -7.657
C 36.9458 11.6025 -9.76425
C 36.9748 11.53 -7.19294
C 35.683 13.719 -7.103
C 35.6513 12.3098 -9.23398
C 35.6649 12.2807 -7.67239
C 35.644 13.753 -9.756
C 39.553 14.417 -9.23
C 39.566 14.394 -7.672
C 39.5658 11.5746 -9.78149
C 39.5785 11.513 -7.2174
C 38.271 13.692 -7.129
C 38.2603 12.2805 -9.26427
C 38.2735 12.2571 -7.70073
C 38.244 13.731 -9.783
C 42.149 14.4 -9.221
C 42.157 14.369 -7.663
C 42.174 11.5534 -9.79646
C 42.1647 11.4876 -7.2315
C 40.856 13.665 -7.136
C 40.8717 12.2645 -9.27873
C 40.8753 12.2297 -7.71685
C 40.844 13.715 -9.79
C 44.747 14.385 -9.19
C 44.749 14.342 -7.632
C 44.7794 11.5197 -9.77604
C 44.7525 11.4414 -7.21282
C 43.444 13.637 -7.121
C 43.473 12.237 -9.27167
C 43.4674 12.2046 -7.71116
C 43.443 13.703 -9.774
C 47.353 14.376 -9.129
C 47.348 14.315 -7.577
C 47.3517 11.5006 -9.73346
C 47.3244 11.3972 -7.17943
C 46.036 13.604 -7.086
C 46.069 12.2196 -9.23655
C 46.0554 12.1703 -7.66769
C 46.049 13.696 -9.734
C 49.906 11.4346 -9.70091
C 49.8739 11.3089 -7.14809
C 48.645 13.577 -7.031
C 48.6468 12.2006 -9.18918
C 48.6322 12.1247 -7.63487
C 48.67 13.706 -9.664
C 52.4094 11.3021 -9.77533
C 52.3972 11.1723 -7.08154
C 51.2133 12.0982 -9.15643
C 51.1976 12.0187 -7.59712
C 5.99666 -16.3872 -8.78903
C 6.00057 -16.3871 -7.23437
C 8.57315 -16.3702 -8.77992
C 8.58338 -16.3757 -7.23139
C 8.67981 -19.3079 -9.2966
C 8.70834 -19.336 -6.74082
C 7.32517 -17.1223 -6.71461
C 7.40017 -18.5959 -8.77041
C 7.41766 -18.6011 -7.21472
C 7.30703 -17.1181 -9.27763
C 11.1679 -16.3696 -8.78756
C 11.1846 -16.378 -7.24508
C 11.2156 -19.2777 -9.32431
C 11.235 -19.3213 -6.76689
C 9.91018 -17.1002 -6.73837
C 9.93868 -18.5628 -8.79122
C 9.95734 -18.5756 -7.24401
C 9.88252 -17.0889 -9.27877
C 13.7263 -16.3881 -8.80798
C 13.754 -16.3861 -7.26077
C 13.752 -19.3007 -9.33137
C 13.766 -19.3266 -6.77926
C 12.4764 -17.1191 -6.75447
C 12.4853 -18.5707 -8.81491
C 12.4927 -18.5797 -7.26748
C 12.4519 -17.1047 -9.30657
C 16.2701 -16.4063 -8.85615
C 16.3036 -16.3946 -7.30664
C 16.2737 -19.3317 -9.33915
C 16.2886 -19.3433 -6.78298
C 15.0387 -17.1261 -6.77168
C 15.0171 -18.593 -8.82005
C 15.0302 -18.5918 -7.27831
C 14.9923 -17.1328 -9.32771
C 18.8299 -16.4333 -8.92487
C 18.8686 -16.4006 -7.36591
C 18.7936 -19.378 -9.3319
C 18.7996 -19.3754 -6.79797
C 17.5794 -17.1151 -6.81371
C 17.543 -18.6114 -8.83864
C 17.5512 -18.6019 -7.29393
C 17.5268 -17.1533 -9.36555
C 21.3134 -19.456 -9.37507
C 21.292 -19.4686 -6.70846
C 20.0739 -17.2044 -6.76563
C 20.0857 -18.6745 -8.85034
C 20.084 -18.6662 -7.28738
C 20.0688 -17.2358 -9.43914
C 52.4872 -19.6284 -11.3535
C 52.2729 -19.551 -8.69889
C 54.943 -16.5828 -10.5888
C 54.8237 -16.6014 -9.05211
C 54.9923 -19.5888 -11.087
C 54.7881 -19.543 -8.55043
C 53.5499 -17.3778 -8.63283
C 53.686 -18.8417 -10.7098
C 53.5646 -18.8242 -9.16971
C 53.7811 -17.3919 -11.2764
C 57.5005 -16.5982 -10.392
C 57.3965 -16.6225 -8.85184
C 57.4987 -19.5601 -10.9037
C 57.321 -19.5428 -8.35527
C 56.0692 -17.3414 -8.45935
C 56.2093 -18.8172 -10.4946
C 56.1003 -18.8127 -8.95998
C 56.263 -17.3338 -10.9856
C 60.0612 -16.6347 -10.2099
C 59.9622 -16.6676 -8.66448
C 60.0291 -19.5637 -10.7496
C 59.8788 -19.581 -8.18247
C 58.6227 -17.3738 -8.26568
C 58.7326 -18.8265 -10.3191
C 58.641 -18.8366 -8.76697
C 58.7957 -17.3427 -10.8131
C 62.6359 -16.6676 -10.0318
C 62.5383 -16.699 -8.47734
C 62.5734 -19.5945 -10.5896
C 62.4195 -19.6219 -8.01696
C 61.2005 -17.4091 -8.08439
C 61.2898 -18.8517 -10.1576
C 61.1963 -18.8659 -8.60244
C 61.3695 -17.3808 -10.634
C 65.2142 -16.7367 -9.84803
C 65.122 -16.7643 -8.29827
C 63.7733 -17.4561 -7.90071
C 63.819 -18.8901 -9.99268
C 63.7343 -18.9127 -8.44557
C 63.9376 -17.4152 -10.459
C 8.71633 -20.7786 -8.82664
C 8.73416 -20.8037 -7.2834
C 11.232 -20.7503 -8.85537
C 11.2445 -20.7804 -7.30728
C 11.2654 -23.6539 -9.4441
C 11.2622 -23.7214 -6.88805
C 9.99379 -21.5424 -6.81932
C 10.0139 -22.9441 -8.91516
C 10.0159 -22.9816 -7.37574
C 9.97232 -21.4792 -9.37502
C 13.7686 -20.7675 -8.86194
C 13.7684 -20.7883 -7.31136
C 13.7821 -23.673 -9.44382
C 13.7715 -23.7355 -6.88426
C 12.5092 -21.5274 -6.82648
C 12.5195 -22.9416 -8.92686
C 12.5166 -22.978 -7.37709
C 12.503 -21.4655 -9.3875
C 16.2842 -20.8006 -8.85291
C 16.285 -20.8155 -7.30638
C 16.3004 -23.7265 -9.42385
C 16.2805 -23.7815 -6.86865
C 15.0292 -21.5443 -6.82298
C 15.0418 -22.9738 -8.91372
C 15.0353 -23.0041 -7.36526
C 15.0312 -21.5007 -9.3764
C 18.7983 -20.8447 -8.84271
C 18.7872 -20.8564 -7.2948
C 18.8038 -23.7763 -9.39839
C 18.7746 -23.8312 -6.83714
C 17.5279 -21.5889 -6.80539
C 17.5534 -23.0256 -8.88547
C 17.542 -23.0553 -7.34202
C 17.5377 -21.5477 -9.36697
C 21.3301 -20.903 -8.8188
C 21.3073 -20.9185 -7.25933
C 21.3139 -23.8394 -9.35756
C 21.2746 -23.8924 -6.81322
C 20.0281 -21.6393 -6.78805
C 20.0578 -23.0787 -8.85936
C 20.0378 -23.1095 -7.31357
C 20.0569 -21.6026 -9.33166
C 23.8036 -23.9065 -9.38309
C 23.7783 -23.9475 -6.734
C 22.5171 -21.7214 -6.69968
C 22.5757 -23.1357 -8.84059
C 22.5517 -23.1627 -7.27917
C 22.5578 -21.6743 -9.36806
C 49.7953 -24.1952 -11.2136
C 49.7133 -23.9846 -8.58504
C 52.3561 -21.0817 -10.7407
C 52.2605 -21.0215 -9.18831
C 52.3232 -24.1233 -11.0597
C 52.217 -23.9546 -8.54502
C 50.9952 -21.7699 -8.68714
C 51.0252 -23.3529 -10.677
C 50.9709 -23.2551 -9.13715
C 51.1531 -21.9198 -11.3275
C 54.8969 -21.0649 -10.5647
C 54.8042 -21.0236 -9.01837
C 54.8589 -24.0592 -10.9685
C 54.7301 -23.9536 -8.41888
C 53.4951 -21.7424 -8.57865
C 53.5675 -23.3096 -10.5607
C 53.5071 -23.2304 -9.02296
C 53.6601 -21.8503 -11.1218
C 57.4309 -21.0377 -10.3899
C 57.3379 -21.0246 -8.83336
C 57.3923 -24.0311 -10.8431
C 57.2708 -23.9811 -8.28216
C 56.0247 -21.7486 -8.40075
C 56.1137 -23.2767 -10.4228
C 56.0371 -23.2384 -8.86559
C 56.1915 -21.8083 -10.9543
C 59.9749 -21.041 -10.2515
C 59.8815 -21.0501 -8.6947
C 59.9273 -24.0092 -10.7416
C 59.8116 -23.9942 -8.17738
C 58.5712 -21.7679 -8.24854
C 58.6528 -23.2649 -10.2992
C 58.5719 -23.2462 -8.73262
C 58.7217 -21.7877 -10.817
C 62.4995 -21.0632 -10.0908
C 62.4122 -21.0769 -8.54412
C 61.1123 -21.8038 -8.11858
C 61.1778 -23.2646 -10.1783
C 61.0985 -23.2635 -8.63376
C 61.2567 -21.7883 -10.6726
C 11.2587 -25.1194 -8.97155
C 11.2578 -25.1624 -7.43264
C 13.7672 -25.1535 -8.97821
C 13.7571 -25.1913 -7.42965
C 13.7688 -28.0636 -9.57895
C 13.7499 -28.1422 -7.02185
C 12.4954 -25.932 -6.94584
C 12.5061 -27.3285 -9.04966
C 12.5015 -27.3775 -7.50829
C 12.4998 -25.8566 -9.50998
C 16.2898 -25.2011 -8.95225
C 16.2776 -25.2337 -7.40083
C 16.3003 -28.1119 -9.54194
C 16.2613 -28.1774 -6.98052
C 15.0035 -25.9626 -6.93952
C 15.0285 -27.3675 -9.03662
C 15.0101 -27.409 -7.49019
C 15.0287 -25.8945 -9.49405
C 18.8055 -25.2477 -8.91441
C 18.7858 -25.2831 -7.37579
C 18.8368 -28.1695 -9.50696
C 18.7926 -28.2324 -6.94414
C 17.5246 -26.0066 -6.90099
C 17.5599 -27.4191 -8.99699
C 17.5393 -27.4527 -7.44511
C 17.5526 -25.9437 -9.45325
C 21.324 -25.3225 -8.88455
C 21.2958 -25.3553 -7.33712
C 21.3607 -28.2568 -9.45516
C 21.3093 -28.3062 -6.90018
C 20.0261 -26.0647 -6.8654
C 20.0868 -27.4851 -8.95424
C 20.0592 -27.5168 -7.41667
C 20.0677 -26.0081 -9.42811
C 23.8623 -25.3729 -8.83997
C 23.8255 -25.4004 -7.29134
C 23.922 -28.3043 -9.38689
C 23.8573 -28.3668 -6.84143
C 22.5453 -26.1315 -6.83301
C 22.6241 -27.5633 -8.90994
C 22.5947 -27.5977 -7.35945
C 22.5932 -26.0797 -9.37191
C 26.4635 -28.3356 -9.35656
C 26.3763 -28.411 -6.67951
C 25.0361 -26.1855 -6.6967
C 25.1841 -27.5958 -8.82786
C 25.1438 -27.6303 -7.2784
C 25.1217 -26.1263 -9.35076
C 47.1218 -28.6661 -10.7523
C 47.1616 -28.3909 -8.07615
C 49.6899 -25.6111 -10.5219
C 49.6761 -25.4826 -8.98745
C 49.6503 -28.6049 -10.7344
C 49.6763 -28.3732 -8.19997
C 48.4361 -26.1928 -8.35874
C 48.3658 -27.8337 -10.2988
C 48.3857 -27.6939 -8.74754
C 48.4473 -26.4408 -11.0054
C 52.2444 -25.5669 -10.4744
C 52.2196 -25.4605 -8.93388
C 52.2038 -28.5445 -10.7828
C 52.2053 -28.3624 -8.22217
C 50.9435 -26.1743 -8.40798
C 50.9331 -27.8021 -10.3155
C 50.9392 -27.6743 -8.77841
C 50.9884 -26.3779 -10.9304
C 54.7959 -25.5175 -10.4052
C 54.7507 -25.448 -8.84975
C 54.7562 -28.5026 -10.7779
C 54.7278 -28.3786 -8.20956
C 53.4675 -26.165 -8.35288
C 53.4811 -27.7574 -10.3243
C 53.473 -27.662 -8.76275
C 53.5272 -26.3089 -10.9107
C 57.3305 -25.51 -10.3204
C 57.2711 -25.467 -8.76143
C 57.2969 -28.4773 -10.7508
C 57.2484 -28.3859 -8.17753
C 55.9845 -26.1818 -8.27876
C 56.0168 -27.7351 -10.2877
C 55.9894 -27.6673 -8.72928
C 56.0693 -26.272 -10.8455
C 59.8579 -25.4828 -10.2244
C 59.7936 -25.4626 -8.67946
C 58.5189 -26.2016 -8.19893
C 58.5487 -27.7103 -10.2372
C 58.5148 -27.6688 -8.69008
C 58.613 -26.2484 -10.7759
C 13.8053 -29.5403 -9.12726
C 13.782 -29.584 -7.58088
C 16.3285 -29.5869 -9.08229
C 16.2968 -29.6309 -7.53301
C 16.372 -32.5023 -9.67868
C 16.3 -32.5584 -7.09983
C 15.0246 -30.3602 -7.07673
C 15.1018 -31.7552 -9.18409
C 15.0552 -31.8021 -7.63879
C 15.0787 -30.2744 -9.64171
C 18.8715 -29.6517 -9.03976
C 18.8373 -29.6875 -7.48443
C 18.9183 -32.5807 -9.58415
C 18.8551 -32.6252 -7.03266
C 17.5559 -30.4011 -7.02477
C 17.6299 -31.8156 -9.11446
C 17.5925 -31.8514 -7.5586
C 17.6087 -30.335 -9.58449
C 21.4077 -29.7385 -8.98073
C 21.3749 -29.7699 -7.43735
C 21.4648 -32.6728 -9.52959
C 21.4082 -32.7164 -6.98437
C 20.0981 -30.4748 -6.9688
C 20.1835 -31.9041 -9.04134
C 20.1476 -31.9303 -7.49791
C 20.1536 -30.4317 -9.52541
C 23.971 -29.7955 -8.92607
C 23.9383 -29.8339 -7.37286
C 24.0197 -32.7395 -9.48993
C 23.9715 -32.7873 -6.92624
C 22.6461 -30.5488 -6.91184
C 22.7333 -31.979 -8.99
C 22.7003 -32.0091 -7.44295
C 22.7046 -30.4953 -9.47744
C 26.5738 -29.8225 -8.84811
C 26.5535 -29.8637 -7.2951
C 26.5824 -32.8041 -9.43203
C 26.5461 -32.8569 -6.88596
C 25.2405 -30.6129 -6.85924
C 25.2976 -32.0399 -8.9456
C 25.2724 -32.0759 -7.39891
C 25.2935 -30.5448 -9.40436
C 29.2224 -29.9952 -8.86714
C 29.232 -30.0225 -7.3272
C 29.143 -32.9007 -9.41298
C 29.1555 -32.9372 -6.86825
C 27.8727 -30.66 -6.81322
C 27.8708 -32.1118 -8.89825
C 27.8608 -32.1449 -7.34823
C 27.8798 -30.607 -9.36438
C 31.7763 -30.1192 -8.93684
C 31.8189 -30.1415 -7.39475
C 31.6929 -33.0201 -9.47088
C 31.7593 -33.0265 -6.91961
C 30.5173 -30.805 -6.85628
C 30.4494 -32.2389 -8.92834
C 30.4746 -32.2561 -7.37892
C 30.4643 -30.7751 -9.41339
C 34.2803 -30.2053 -9.08392
C 34.3494 -30.1974 -7.54155
C 34.2337 -33.1008 -9.57303
C 34.3394 -33.087 -7.01443
C 33.0995 -30.8967 -6.95539
C 32.9962 -32.3446 -9.01514
C 33.0516 -32.3518 -7.46603
C 32.9864 -30.8857 -9.51519
C 36.771 -30.2218 -9.25101
C 36.8532 -30.1947 -7.70873
C 36.7825 -33.1367 -9.68652
C 36.8992 -33.0847 -7.13023
C 35.6327 -30.9181 -7.10434
C 35.5307 -32.4022 -9.13836
C 35.5976 -32.3844 -7.58826
C 35.4932 -30.9548 -9.66898
C 39.3093 -30.1952 -9.38636
C 39.3844 -30.1382 -7.84155
C 39.3348 -33.1234 -9.79059
C 39.4481 -33.0353 -7.23946
C 38.1522 -30.874 -7.25411
C 38.0718 -32.3904 -9.27069
C 38.1454 -32.3479 -7.71675
C 38.0197 -30.9396 -9.81072
C 41.8573 -30.19 -9.54075
C 41.9444 -30.0987 -7.99533
C 41.8905 -33.0977 -9.89786
C 42.0162 -32.9735 -7.345
C 40.7044 -30.8117 -7.37511
C 40.6184 -32.3682 -9.36857
C 40.6926 -32.2995 -7.81754
C 40.5626 -30.9298 -9.92709
C 44.396 -30.1327 -9.75167
C 44.4897 -30.0252 -8.21381
C 44.4456 -33.0647 -10.0476
C 44.5879 -32.901 -7.50472
C 43.2738 -30.7551 -7.5512
C 43.1784 -32.3344 -9.50932
C 43.2615 -32.2461 -7.96409
C 43.1095 -30.9194 -10.1029
C 47.0187 -30.0384 -9.98877
C 47.0849 -29.8966 -8.43679
C 47.0092 -33.0124 -10.2056
C 47.1366 -32.8351 -7.66276
C 45.8431 -30.6354 -7.77033
C 45.7419 -32.2692 -9.68747
C 45.8276 -32.1579 -8.13865
C 45.682 -30.8349 -10.3134
C 49.6045 -30.0187 -10.1041
C 49.6524 -29.8812 -8.56109
C 49.5683 -32.9617 -10.3581
C 49.6835 -32.7844 -7.81238
C 48.3997 -30.5838 -7.93712
C 48.3075 -32.2264 -9.84886
C 48.3802 -32.1046 -8.30326
C 48.2985 -30.8125 -10.4744
C 52.177 -29.9706 -10.1881
C 52.2005 -29.8604 -8.62497
C 52.1366 -32.9073 -10.4765
C 52.2208 -32.7476 -7.91845
C 50.9458 -30.5537 -8.03644
C 50.8727 -32.1742 -9.97694
C 50.9285 -32.0613 -8.42529
C 50.875 -30.7552 -10.5967
C 54.7359 -29.9408 -10.2041
C 54.7431 -29.8594 -8.64146
C 54.7051 -32.8848 -10.5563
C 54.7515 -32.7417 -7.99695
C 53.475 -30.5593 -8.09763
C 53.4379 -32.1357 -10.0636
C 53.4677 -32.0433 -8.50791
C 53.4509 -30.711 -10.6577
C 57.2843 -29.9251 -10.1869
C 57.2786 -29.8591 -8.6376
C 56.019 -30.574 -8.10546
C 55.9821 -32.1275 -10.0943
C 55.9975 -32.0427 -8.55277
C 56.0194 -30.6937 -10.6696
C 16.3742 -33.9705 -9.17746
C 16.3235 -34.0074 -7.63167
C 18.9114 -34.0595 -9.10026
C 18.8733 -34.0885 -7.54673
C 18.8623 -36.9683 -9.65319
C 18.8063 -37.0127 -7.08344
C 17.5616 -34.778 -7.08708
C 17.6126 -36.1953 -9.16171
C 17.5743 -36.2299 -7.61614
C 17.6382 -34.7306 -9.65203
C 21.4596 -34.1501 -9.05417
C 21.4319 -34.1758 -7.50342
C 21.3954 -37.1034 -9.5812
C 21.3479 -37.147 -7.03717
C 20.132 -34.8706 -7.02892
C 20.1482 -36.3045 -9.10071
C 20.1183 -36.3371 -7.55349
C 20.1831 -34.8286 -9.58899
C 24.0074 -34.2352 -9.0104
C 23.9864 -34.2636 -7.45328
C 23.9444 -37.1963 -9.55175
C 23.8981 -37.2292 -6.99848
C 22.6819 -34.9697 -6.98539
C 22.6868 -36.4142 -9.06434
C 22.6584 -36.4372 -7.50946
C 22.7247 -34.9289 -9.54998
C 26.56 -34.3027 -8.96835
C 26.5475 -34.3327 -7.40967
C 26.5108 -37.2495 -9.51039
C 26.4727 -37.2725 -6.96313
C 25.2381 -35.0447 -6.94017
C 25.2394 -36.4888 -9.02356
C 25.2131 -36.5121 -7.47071
C 25.2798 -35.0029 -9.50653
C 29.1272 -34.3773 -8.93092
C 29.1308 -34.396 -7.38478
C 29.0724 -37.2941 -9.49006
C 29.0629 -37.3127 -6.92946
C 27.8188 -35.0994 -6.90158
C 27.8045 -36.5457 -8.9825
C 27.7934 -36.5599 -7.43379
C 27.8391 -35.065 -9.46132
C 31.6876 -34.4778 -8.97248
C 31.7176 -34.4826 -7.42734
C 31.6414 -37.3549 -9.4942
C 31.6659 -37.3654 -6.94465
C 30.4143 -35.163 -6.89914
C 30.3704 -36.6061 -8.96765
C 30.3739 -36.6152 -7.42281
C 30.3846 -35.1472 -9.45787
C 34.2518 -34.5488 -9.05673
C 34.301 -34.5407 -7.50392
C 34.2188 -37.4136 -9.54436
C 34.2628 -37.4029 -6.98293
C 33.0095 -35.2317 -6.96157
C 32.9467 -36.6768 -9.01265
C 32.9713 -36.6782 -7.46582
C 32.94 -35.2337 -9.51714
C 36.8227 -34.5759 -9.14305
C 36.8775 -34.5513 -7.58982
C 36.812 -37.4461 -9.59151
C 36.8651 -37.4085 -7.0355
C 35.5989 -35.2625 -7.03184
C 35.5338 -36.7257 -9.07429
C 35.5605 -36.7099 -7.52158
C 35.5237 -35.2875 -9.59561
C 39.3792 -34.5545 -9.22708
C 39.4374 -34.51 -7.67875
C 39.3833 -37.4494 -9.63572
C 39.4611 -37.4002 -7.08728
C 38.1812 -35.2411 -7.10466
C 38.1148 -36.7301 -9.11699
C 38.1535 -36.7028 -7.56779
C 38.0938 -35.2996 -9.66004
C 41.9446 -34.5293 -9.32376
C 42.011 -34.4617 -7.77594
C 41.9472 -37.4396 -9.72681
C 42.0427 -37.368 -7.16907
C 40.7494 -35.1969 -7.20201
C 40.6794 -36.7171 -9.19033
C 40.7318 -36.6772 -7.64866
C 40.653 -35.2832 -9.74497
C 44.5013 -34.4939 -9.45247
C 44.5759 -34.4094 -7.90467
C 44.5336 -37.4217 -9.81472
C 44.6385 -37.3369 -7.26735
C 43.3263 -35.1438 -7.29904
C 43.248 -36.6975 -9.29313
C 43.3123 -36.6384 -7.74079
C 43.214 -35.2571 -9.85785
C 47.0474 -34.4386 -9.59852
C 47.1293 -34.3454 -8.04636
C 47.0932 -37.387 -9.93619
C 47.2183 -37.2863 -7.38392
C 45.8884 -35.093 -7.4284
C 45.8251 -36.662 -9.39939
C 45.8889 -36.5948 -7.85289
C 45.7653 -35.2234 -9.97212
C 49.607 -34.3916 -9.75319
C 49.6856 -34.291 -8.21442
C 49.6361 -37.3293 -10.0803
C 49.7735 -37.2245 -7.53319
C 48.4515 -35.0211 -7.5849
C 48.373 -36.6098 -9.54372
C 48.4572 -36.5342 -7.99475
C 48.3096 -35.1702 -10.129
C 52.1611 -34.3361 -9.8733
C 52.225 -34.2394 -8.32523
C 52.201 -37.2527 -10.2167
C 52.307 -37.1428 -7.66412
C 50.9902 -34.9698 -7.72968
C 50.9252 -36.5407 -9.69478
C 51.0012 -36.4671 -8.14916
C 50.8677 -35.1129 -10.2781
C 54.6959 -34.3087 -9.97459
C 54.7435 -34.2163 -8.43205
C 53.5228 -34.9271 -7.82714
C 53.4606 -36.4873 -9.8044
C 53.5289 -36.4036 -8.26516
C 53.4229 -35.0687 -10.3983
C 18.8032 -38.4334 -9.16093
C 18.7679 -38.4644 -7.61168
C 21.3178 -38.6004 -9.09615
C 21.2863 -38.6388 -7.55132
C 19.9526 -39.3214 -7.0795
C 20.01 -39.2652 -9.63895
C 23.8785 -38.6847 -9.06499
C 23.8483 -38.7122 -7.51274
C 22.5169 -39.4406 -7.03903
C 22.5646 -39.3922 -9.58566
C 26.4605 -38.7268 -9.02275
C 26.4358 -38.7405 -7.47877
C 25.119 -39.4673 -6.99474
C 25.1556 -39.4377 -9.54817
C 29.0426 -38.7646 -9.00304
C 29.0373 -38.7744 -7.45219
C 27.7194 -39.4869 -6.96168
C 27.7412 -39.47 -9.52195
C 31.6326 -38.8122 -9.00475
C 31.6404 -38.8119 -7.45934
C 30.3326 -39.5039 -6.95969
C 30.3271 -39.5047 -9.5115
C 34.2228 -38.8564 -9.03127
C 34.2424 -38.8471 -7.48305
C 32.9359 -39.538 -6.97009
C 32.9118 -39.5441 -9.51878
C 36.8139 -38.879 -9.0621
C 36.8434 -38.8566 -7.51987
C 35.5453 -39.5476 -6.98677
C 35.5082 -39.57 -9.54888
C 39.3962 -38.8864 -9.11289
C 39.437 -38.8622 -7.56297
C 38.1423 -39.5587 -7.02676
C 38.0885 -39.5858 -9.58737
C 41.9795 -38.8762 -9.18361
C 42.0314 -38.8486 -7.63407
C 40.7431 -39.5685 -7.08257
C 40.6735 -39.5958 -9.64413
C 44.5781 -38.8719 -9.27365
C 44.6351 -38.8353 -7.7287
C 43.3525 -39.5594 -7.16371
C 43.2674 -39.5941 -9.71489
C 47.1629 -38.8378 -9.38137
C 47.2253 -38.802 -7.82118
C 45.9576 -39.5532 -7.25466
C 45.8686 -39.5906 -9.8132
C 49.7171 -38.7913 -9.51474
C 49.7939 -38.7563 -7.95946
C 48.5562 -39.528 -7.36011
C 48.4444 -39.5653 -9.92743
C 52.2425 -38.6825 -9.64155
C 52.3132 -38.6388 -8.09682
C 51.1268 -39.3746 -7.45083
C 50.9901 -39.3818 -10.1722
C 23.773 -41.615 -9.657
C 23.76 -41.676 -6.971
C 22.459 -40.914 -9.114
C 22.443 -40.961 -7.537
C 26.389 -41.643 -9.613
C 26.391 -41.67 -6.916
C 25.09 -40.933 -9.066
C 25.086 -40.959 -7.484
C 28.992 -41.669 -9.589
C 29.005 -41.676 -6.889
C 27.7 -40.956 -9.036
C 27.703 -40.966 -7.454
C 31.59 -41.692 -9.583
C 31.613 -41.686 -6.882
C 30.301 -40.976 -9.025
C 30.31 -40.978 -7.441
C 34.184 -41.713 -9.595
C 34.217 -41.698 -6.893
C 32.898 -40.996 -9.03
C 32.913 -40.99 -7.447
C 36.779 -41.731 -9.623
C 36.821 -41.712 -6.922
C 35.493 -41.014 -9.052
C 35.515 -41.005 -7.469
C 39.374 -41.746 -9.668
C 39.425 -41.728 -6.968
C 38.089 -41.03 -9.09
C 38.116 -41.02 -7.507
C 41.975 -41.756 -9.732
C 42.033 -41.744 -7.034
C 40.688 -41.044 -9.144
C 40.72 -41.036 -7.561
C 44.583 -41.761 -9.813
C 44.649 -41.764 -7.119
C 43.291 -41.054 -9.214
C 43.328 -41.051 -7.633
C 47.209 -41.754 -9.927
C 47.287 -41.787 -7.217
C 45.905 -41.061 -9.306
C 45.949 -41.071 -7.719
C 48.492 -41.013 -9.399
C 48.547 -41.042 -7.836
C 21.061 -41.679 -7.076
C 19.845 -40.771 -9.166
C 19.821 -40.827 -7.583
C 21.101 -41.571 -9.712
C 51.236 -41.011 -7.379
C 49.926 -41.736 -9.494
C 49.983 -41.779 -7.931
C 51.136 -40.937 -10.083
C 51.244 13.459 -6.965
C 50.012 14.377 -9.049
C 49.997 14.296 -7.467
C 51.282 13.612 -9.607
C 21.184 14.537 -6.548
C 19.885 13.832 -8.666
C 19.94 13.759 -7.106
C 21.09 14.66 -9.239
H 3.558 -12.104 -9.017
H 3.57 -12.109 -7.107
H 3.506 -14.522 -9.235
H 3.539 -14.533 -6.911
H 67.581 -12.652 -9.873
H 67.583 -12.654 -7.97
H 67.549 -15.077 -10.099
H 67.523 -15.088 -7.773
H 5.13735 -16.9387 -6.86211
H 5.13294 -16.942 -9.15545
H 23.772 -42.663 -9.387
H 23.775 -42.712 -7.284
H 20.939 -42.596 -9.405
H 20.907 -42.66 -7.507
H 18.946 -41.194 -9.596
H 18.901 -41.297 -7.261
H 52.07 -41.369 -9.748
H 52.13 -41.426 -7.826
H 50.015 -42.714 -9.949
H 50.099 -42.799 -7.589
H 52.169 14.051 -9.17
H 20.96 15.633 -8.784
H 21.026 15.56 -6.863
H 18.943 14.26 -8.984
H 19.041 14.14 -6.64
H 5.20292 -9.83297 -9.09392
H 5.21403 -9.86519 -6.83708
H 11.7648 1.01066 -8.72635
H 11.9211 0.927907 -6.44121
H 10.4595 -1.18432 -8.70028
H 10.6025 -1.2742 -6.39863
H 6.57385 -7.71278 -8.98062
H 6.61216 -7.78425 -6.72788
H 14.2972 5.34051 -8.68264
H 14.4633 5.26408 -6.45904
H 13.0569 3.17895 -8.7554
H 13.2 3.09499 -6.49275
H 9.16428 -3.37571 -8.72187
H 9.2702 -3.46564 -6.48796
H 7.87871 -5.5549 -8.82913
H 7.95874 -5.62714 -6.60085
H 16.6944 9.665 -8.65085
H 16.8969 9.59251 -6.42858
H 15.5218 7.47761 -8.67025
H 15.7231 7.41205 -6.41674
H 62.1233 -3.64966 -9.85304
H 62.0274 -3.77124 -7.65079
H 64.7581 -8.0382 -9.99237
H 64.646 -8.12877 -7.77874
H 66.1189 -10.2574 -10.0655
H 66.0372 -10.3047 -7.77673
H 63.4276 -5.83907 -9.91072
H 63.3273 -5.97436 -7.70457
H 59.5326 0.774815 -9.54523
H 59.3945 0.605206 -7.31266
H 60.8282 -1.44432 -9.69047
H 60.7025 -1.57347 -7.49511
H 56.9484 5.0926 -9.65687
H 56.8549 4.98252 -7.39895
H 58.2413 2.94037 -9.54117
H 58.0763 2.81114 -7.2389
H 54.5532 9.50493 -9.58954
H 54.5371 9.42162 -7.40637
H 55.7189 7.25676 -9.7003
H 55.6936 7.15211 -7.46094
H 23.868 15.656 -9.111
H 23.932 15.589 -6.922
H 26.529 15.605 -9.238
H 26.59 15.559 -7.055
H 29.151 15.564 -9.343
H 29.206 15.53 -7.157
H 31.761 15.53 -9.424
H 31.808 15.503 -7.237
H 34.364 15.501 -9.482
H 34.402 15.477 -7.295
H 36.963 15.475 -9.518
H 36.991 15.45 -7.33
H 39.559 15.457 -9.53
H 39.579 15.424 -7.342
H 42.156 15.441 -9.517
H 42.164 15.398 -7.328
H 44.757 15.429 -9.475
H 44.756 15.368 -7.289
H 47.342 15.423 -9.404
H 47.334 15.337 -7.222
H 6.52566 -19.1462 -9.11727
H 6.55404 -19.1502 -6.83922
H 11.6131 -27.8243 -9.42936
H 11.6081 -27.896 -7.16104
H 10.363 -25.673 -7.07861
H 10.3645 -25.6149 -9.34829
H 9.1349 -23.4623 -9.29665
H 9.13039 -23.5097 -7.02462
H 7.85742 -21.3341 -6.91166
H 7.83165 -21.3018 -9.1887
H 14.2233 -32.2553 -9.58932
H 14.1537 -32.3237 -7.31808
H 12.8839 -30.0997 -7.24312
H 12.9246 -30.049 -9.5172
H 64.7182 -19.424 -10.3199
H 64.5933 -19.4608 -8.0483
H 65.9522 -17.3478 -7.88685
H 66.1037 -17.2837 -10.1635
H 56.8597 -32.6821 -10.432
H 56.8911 -32.5468 -8.18885
H 60.6643 -25.9775 -8.27303
H 60.7544 -26.009 -10.5596
H 62.0809 -23.7827 -10.5039
H 61.9667 -23.7797 -8.22808
H 63.2622 -21.6224 -8.13838
H 63.3986 -21.5938 -10.4053
H 58.1667 -30.3552 -8.24918
H 58.1697 -30.4643 -10.5281
H 59.4408 -28.2391 -10.5797
H 59.396 -28.1767 -8.29833
H 17.8936 -38.8968 -9.54284
H 16.7214 -36.6874 -9.54821
H 16.6668 -36.7379 -7.29038
H 15.4146 -34.5202 -7.31688
H 15.4952 -34.4793 -9.5694
H 17.8373 -38.9323 -7.29323
H 53.242 -39.1061 -7.77308
H 53.1258 -39.1924 -10.0206
H 54.3445 -37.0005 -10.1891
H 54.4402 -36.8874 -7.92129
H 55.6488 -34.7086 -8.08281
H 55.5795 -34.8457 -10.325
H 26.375 -42.688 -9.332
H 26.392 -42.71 -7.216
H 28.982 -42.711 -9.298
H 29.004 -42.718 -7.18
H 31.583 -42.733 -9.288
H 31.606 -42.729 -7.168
H 34.18 -42.753 -9.296
H 34.21 -42.742 -7.178
H 36.778 -42.771 -9.323
H 36.81 -42.757 -7.204
H 39.377 -42.786 -9.37
H 39.414 -42.772 -7.251
H 41.981 -42.796 -9.435
H 42.02 -42.788 -7.317
H 44.593 -42.803 -9.522
H 44.632 -42.807 -7.408
H 47.224 -42.796 -9.637
H 47.272 -42.824 -7.526
H 53.3603 11.7877 -9.55794
H 53.342 11.6718 -7.27778
H 17.8375 11.8936 -8.67069
H 18.0588 11.7941 -6.42005
H 50.142 15.411 -9.341
H 50.109 15.266 -7.002
H 52.158 13.95 -7.273
H 23.756 -41.687 -5.89
H 58.5371 -17.3618 -7.17919
H 26.39 -41.664 -5.834
H 13.7728 -19.341 -5.69087
H 12.4841 -17.1198 -5.66661
H 29.008 -41.659 -5.808
H 31.62 -41.664 -5.801
H 16.2856 -19.363 -5.6952
H 15.0611 -17.1342 -5.68359
H 36.836 -41.685 -5.841
H 39.446 -41.701 -5.887
H 21.2091 -19.5029 -5.62049
H 20.4477 9.12537 -5.53093
H 44.676 -41.747 -6.038
H 17.5204 -34.7894 -6.00128
H 47.316 -41.784 -6.136
H 50.9869 -21.756 -7.59441
H 17.6023 -17.0916 -5.72535
H 52.2494 -10.763 -7.44363
H 50.9816 -8.59864 -7.40686
H 61.1316 -17.4202 -6.99623
H 54.7826 -10.8167 -7.22905
H 53.5066 -8.63723 -7.19225
H 57.3429 -10.8974 -7.04551
H 56.0653 -8.69972 -7.01671
H 40.8811 9.28313 -6.19924
H 59.877 -10.9275 -6.85871
H 58.5748 -8.73317 -6.83906
H 35.6439 -35.2434 -5.94421
H 36.8834 -37.3911 -5.9481
H 22.9082 9.24334 -5.73007
H 51.275 -41.039 -6.299
H 62.4907 -10.9255 -6.68471
H 61.1342 -8.74517 -6.68373
H 47.2414 -28.299 -6.99041
H 53.4296 -21.7047 -7.49182
H 65.016 -10.9346 -6.51369
H 63.6547 -8.76262 -6.52474
H 8.9599 -6.31499 -5.3495
H 11.4462 -6.24871 -5.46227
H 10.3207 -4.11934 -5.25868
H 34.228 -41.673 -5.812
H 51.224 13.39 -5.886
H 14.003 -6.22328 -5.58564
H 12.7882 -4.04399 -5.43439
H 31.6738 -37.3592 -5.85806
H 52.2344 -19.5459 -7.60672
H 16.5526 -6.19236 -5.75948
H 15.3498 -4.02386 -5.60594
H 54.702 -19.5263 -7.46589
H 19.1385 -6.1848 -5.99106
H 17.921 -4.02046 -5.8215
H 39.4862 -37.367 -6.00522
H 25.4233 9.27028 -5.91185
H 57.2476 -19.5304 -7.26795
H 21.6906 -6.18485 -6.28742
H 20.4621 -4.0357 -6.08728
H 38.223 -35.1993 -6.01988
H 21.2678 -28.3376 -5.81317
H 18.7865 -19.3884 -5.70996
H 55.9492 -21.7052 -7.31424
H 59.8097 -19.5872 -7.098
H 24.1931 -6.1982 -6.59469
H 23.0032 -4.0475 -6.39172
H 62.3602 -19.6314 -6.92226
H 25.5139 -4.06313 -6.68792
H 11.2695 -23.748 -5.80307
H 63.7048 -17.4895 -6.79875
H 13.778 -23.7651 -5.79551
H 12.5221 -21.5545 -5.73846
H 42.058 -41.72 -5.953
H 16.2654 -23.8079 -5.78023
H 40.7969 -35.1537 -6.116
H 58.5199 -21.7507 -7.15893
H 19.9985 -17.2016 -5.67658
H 17.5124 -21.6211 -5.7175
H 22.4531 -21.7851 -5.6125
H 49.735 -6.45138 -7.33062
H 48.4202 -4.316 -7.22009
H 51.0708 8.99484 -6.17249
H 52.2199 -6.44074 -7.13296
H 50.9288 -4.27029 -7.04352
H 44.6684 -37.3077 -6.18023
H 30.4882 9.31115 -6.12116
H 54.7823 -6.49257 -6.95279
H 53.4756 -4.29735 -6.87226
H 43.3792 -35.0917 -6.21366
H 54.7216 -28.3457 -7.11903
H 57.2753 -6.5479 -6.79541
H 55.9664 -4.35339 -6.70433
H 59.8231 -6.57862 -6.64145
H 58.5108 -4.40223 -6.5394
H 62.3023 -6.60538 -6.45919
H 61.0176 -4.4223 -6.39137
H 15.029 -21.5724 -5.7348
H 11.7164 -1.93454 -5.22339
H 42.085 -37.3351 -6.08244
H 14.124 -1.82388 -5.45768
H 13.0188 0.292772 -5.2507
H 16.6659 -1.8472 -5.63533
H 15.4161 0.341086 -5.47802
H 47.2838 -37.2277 -6.31337
H 33.0545 9.30271 -6.15084
H 19.2422 -1.85569 -5.87025
H 17.979 0.324722 -5.66189
H 45.94 -35.029 -6.34275
H 57.2563 -28.3525 -7.08671
H 52.171 -23.8844 -7.45952
H 21.7845 -1.88838 -6.14653
H 20.5572 0.315105 -5.90871
H 12.4969 -25.9701 -5.86058
H 54.6661 -23.9055 -7.33212
H 24.303 -1.88428 -6.4407
H 23.0821 0.310724 -6.17887
H 18.75 -23.8593 -5.74999
H 57.2051 -23.9784 -7.19229
H 26.7951 -1.89792 -6.68635
H 25.577 0.322567 -6.42472
H 59.7782 -23.9822 -7.08491
H 28.0983 0.3122 -6.61711
H 61.0588 -21.8083 -7.04885
H 30.6181 0.599202 -6.61586
H 49.6829 -28.2602 -7.11563
H 35.6821 9.32275 -6.19038
H 33.1245 0.682998 -6.6678
H 58.4954 -26.1899 -7.10754
H 56.0306 -30.5378 -7.03461
H 35.6048 0.637645 -6.70233
H 14.9926 -25.9993 -5.8512
H 38.1025 0.642767 -6.65464
H 33.0468 -35.2261 -5.86988
H 21.2456 -23.9242 -5.72531
H 40.648 0.555774 -6.63447
H 20.0096 -21.668 -5.70021
H 43.2395 0.403147 -6.68731
H 47.0938 -2.15078 -7.05612
H 45.7877 0.0537239 -6.83297
H 38.2645 9.30695 -6.18774
H 49.6144 -2.12341 -6.92704
H 48.3214 0.105331 -6.77643
H 51.0375 -34.9075 -6.64281
H 23.8107 -28.4005 -5.75386
H 13.7343 -28.191 -5.93694
H 52.1428 -2.09665 -6.78116
H 50.8436 0.100236 -6.6769
H 17.5121 -26.0361 -5.81182
H 14.9879 -30.409 -5.99184
H 54.6859 -2.15411 -6.62449
H 53.3701 0.052932 -6.5234
H 23.7229 -23.9867 -5.64446
H 57.2116 -2.1965 -6.45381
H 55.8828 0.0314774 -6.38898
H 59.6699 -2.28223 -6.26285
H 58.289 -0.0628195 -6.14796
H 14.258 2.47002 -5.26945
H 16.7056 2.5001 -5.47359
H 15.5354 4.61367 -5.24671
H 10.0041 -21.587 -5.7351
H 19.28 2.50142 -5.68721
H 17.9992 4.67398 -5.47963
H 53.5353 8.86959 -6.11586
H 21.8367 2.51077 -5.9291
H 20.5453 4.69252 -5.71217
H 39.4896 -32.9921 -6.15349
H 19.9908 -26.0956 -5.77831
H 24.3326 2.5131 -6.18072
H 23.0513 4.74473 -5.94849
H 48.4965 -26.1281 -7.271
H 22.5136 -39.4525 -5.94802
H 26.8314 2.5554 -6.37243
H 25.5498 4.76844 -6.14834
H 50.925 -26.0739 -7.32223
H 29.3255 2.60557 -6.50093
H 28.05 4.80227 -6.29974
H 53.436 -26.0999 -7.26539
H 31.8455 2.72259 -6.57223
H 30.5507 4.87254 -6.38095
H 55.948 -26.1521 -7.18931
H 44.6601 6.97139 -6.2868
H 34.3753 2.75537 -6.60478
H 33.1123 4.90444 -6.43328
H 36.8671 2.74825 -6.585
H 35.6433 4.93356 -6.44486
H 16.2538 -32.5808 -6.01381
H 22.5188 -26.1557 -5.74474
H 39.4113 2.69609 -6.56261
H 38.1995 4.91437 -6.41737
H 18.8251 -32.6318 -5.94338
H 17.5268 -30.4286 -5.93538
H 41.9835 2.57425 -6.55925
H 40.7666 4.8349 -6.39887
H 21.3825 -32.7319 -5.89665
H 20.0643 -30.5011 -5.88058
H 44.5661 2.43966 -6.59275
H 43.3303 4.75117 -6.4101
H 23.941 -32.815 -5.83858
H 22.6111 -30.5687 -5.82508
H 47.0806 2.35593 -6.59774
H 45.8649 4.68158 -6.43511
H 26.5155 -32.8777 -5.79869
H 25.2017 -30.6371 -5.77072
H 27.9478 9.29001 -6.03435
H 49.5951 2.33613 -6.5509
H 48.3999 4.58521 -6.42558
H 29.1579 -32.9371 -5.7799
H 27.8626 -30.6612 -5.72358
H 52.1232 2.30013 -6.48421
H 50.9154 4.53822 -6.39615
H 31.7937 -33.0273 -5.83247
H 30.539 -30.8012 -5.77066
H 24.916 -26.2556 -5.61445
H 54.5903 2.26807 -6.33578
H 53.3798 4.48593 -6.34626
H 34.3906 -33.0724 -5.92811
H 33.1657 -30.8852 -5.87237
H 56.9689 2.14184 -6.10167
H 55.8011 4.41722 -6.14659
H 36.9543 -33.0615 -6.04408
H 35.7059 -30.8961 -6.02003
H 21.053 -41.724 -5.995
H 16.8259 6.77445 -5.22816
H 19.2606 6.88438 -5.50509
H 18.0136 9.00724 -5.24132
H 38.2072 -30.8344 -6.16919
H 21.7314 6.93423 -5.73124
H 5.80475 -14.8557 -5.68191
H 4.493 -12.593 -5.683
H 42.0713 -32.9087 -6.26037
H 40.7638 -30.7486 -6.29208
H 52.1976 -28.2761 -7.13617
H 24.2364 7.00204 -5.92894
H 8.51815 -14.8985 -5.64782
H 7.19955 -12.7046 -5.65239
H 44.653 -32.8344 -6.42089
H 43.3638 -30.6691 -6.47166
H 26.7378 7.01402 -6.09728
H 11.1554 -14.9101 -5.64978
H 9.87419 -12.7362 -5.63881
H 47.2062 -32.745 -6.58183
H 45.9372 -30.5391 -6.69048
H 29.2521 7.06575 -6.19424
H 13.7826 -14.9158 -5.67389
H 12.4887 -12.7316 -5.64966
H 49.7414 -32.719 -6.72718
H 48.4635 -30.4843 -6.85483
H 31.8039 7.08296 -6.25103
H 16.3653 -14.8996 -5.74407
H 15.0818 -12.7215 -5.72258
H 52.2591 -32.6718 -6.82991
H 50.9667 -30.4707 -6.95044
H 34.3819 7.09754 -6.29303
H 18.994 -14.8395 -5.86567
H 17.6845 -12.696 -5.84791
H 54.7564 -32.6825 -6.91086
H 53.4882 -30.4833 -7.02013
H 20.1102 -34.8743 -5.94054
H 36.9586 7.1111 -6.28647
H 20.2504 -12.6665 -6.03718
H 39.5352 7.09436 -6.28049
H 21.3403 -37.1599 -5.94789
H 26.2404 -28.5144 -5.59989
H 42.1134 7.03334 -6.28368
H 43.4351 9.22697 -6.20626
H 47.1897 6.85076 -6.27695
H 45.9894 9.16991 -6.18279
H 34.2737 -37.3884 -5.9018
H 49.7533 6.8002 -6.28808
H 48.5229 9.07639 -6.14741
H 18.7768 -37.017 -6.01253
H 54.6496 6.58322 -6.16969
H 52.2491 6.73119 -6.27977
H 30.4318 -35.1621 -5.80326
H 22.688 13.766 -5.597
H 23.8895 -37.2459 -5.90924
H 19.1897 11.2278 -5.23219
H 22.6646 -34.9888 -5.89725
H 25.2313 -35.059 -5.85188
H 24.1 11.532 -5.7361
H 29.0696 -37.3185 -5.84127
H 25.298 13.796 -5.726
H 21.6371 11.4418 -5.55273
H 27.919 13.772 -5.827
H 21.236 14.488 -5.469
H 54.7171 -15.16 -7.42818
H 53.5002 -12.9483 -7.42625
H 31.7951 11.5238 -6.01408
H 30.523 13.749 -5.91
H 57.3062 -15.2041 -7.23048
H 56.048 -13.0354 -7.23846
H 34.3713 11.5089 -6.06504
H 33.114 13.723 -5.975
H 59.8677 -15.2403 -7.03861
H 58.6144 -13.0834 -7.05684
H 36.9596 11.5191 -6.12204
H 35.7 13.697 -6.022
H 18.7753 -28.2618 -5.8553
H 62.4923 -15.2651 -6.84667
H 61.2004 -13.073 -6.85295
H 39.5857 11.5218 -6.11829
H 38.281 13.668 -6.048
H 65.167 -15.3273 -6.65871
H 63.8629 -13.0955 -6.68073
H 42.1602 11.4562 -6.12799
H 40.86 13.637 -6.055
H 53.5128 -17.4108 -7.54365
H 66.643 -13.095 -6.546
H 44.7342 11.3964 -6.11998
H 43.443 13.602 -6.04
H 26.4495 -37.2704 -5.87589
H 49.8356 -37.1598 -6.44057
H 48.5206 -34.9568 -6.50331
H 47.3263 11.3686 -6.0889
H 46.029 13.559 -6.005
H 6.14731 -10.5709 -5.54954
H 52.3707 -37.0894 -6.57857
H 49.8311 11.2665 -6.05554
H 48.63 13.517 -5.951
H 8.67692 -10.5792 -5.60084
H 7.5991 -8.46292 -5.4593
H 52.322 11.0612 -5.99087
H 53.5731 -34.8688 -6.76773
H 11.2529 -10.5822 -5.6191
H 10.0669 -8.42598 -5.53381
H 16.2414 -28.2099 -5.89136
H 27.8057 -35.1126 -5.81267
H 19.9175 -39.3266 -5.99132
H 8.71081 -19.3586 -5.65496
H 13.8529 -10.5619 -5.67438
H 12.6404 -8.41993 -5.58793
H 26.6666 11.5295 -5.88856
H 7.30759 -17.121 -5.62588
H 25.097 -39.4613 -5.90307
H 16.4383 -10.5283 -5.80005
H 15.2145 -8.39241 -5.71268
H 27.7092 -39.4813 -5.86999
H 30.3471 -39.4969 -5.87677
H 55.9791 -17.3357 -7.37414
H 19.0255 -10.4997 -5.98152
H 17.787 -8.35314 -5.8949
H 32.9611 -39.5021 -5.87849
H 35.5746 -39.5137 -5.89976
H 21.5949 -10.4877 -6.22625
H 20.3546 -8.33783 -6.12943
H 38.1713 -39.5326 -5.94182
H 40.7794 -39.5347 -5.99553
H 22.9084 -8.34234 -6.42453
H 43.4017 -39.531 -6.08409
H 46.0024 -39.5467 -6.16819
H 48.603 -39.4993 -6.27668
H 49.7307 -23.9289 -7.49487
H 51.1929 -39.2679 -6.35901
H 29.2184 11.5252 -5.95655
H 11.2483 -19.3354 -5.67944
H 9.90745 -17.0962 -5.65116
H 5.86533 -14.8966 -10.3953
H 4.438 -12.589 -10.479
H 8.52564 -14.9074 -10.3763
H 7.25573 -12.6548 -10.378
H 11.1106 -14.8984 -10.3763
H 9.82438 -12.699 -10.3675
H 13.6652 -14.9406 -10.3996
H 12.4014 -12.7337 -10.3937
H 16.175 -14.9901 -10.4799
H 14.9076 -12.7651 -10.4636
H 18.6887 -15.037 -10.5964
H 17.3937 -12.7712 -10.5774
H 19.854 -12.7647 -10.7568
H 55.0923 -15.0721 -12.1443
H 53.9062 -12.7667 -12.159
H 57.6555 -15.107 -11.9528
H 56.4122 -12.8474 -11.973
H 60.2183 -15.1215 -11.7554
H 58.9577 -12.9083 -11.7704
H 62.7949 -15.1288 -11.564
H 61.5242 -12.9215 -11.5667
H 65.3969 -15.2305 -11.4031
H 64.0728 -12.987 -11.409
H 66.676 -13.087 -11.346
H 6.17325 -10.4287 -10.4083
H 8.64886 -10.4759 -10.3162
H 7.55773 -8.2699 -10.3061
H 11.182 -10.5029 -10.3522
H 9.97776 -8.2569 -10.2538
H 13.6705 -10.545 -10.4181
H 12.4538 -8.29673 -10.3189
H 16.1573 -10.5496 -10.5243
H 14.9159 -8.32696 -10.4457
H 18.6371 -10.555 -10.702
H 17.3984 -8.34042 -10.6203
H 21.1106 -10.593 -10.9367
H 19.8698 -8.37703 -10.8416
H 22.3455 -8.40234 -11.1326
H 52.6393 -10.5234 -12.1523
H 51.35 -8.25381 -12.1115
H 55.1512 -10.5831 -11.9549
H 53.8635 -8.32793 -11.9161
H 57.6842 -10.6578 -11.7695
H 56.3879 -8.40705 -11.7274
H 60.2027 -10.7361 -11.5741
H 58.8832 -8.49261 -11.5617
H 62.731 -10.7705 -11.4139
H 61.3916 -8.55698 -11.405
H 65.1657 -10.8446 -11.3887
H 63.8182 -8.58573 -11.3432
H 8.83892 -6.0746 -10.1804
H 11.2614 -6.06298 -10.1875
H 10.0925 -3.89276 -10.0982
H 13.7118 -6.09077 -10.3025
H 12.5114 -3.86412 -10.1522
H 16.1884 -6.09815 -10.4852
H 15.018 -3.88934 -10.3243
H 18.6538 -6.12744 -10.7195
H 17.4796 -3.89949 -10.5272
H 21.1408 -6.14827 -10.9909
H 19.9569 -3.90259 -10.8024
H 23.6337 -6.13683 -11.3033
H 22.4625 -3.88611 -11.0959
H 24.9931 -3.8586 -11.3905
H 50.0676 -6.06474 -12.0315
H 48.6905 -3.85498 -11.9303
H 52.5714 -6.09493 -11.8496
H 51.2415 -3.87967 -11.7608
H 55.0744 -6.15941 -11.6751
H 53.7694 -3.92419 -11.5849
H 57.5857 -6.24062 -11.5142
H 56.282 -3.99381 -11.4297
H 60.0765 -6.30815 -11.3631
H 58.7854 -4.05526 -11.2717
H 62.5145 -6.36297 -11.2934
H 61.191 -4.12607 -11.2236
H 11.3803 -1.72917 -10.085
H 13.7924 -1.68188 -10.1655
H 12.6765 0.451513 -10.1076
H 16.3109 -1.68656 -10.358
H 15.1049 0.49237 -10.1967
H 18.781 -1.68211 -10.5777
H 17.5928 0.515749 -10.3751
H 21.2794 -1.67474 -10.8494
H 20.1003 0.516075 -10.6116
H 23.8234 -1.62807 -11.1399
H 22.6022 0.566966 -10.887
H 26.3924 -1.57754 -11.3936
H 25.1922 0.614252 -11.1431
H 27.8278 0.658768 -11.3309
H 30.4769 0.912722 -11.463
H 33.0734 1.00071 -11.5013
H 35.6026 0.991396 -11.4997
H 38.1523 0.919147 -11.4579
H 40.6399 0.860024 -11.4578
H 43.1915 0.787989 -11.5109
H 47.282 -1.64161 -11.7561
H 45.7967 0.572742 -11.5377
H 49.8512 -1.66483 -11.644
H 48.4535 0.521058 -11.4877
H 52.4274 -1.73394 -11.4898
H 51.0546 0.485003 -11.3907
H 54.9751 -1.77402 -11.3348
H 53.6425 0.391588 -11.2478
H 57.4872 -1.82909 -11.1719
H 56.199 0.349986 -11.0885
H 59.904 -1.88113 -11.0946
H 58.6855 0.307533 -10.9817
H 13.979 2.63399 -10.1177
H 16.3835 2.6894 -10.197
H 15.1964 4.83702 -10.0812
H 18.8742 2.70261 -10.3939
H 17.6147 4.87999 -10.1905
H 21.3906 2.73246 -10.64
H 20.1092 4.91372 -10.4211
H 23.9529 2.82497 -10.8924
H 22.6447 4.98441 -10.6629
H 26.5482 2.8747 -11.0832
H 25.2155 5.05927 -10.8622
H 29.1409 2.93967 -11.2189
H 27.836 5.11827 -11.0163
H 31.7314 3.0472 -11.28
H 30.4223 5.2114 -11.0991
H 34.3382 3.07816 -11.3167
H 33.0337 5.22224 -11.1495
H 36.9 3.05003 -11.3081
H 35.652 5.24842 -11.1723
H 39.4597 2.99571 -11.2744
H 38.2247 5.22163 -11.1464
H 41.9854 2.92608 -11.2743
H 40.7803 5.13758 -11.1262
H 44.525 2.81692 -11.2948
H 43.3193 5.06405 -11.1339
H 47.1007 2.7578 -11.3218
H 45.8694 4.97962 -11.1527
H 49.692 2.68125 -11.2899
H 48.439 4.89792 -11.1602
H 52.2741 2.57857 -11.1998
H 50.9831 4.7994 -11.1197
H 54.8645 2.48959 -11.0664
H 53.5405 4.67497 -11.0622
H 57.3744 2.42558 -10.9585
H 56.0319 4.52446 -11.0165
H 16.4217 6.98577 -10.0707
H 18.8331 7.07206 -10.2071
H 17.5964 9.19299 -10.0591
H 21.3366 7.14898 -10.4401
H 20.0183 9.32437 -10.2332
H 23.8939 7.23851 -10.6513
H 22.5592 9.4278 -10.4441
H 26.4887 7.31106 -10.8143
H 25.142 9.47417 -10.6238
H 29.1046 7.37869 -10.925
H 27.7668 9.53878 -10.7527
H 31.7096 7.37612 -10.9862
H 30.3828 9.54175 -10.8293
H 34.3408 7.399 -11.029
H 33.0013 9.55941 -10.883
H 36.9573 7.38537 -11.0283
H 35.6377 9.5432 -10.9036
H 39.5431 7.3377 -11.019
H 38.2373 9.51747 -10.9131
H 42.1024 7.26801 -11.008
H 40.8487 9.465 -10.9281
H 44.6818 7.20742 -11.0192
H 43.4434 9.40233 -10.9346
H 47.2229 7.13476 -11.0153
H 46.0414 9.35267 -10.9165
H 49.7471 7.06505 -11.0026
H 48.5697 9.30313 -10.889
H 52.29 6.94707 -10.9916
H 51.0642 9.19356 -10.8878
H 54.7167 6.75153 -11.0297
H 53.553 9.03577 -10.9408
H 18.7413 11.4205 -10.1025
H 21.1702 11.6256 -10.279
H 23.7892 11.6697 -10.4736
H 22.515 13.951 -10.427
H 26.4495 11.6991 -10.6174
H 25.147 13.925 -10.534
H 29.0857 11.7069 -10.7126
H 27.785 13.867 -10.639
H 31.6821 11.6852 -10.7652
H 30.406 13.824 -10.724
H 34.3351 11.6756 -10.8297
H 33.02 13.789 -10.791
H 36.9246 11.644 -10.846
H 35.628 13.763 -10.838
H 39.553 11.6202 -10.8649
H 38.234 13.743 -10.865
H 42.1836 11.58 -10.8807
H 40.839 13.731 -10.872
H 44.8086 11.5517 -10.86
H 43.445 13.726 -10.856
H 47.3649 11.54 -10.8203
H 46.058 13.73 -10.816
H 49.9247 11.488 -10.7909
H 48.686 13.755 -10.745
H 52.3365 11.3027 -10.8631
H 8.65361 -19.2824 -10.382
H 7.3017 -17.1427 -10.3659
H 11.2018 -19.2428 -10.4114
H 9.87162 -17.0754 -10.3658
H 13.7504 -19.2784 -10.4197
H 12.4494 -17.0905 -10.395
H 16.2608 -19.3254 -10.4271
H 14.9796 -17.1401 -10.416
H 18.7838 -19.3745 -10.4199
H 17.4983 -17.1762 -10.4539
H 21.2777 -19.4991 -10.4645
H 20.0308 -17.2855 -10.5276
H 52.654 -19.7314 -12.4297
H 55.1139 -19.6161 -12.1681
H 53.9874 -17.4447 -12.3492
H 57.5772 -19.5658 -11.9888
H 56.3442 -17.3397 -12.0711
H 60.0839 -19.56 -11.8372
H 58.8804 -17.3397 -11.8978
H 62.6526 -19.5913 -11.6745
H 61.445 -17.3625 -11.7167
H 64.0284 -17.3918 -11.5359
H 11.2642 -23.6281 -10.529
H 9.95558 -21.4482 -10.46
H 13.7944 -23.6407 -10.5319
H 12.5058 -21.4315 -10.4753
H 16.3099 -23.7061 -10.5131
H 15.0356 -21.4769 -10.4647
H 18.811 -23.7699 -10.4865
H 17.5341 -21.5421 -10.4556
H 21.304 -23.833 -10.4462
H 20.0661 -21.5813 -10.4194
H 23.7551 -23.9241 -10.4733
H 22.531 -21.6876 -10.46
H 49.9309 -24.3358 -12.2895
H 52.3886 -24.1874 -12.1437
H 51.3078 -22.0574 -12.3996
H 54.9275 -24.0987 -12.0552
H 53.7401 -21.9051 -12.2053
H 57.4457 -24.0562 -11.9333
H 56.2798 -21.8297 -12.0392
H 59.9906 -24.016 -11.8291
H 58.8013 -21.7897 -11.9049
H 61.3278 -21.7998 -11.7583
H 13.7636 -28.0264 -10.6645
H 12.4911 -25.8242 -10.5954
H 16.3076 -28.0757 -10.6308
H 15.0372 -25.8663 -10.5828
H 18.8495 -28.1359 -10.5957
H 17.5595 -25.9089 -10.5417
H 21.3635 -28.2352 -10.5429
H 20.066 -25.9852 -10.5162
H 23.9378 -28.2729 -10.4755
H 22.6022 -26.0655 -10.4599
H 26.4323 -28.3364 -10.4481
H 25.1068 -26.1324 -10.4412
H 47.174 -28.8587 -11.8252
H 49.6416 -28.703 -11.8186
H 48.5251 -26.5762 -12.0856
H 52.2072 -28.6003 -11.8688
H 51.017 -26.4779 -12.0138
H 54.7861 -28.5609 -11.8664
H 53.5668 -26.3707 -11.9975
H 57.3134 -28.521 -11.8414
H 56.1143 -26.3026 -11.936
H 58.6577 -26.2639 -11.8651
H 16.3958 -32.4897 -10.7665
H 15.086 -30.2403 -10.7281
H 18.9385 -32.5785 -10.6739
H 17.6244 -30.3141 -10.6742
H 21.4779 -32.6471 -10.6177
H 20.1675 -30.4144 -10.6141
H 24.0348 -32.7169 -10.5776
H 22.7186 -30.4789 -10.5645
H 26.5964 -32.7819 -10.5192
H 25.3176 -30.516 -10.493
H 29.1265 -32.8918 -10.5011
H 27.852 -30.5775 -10.453
H 31.6524 -33.0123 -10.5578
H 30.4329 -30.7498 -10.4991
H 34.18 -33.1074 -10.66
H 32.9248 -30.8762 -10.5987
H 36.7207 -33.1653 -10.7736
H 35.4283 -30.9723 -10.7542
H 39.2922 -33.1675 -10.8778
H 37.9671 -30.9635 -10.8971
H 41.8288 -33.1517 -10.9834
H 40.489 -30.9723 -11.0099
H 44.3701 -33.1296 -11.132
H 43.0261 -30.9875 -11.1846
H 46.9478 -33.0884 -11.2892
H 45.6056 -30.913 -11.3976
H 49.5306 -33.032 -11.4452
H 48.2566 -30.9095 -11.5578
H 52.1069 -32.9777 -11.5657
H 50.8561 -30.8314 -11.6819
H 54.7024 -32.9335 -11.6495
H 53.4523 -30.7801 -11.7452
H 56.0246 -30.7468 -11.761
H 18.887 -36.9549 -10.7426
H 17.6657 -34.719 -10.7409
H 21.4139 -37.0953 -10.6689
H 20.1972 -34.8181 -10.6786
H 23.9689 -37.191 -10.6394
H 22.7427 -34.9189 -10.6378
H 26.518 -37.2377 -10.5975
H 25.2978 -34.993 -10.5942
H 29.0918 -37.2763 -10.577
H 27.8522 -35.0398 -10.5489
H 31.6244 -37.3383 -10.5805
H 30.3664 -35.1377 -10.5458
H 34.1888 -37.4177 -10.6307
H 32.9076 -35.2317 -10.6051
H 36.7973 -37.4557 -10.6776
H 35.4923 -35.2954 -10.6841
H 39.3548 -37.4573 -10.7208
H 38.0678 -35.3194 -10.7479
H 41.9016 -37.4644 -10.8108
H 40.6143 -35.3088 -10.8327
H 44.4876 -37.4474 -10.8994
H 43.1523 -35.3033 -10.9435
H 47.0305 -37.4364 -11.0203
H 45.7064 -35.284 -11.0567
H 49.5708 -37.3748 -11.1663
H 48.2426 -35.2257 -11.2141
H 52.1571 -37.2982 -11.3017
H 50.8358 -35.1644 -11.3677
H 53.38 -35.1189 -11.4926
H 20.0382 -39.2508 -10.7265
H 22.5901 -39.374 -10.676
H 25.1713 -39.4251 -10.6386
H 27.7502 -39.4659 -10.6124
H 30.3257 -39.4886 -10.6011
H 32.9006 -39.5283 -10.6071
H 35.4921 -39.5677 -10.637
H 38.062 -39.5819 -10.6753
H 40.6487 -39.5941 -10.7328
H 43.226 -39.591 -10.8042
H 45.8308 -39.5994 -10.9043
H 48.378 -39.5929 -11.0114
H 50.9153 -39.2031 -11.25
H 23.781 -41.577 -10.739
H 26.39 -41.617 -10.695
H 28.989 -41.651 -10.671
H 31.582 -41.679 -10.665
H 34.172 -41.703 -10.677
H 36.763 -41.723 -10.705
H 39.354 -41.736 -10.75
H 41.95 -41.745 -10.814
H 44.553 -41.746 -10.895
H 47.177 -41.73 -11.009
H 21.123 -41.524 -10.793
H 51.096 -40.898 -11.164
H 51.297 13.668 -10.688
H 21.051 14.711 -10.32
H 21.0042 -16.7403 -9.19077
H 21.028 -16.7405 -6.98684
H 22.2415 -18.9365 -9.13509
H 22.2385 -18.9714 -6.91806
H 52.8286 -16.8893 -11.1561
H 52.6383 -16.8863 -8.93932
H 51.5598 -19.0662 -11.2289
H 51.3752 -19.0127 -9.01098
H 23.4879 -21.1643 -9.1079
H 23.4544 -21.1917 -6.89307
H 24.7371 -23.3795 -9.16627
H 24.7154 -23.4266 -6.94251
H 50.2187 -21.3607 -11.2143
H 50.0762 -21.2614 -8.9808
H 48.858 -23.645 -11.087
H 48.7969 -23.4685 -8.87808
H 26.0311 -25.5897 -9.0747
H 25.9679 -25.6434 -6.85769
H 29.2935 -28.967 -9.21259
H 29.3018 -29.01 -6.93311
H 27.3445 -27.7701 -9.07119
H 27.2787 -27.8235 -6.82408
H 31.8082 -29.0866 -9.27867
H 31.8739 -29.121 -7.01741
H 34.2971 -29.178 -9.44146
H 34.3775 -29.1697 -7.18355
H 36.7474 -29.1991 -9.62351
H 36.8502 -29.1602 -7.36809
H 39.2858 -29.1804 -9.77897
H 39.3773 -29.0985 -7.51642
H 41.8227 -29.1829 -9.94977
H 41.9459 -29.0536 -7.68663
H 44.3164 -29.1379 -10.182
H 44.4295 -28.9826 -7.90867
H 47.5237 -25.8796 -10.8507
H 47.5119 -25.6818 -8.63385
H 46.2233 -28.0738 -10.6138
H 46.2588 -27.8609 -8.36711
H 33.1214 -0.385387 -8.04386
H 35.6116 -0.230948 -10.2744
H 35.6195 -0.385872 -8.07923
H 20.8956 -14.6222 -9.55201
H 21.0424 -14.6151 -7.28755
H 22.2652 -12.5116 -7.47705
H 22.0909 -12.5231 -9.71555
H 52.8806 -14.7225 -11.0712
H 52.6852 -14.7988 -8.82098
H 51.4875 -12.6537 -8.83512
H 51.6715 -12.533 -11.1011
H 24.8744 -8.16523 -7.93591
H 24.6243 -8.12081 -10.1802
H 50.4105 -10.3046 -11.1003
H 50.2273 -10.4662 -8.84678
H 48.9709 -8.28975 -8.79564
H 49.1438 -8.11608 -11.0246
H 25.9145 -5.91581 -10.3474
H 26.1787 -6.00408 -8.08738
H 27.507 -3.80496 -8.14535
H 27.2582 -3.67064 -10.3947
H 47.8487 -5.96445 -10.9489
H 47.6864 -6.16967 -8.70736
H 46.3525 -3.9922 -8.52787
H 46.4725 -3.77322 -10.7939
H 28.618 -1.4576 -10.3282
H 28.8071 -1.60548 -8.07134
H 30.5838 -0.308873 -10.2271
H 30.6689 -0.451302 -7.99638
H 33.0958 -0.231558 -10.2624
H 38.0902 -0.415594 -8.01459
H 40.6054 -0.344891 -10.2177
H 40.598 -0.506477 -8.00778
H 45.0952 -1.61648 -10.5719
H 44.9926 -1.79964 -8.31434
H 43.115 -0.454267 -10.2866
H 43.1113 -0.625433 -8.08947
H 38.1004 -0.282434 -10.2231
H 23.3758 -10.3547 -9.96351
H 23.5884 -10.3541 -7.69149
C 5.89734 -11.8192 14.2723
C 5.88332 -11.8346 15.8443
C 5.85763 -14.8052 13.8029
C 5.85079 -14.8087 16.3376
C 4.472 -12.49 16.343
C 4.431 -13.993 14.233
C 4.451 -13.994 15.816
C 4.443 -12.488 13.71
C 8.56296 -11.9047 14.3493
C 8.55428 -11.9314 15.8987
C 8.52544 -14.8391 13.8235
C 8.52169 -14.8449 16.3755
C 7.19986 -12.6275 16.3668
C 7.19914 -14.0885 14.316
C 7.18986 -14.0961 15.8683
C 7.23197 -12.6087 13.8165
C 11.1468 -11.9216 14.3461
C 11.1629 -11.9565 15.9016
C 11.1227 -14.8399 13.8052
C 11.1575 -14.863 16.3597
C 9.84571 -12.6776 16.4019
C 9.82973 -14.1167 14.3249
C 9.8395 -14.1309 15.8829
C 9.84017 -12.646 13.8372
C 13.7023 -11.9205 14.3016
C 13.7356 -11.9567 15.8536
C 13.6802 -14.838 13.742
C 13.7445 -14.8731 16.2923
C 12.4559 -12.6962 16.3726
C 12.4111 -14.1115 14.2889
C 12.4403 -14.1374 15.8384
C 12.4094 -12.6411 13.8074
C 16.2424 -11.9117 14.243
C 16.2834 -11.9528 15.7855
C 16.2254 -14.837 13.6494
C 16.3045 -14.885 16.2147
C 15.0241 -12.6975 16.3085
C 14.97 -14.1133 14.2149
C 15.0152 -14.1443 15.7625
C 14.96 -12.6393 13.7451
C 18.7653 -11.8904 14.1767
C 18.8091 -11.932 15.7255
C 18.7808 -14.8189 13.5668
C 18.865 -14.8801 16.1344
C 17.5652 -12.6946 16.2389
C 17.5106 -14.1125 14.1307
C 17.5624 -14.1467 15.6889
C 17.4906 -12.6245 13.6777
C 21.2839 -11.883 14.1071
C 21.328 -11.9171 15.6507
C 20.0833 -12.6607 16.175
C 20.0305 -14.0535 14.075
C 20.0817 -14.0916 15.6102
C 20.005 -12.5885 13.6093
C 52.4294 -12.023 12.8622
C 52.3943 -12.0654 14.4063
C 54.9631 -12.0799 12.8936
C 54.9163 -12.1164 14.4492
C 54.9239 -15.0314 12.3611
C 54.8493 -15.0531 14.9227
C 53.636 -12.8206 14.9173
C 53.6777 -14.2298 12.8376
C 53.6322 -14.2568 14.3807
C 53.6986 -12.7659 12.3462
C 57.5064 -12.155 12.9599
C 57.4551 -12.1826 14.508
C 57.4969 -15.0803 12.432
C 57.4112 -15.086 14.9957
C 56.1608 -12.8893 14.9724
C 56.2069 -14.331 12.9027
C 56.1587 -14.3476 14.458
C 56.237 -12.8477 12.411
C 60.0747 -12.1931 13.0476
C 60.0108 -12.2104 14.597
C 60.0781 -15.1048 12.5176
C 59.9796 -15.1169 15.0814
C 58.712 -12.9289 15.0384
C 58.7746 -14.3709 12.9836
C 58.7184 -14.3815 14.5314
C 58.8043 -12.8965 12.4919
C 62.674 -12.2073 13.1703
C 62.6144 -12.2277 14.7198
C 62.6883 -15.1155 12.6371
C 62.5753 -15.132 15.1895
C 61.2853 -12.9455 15.1399
C 61.3631 -14.3902 13.0782
C 61.3007 -14.3991 14.6291
C 61.3968 -12.9206 12.597
C 65.3253 -12.2103 13.313
C 65.2768 -12.2214 14.8776
C 65.3224 -15.1687 12.7855
C 65.2211 -15.193 15.3384
C 63.9191 -12.9593 15.286
C 63.9941 -14.4096 13.2185
C 63.9352 -14.4211 14.7682
C 64.0238 -12.9309 12.7323
C 66.653 -12.992 15.48
C 66.647 -14.488 13.365
C 66.638 -14.49 14.949
C 66.67 -12.988 12.843
C 6.11715 -10.3488 13.7617
C 6.0755 -10.4028 16.4438
C 8.7432 -7.49614 14.4988
C 8.75319 -7.54456 16.0507
C 8.65334 -10.4206 13.8873
C 8.63545 -10.4809 16.4311
C 7.50017 -8.28591 16.5707
C 7.39342 -9.66446 14.3844
C 7.37776 -9.70612 15.9414
C 7.50079 -8.20132 13.8982
C 11.2739 -7.5239 14.4824
C 11.2936 -7.56245 16.0262
C 11.1909 -10.4415 13.8823
C 11.2132 -10.5074 16.4427
C 10.0164 -8.3119 16.518
C 9.94929 -9.71528 14.4216
C 9.95465 -9.75905 15.9664
C 9.9965 -8.23173 13.9726
C 13.7821 -7.52515 14.4389
C 13.8134 -7.55396 15.9901
C 13.7229 -10.4429 13.8441
C 13.774 -10.5107 16.4087
C 12.5503 -8.30854 16.4926
C 12.4783 -9.72544 14.3934
C 12.5065 -9.76217 15.9448
C 12.5061 -8.24807 13.9404
C 16.2985 -7.52711 14.3797
C 16.3425 -7.55176 15.9271
C 16.2483 -10.4299 13.7925
C 16.32 -10.5021 16.3399
C 15.0821 -8.30285 16.4496
C 15.004 -9.72142 14.3523
C 15.0435 -9.76113 15.898
C 15.0172 -8.24753 13.8929
C 18.8203 -7.52168 14.2897
C 18.8704 -7.54333 15.8414
C 18.767 -10.4255 13.7111
C 18.8476 -10.4865 16.2778
C 17.6155 -8.29004 16.379
C 17.5307 -9.71068 14.2813
C 17.5779 -9.74473 15.8308
C 17.5322 -8.24291 13.8147
C 21.3452 -7.53178 14.2029
C 21.3934 -7.54187 15.7509
C 21.3048 -10.4249 13.6344
C 21.377 -10.4804 16.2031
C 20.1421 -8.28594 16.2843
C 20.0553 -9.71148 14.1985
C 20.1031 -9.73938 15.7489
C 20.0565 -8.24767 13.7339
C 23.8655 -7.52817 14.1313
C 23.9079 -7.52799 15.6745
C 22.6648 -8.2829 16.2109
C 22.5895 -9.71954 14.1292
C 22.6307 -9.74078 15.6756
C 22.59 -8.25475 13.6439
C 49.8948 -7.62322 12.9518
C 49.8596 -7.67803 14.4913
C 52.4018 -7.64571 12.9972
C 52.3684 -7.70647 14.5458
C 52.4171 -10.5536 12.3993
C 52.3716 -10.6258 14.9603
C 51.0993 -8.43051 15.003
C 51.1561 -9.81239 12.911
C 51.1219 -9.8646 14.4573
C 51.1554 -8.34613 12.446
C 54.9292 -7.69606 13.0375
C 54.8958 -7.75672 14.5874
C 54.9565 -10.6057 12.4278
C 54.899 -10.6743 14.9906
C 53.6194 -8.47189 15.0466
C 53.682 -9.85678 12.9363
C 53.6485 -9.90496 14.4919
C 53.6735 -8.37912 12.4828
C 57.4615 -7.75504 13.0991
C 57.4173 -7.81557 14.6432
C 57.5117 -10.6788 12.4888
C 57.4319 -10.7355 15.0473
C 56.1447 -8.53347 15.0825
C 56.2216 -9.92369 12.9798
C 56.1765 -9.96869 14.533
C 56.2148 -8.43773 12.532
C 59.9866 -7.80444 13.1741
C 59.9355 -7.85319 14.7216
C 60.075 -10.7191 12.5811
C 59.9739 -10.774 15.1371
C 58.6648 -8.58313 15.1561
C 58.7688 -9.97807 13.049
C 58.7134 -10.017 14.6004
C 58.7412 -8.49541 12.5916
C 62.5306 -7.79861 13.2584
C 62.4832 -7.84221 14.814
C 62.6476 -10.7293 12.6867
C 62.5468 -10.7792 15.244
C 61.1971 -8.59873 15.2476
C 61.3256 -10.012 13.1558
C 61.271 -10.0486 14.7035
C 61.2872 -8.53102 12.6919
C 65.2147 -10.7331 12.7517
C 65.0964 -10.7534 15.4358
C 63.7225 -8.58637 15.3923
C 63.9095 -10 13.2554
C 63.842 -10.0253 14.8159
C 63.8076 -8.52967 12.7237
C 8.78659 -6.03982 13.9988
C 8.84634 -6.12109 16.6629
C 11.305 -3.11353 14.5447
C 11.3443 -3.12661 16.1017
C 11.2885 -6.04858 14.0104
C 11.3406 -6.09193 16.5576
C 10.1211 -3.89861 16.676
C 10.0317 -5.30797 14.5406
C 10.0612 -5.34079 16.0918
C 10.0667 -3.86253 13.9993
C 13.8478 -3.13344 14.4726
C 13.8972 -3.13817 16.0267
C 13.7944 -6.05721 13.9562
C 13.8609 -6.08678 16.5128
C 12.6354 -3.87401 16.5623
C 12.5652 -5.32326 14.4986
C 12.6005 -5.34007 16.0446
C 12.5631 -3.85917 14.0095
C 16.3719 -3.13343 14.3847
C 16.4295 -3.13033 15.9298
C 16.3043 -6.06139 13.8897
C 16.3856 -6.07971 16.4443
C 15.1726 -3.87395 16.4821
C 15.0753 -5.33224 14.4352
C 15.1222 -5.3447 15.9782
C 15.0896 -3.86692 13.9255
C 18.9041 -3.1457 14.2884
C 18.9613 -3.13788 15.8363
C 18.829 -6.06205 13.7903
C 18.9167 -6.07441 16.3598
C 17.6988 -3.86604 16.3873
C 17.5929 -5.33375 14.3494
C 17.6453 -5.33932 15.8962
C 17.6044 -3.87063 13.8424
C 21.4364 -3.14685 14.1884
C 21.4882 -3.13319 15.7388
C 21.3596 -6.0694 13.702
C 21.4468 -6.07526 16.2621
C 20.2334 -3.87056 16.3028
C 20.1206 -5.34016 14.25
C 20.1747 -5.3419 15.7988
C 20.1395 -3.88367 13.7334
C 23.9761 -3.13863 14.1092
C 24.0259 -3.12311 15.658
C 23.8903 -6.07287 13.6218
C 23.9538 -6.06493 16.1888
C 22.7634 -3.85975 16.206
C 22.6516 -5.33702 14.1629
C 22.6954 -5.32879 15.7127
C 22.6829 -3.88072 13.6448
C 26.4979 -3.11843 14.0305
C 26.5539 -3.09803 15.569
C 25.301 -3.85253 16.138
C 25.1768 -5.3416 14.1021
C 25.2199 -5.32968 15.6534
C 25.213 -3.88207 13.5736
C 47.2335 -3.28472 13.0668
C 47.2209 -3.32631 14.6095
C 49.7707 -3.26655 13.0782
C 49.7469 -3.31565 14.6379
C 49.8717 -6.16035 12.4922
C 49.8129 -6.25203 15.048
C 48.4904 -4.07461 15.0943
C 48.5858 -5.47599 12.995
C 48.5507 -5.51815 14.5408
C 48.5245 -3.99876 12.5437
C 52.3258 -3.28356 13.1431
C 52.2893 -3.34068 14.6938
C 52.3927 -6.17019 12.5365
C 52.3367 -6.27 15.1007
C 51.0159 -4.06434 15.146
C 51.1087 -5.44865 13.0435
C 51.0725 -5.50476 14.5945
C 51.0769 -3.97646 12.5792
C 54.8695 -3.32069 13.2229
C 54.8205 -3.38588 14.7711
C 54.9191 -6.21269 12.5967
C 54.8516 -6.32241 15.1485
C 53.5473 -4.10605 15.2055
C 53.6409 -5.47982 13.0957
C 53.604 -5.54251 14.6467
C 53.6255 -4.00257 12.6499
C 57.3835 -3.37214 13.3148
C 57.3358 -3.44254 14.8624
C 57.433 -6.26999 12.6655
C 57.3547 -6.38069 15.218
C 56.0653 -4.16758 15.2915
C 56.1608 -5.53518 13.1697
C 56.1206 -5.60195 14.7095
C 56.1473 -4.0528 12.7277
C 59.9057 -3.38006 13.3894
C 59.8685 -3.4461 14.9368
C 59.9587 -6.30837 12.7564
C 59.8831 -6.41834 15.2972
C 58.5914 -4.20701 15.3686
C 58.6738 -5.58118 13.2544
C 58.6322 -5.64856 14.7956
C 58.6586 -4.09492 12.8208
C 62.4611 -6.33429 12.7522
C 62.3973 -6.4121 15.4195
C 61.0881 -4.23081 15.4728
C 61.2051 -5.59788 13.319
C 61.1625 -5.65914 14.873
C 61.1622 -4.12061 12.8464
C 11.3516 -1.67811 13.9731
C 11.4334 -1.68799 16.6877
C 13.897 1.25703 14.4579
C 13.9585 1.26437 16.0167
C 13.8562 -1.67026 13.9726
C 13.9464 -1.6693 16.5198
C 12.758 0.506332 16.6526
C 12.5941 -0.926766 14.5153
C 12.6481 -0.927717 16.0784
C 12.6404 0.511276 13.9499
C 16.4374 1.2505 14.3528
C 16.4989 1.25583 15.8937
C 16.3857 -1.67834 13.8672
C 16.486 -1.66708 16.4269
C 15.2561 0.529175 16.464
C 15.1496 -0.940677 14.4241
C 15.2078 -0.937592 15.9721
C 15.1536 0.518608 13.9097
C 18.9761 1.24998 14.2489
C 19.0335 1.2541 15.7959
C 18.9137 -1.68106 13.77
C 19.0116 -1.66588 16.3205
C 17.775 0.525501 16.3535
C 17.675 -0.94223 14.3157
C 17.7378 -0.936691 15.8618
C 17.6781 0.515557 13.7996
C 21.5191 1.26193 14.1477
C 21.5795 1.27563 15.6962
C 21.4575 -1.68495 13.6723
C 21.55 -1.66401 16.231
C 20.3226 0.5334 16.2526
C 20.2135 -0.948964 14.214
C 20.2714 -0.938542 15.7656
C 20.2205 0.515216 13.7025
C 24.0642 1.29092 14.0312
C 24.1281 1.30984 15.5836
C 23.9978 -1.67337 13.5852
C 24.0932 -1.64006 16.1374
C 22.8683 0.557244 16.1538
C 22.7545 -0.938305 14.1222
C 22.8126 -0.922181 15.6747
C 22.7606 0.528341 13.6016
C 26.6278 1.32225 13.9138
C 26.6935 1.34277 15.4669
C 26.5173 -1.6557 13.4905
C 26.6195 -1.61216 16.0458
C 25.4231 0.597493 16.0448
C 25.2849 -0.910354 14.0274
C 25.3465 -0.887332 15.5746
C 25.3134 0.553644 13.4846
C 29.1913 1.36338 13.7907
C 29.2639 1.37526 15.3473
C 27.9932 0.615579 15.933
C 27.8179 -0.903387 13.9262
C 27.8778 -0.880285 15.4694
C 27.8848 0.574404 13.3697
C 31.7573 1.5011 13.6364
C 31.8269 1.49422 15.2053
C 30.6046 0.757585 15.8354
C 30.4789 0.750811 13.1553
C 34.3054 1.54998 13.5002
C 34.371 1.51843 15.0492
C 33.139 0.830782 15.6735
C 33.0207 0.851038 13.0119
C 36.8394 1.56829 13.3783
C 36.8879 1.51631 14.9212
C 35.6564 0.820598 15.5156
C 35.5504 0.888023 12.8714
C 39.375 1.51437 13.2963
C 39.4009 1.44742 14.84
C 38.1397 0.768318 15.3989
C 38.076 0.884102 12.761
C 41.9256 1.41751 13.2417
C 41.9455 1.35083 14.793
C 40.6536 0.696776 15.3444
C 40.6124 0.804977 12.7012
C 44.4997 1.24981 13.1943
C 44.5123 1.192 14.7514
C 43.1945 0.572125 15.3005
C 43.1546 0.667969 12.6429
C 47.0777 1.17638 13.1834
C 47.0752 1.12624 14.7401
C 47.1705 -1.78955 12.6109
C 47.1503 -1.86828 15.1627
C 45.7963 0.379185 15.2261
C 45.8696 -1.06338 13.1328
C 45.8689 -1.10275 14.6824
C 45.7856 0.447877 12.6649
C 49.6541 1.13746 13.2089
C 49.6344 1.0798 14.767
C 49.727 -1.78207 12.6221
C 49.6867 -1.86855 15.1828
C 48.3546 0.346574 15.229
C 48.4193 -1.05717 13.1458
C 48.4057 -1.10571 14.6895
C 48.3789 0.430773 12.6761
C 52.2259 1.08226 13.2819
C 52.1782 1.02642 14.8303
C 52.2996 -1.80504 12.6958
C 52.2262 -1.89769 15.2367
C 50.898 0.306057 15.2692
C 50.9873 -1.08255 13.1679
C 50.9585 -1.13728 14.7214
C 50.9606 0.39938 12.716
C 54.7774 1.03315 13.4022
C 54.7168 0.973745 14.9407
C 54.8473 -1.84271 12.7795
C 54.7555 -1.95425 15.3372
C 53.4379 0.24853 15.3589
C 53.5532 -1.12357 13.2665
C 53.5032 -1.18224 14.8042
C 53.533 0.344634 12.8084
C 57.3267 1.00818 13.5184
C 57.2594 0.945089 15.0625
C 57.3634 -1.89273 12.886
C 57.2862 -2.00586 15.426
C 55.9701 0.204142 15.4703
C 56.0862 -1.16302 13.3727
C 56.031 -1.22849 14.9136
C 56.077 0.31058 12.9354
C 59.8581 -1.91193 12.9028
C 59.7964 -2.01767 15.5413
C 58.4757 0.175272 15.6234
C 58.6175 -1.17976 13.4568
C 58.5691 -1.24684 15.0059
C 58.5809 0.29083 12.978
C 13.9381 2.68257 13.8625
C 14.0402 2.70582 16.5571
C 16.4441 5.61934 14.3373
C 16.4966 5.61248 15.8894
C 16.4368 2.70651 13.8328
C 16.5359 2.71392 16.3867
C 15.2849 4.88042 16.4861
C 15.178 3.44396 14.379
C 15.2377 3.4483 15.9336
C 15.193 4.87816 13.8164
C 18.9824 5.6403 14.2485
C 19.0365 5.62654 15.7924
C 18.965 2.71156 13.7379
C 19.068 2.71395 16.2873
C 17.7952 4.88511 16.3402
C 17.723 3.4355 14.2928
C 17.7834 3.43465 15.8331
C 17.703 4.89313 13.7926
C 21.51 5.68685 14.1301
C 21.573 5.67532 15.6832
C 21.5074 2.7278 13.6246
C 21.6165 2.74127 16.184
C 20.3304 4.91129 16.2389
C 20.2549 3.45315 14.1847
C 20.3174 3.44761 15.7314
C 20.2285 4.92379 13.686
C 24.0495 5.74952 14.0153
C 24.1115 5.73796 15.5706
C 24.0618 2.76778 13.5064
C 24.1696 2.78793 16.0619
C 22.8809 4.96706 16.1234
C 22.8026 3.49373 14.0592
C 22.8687 3.50019 15.6143
C 22.7698 4.97644 13.5592
C 26.6055 5.8024 13.9145
C 26.6694 5.7784 15.4635
C 26.6168 2.81044 13.3952
C 26.726 2.82423 15.9466
C 25.4276 5.02047 16.0063
C 25.3558 3.54084 13.9471
C 25.4213 3.54254 15.4994
C 25.3239 5.037 13.4475
C 29.1615 5.85354 13.8195
C 29.2205 5.82239 15.3604
C 29.1589 2.87239 13.2828
C 29.272 2.86599 15.8308
C 27.9783 5.0525 15.8945
C 27.9005 3.58796 13.8362
C 27.97 3.58039 15.3767
C 27.8754 5.0846 13.354
C 31.737 5.88695 13.7224
C 31.8006 5.84072 15.2684
C 31.7163 2.97692 13.1549
C 31.838 2.95519 15.7051
C 30.5267 5.09912 15.8025
C 30.4484 3.66119 13.7278
C 30.5194 3.64396 15.2728
C 30.4283 5.1482 13.2537
C 34.3229 5.91493 13.6137
C 34.3811 5.85945 15.1598
C 34.2892 3.02638 13.029
C 34.3966 2.97562 15.5684
C 33.1165 5.11149 15.6877
C 33.0188 3.70989 13.6029
C 33.0878 3.68098 15.1439
C 33.0111 5.18455 13.1419
C 36.9122 5.93282 13.535
C 36.9579 5.86372 15.0854
C 36.8505 3.05209 12.917
C 36.9289 2.967 15.4635
C 35.682 5.12854 15.5951
C 35.5956 3.75347 13.4887
C 35.6537 3.70804 15.031
C 35.5987 5.23278 13.0371
C 39.4827 5.89492 13.4895
C 39.5119 5.8137 15.0397
C 39.4013 3.00442 12.8509
C 39.448 2.8965 15.3955
C 38.2299 5.09753 15.5234
C 38.1549 3.74385 13.4057
C 38.1946 3.67937 14.952
C 38.1753 5.22633 12.9674
C 42.0466 5.81971 13.4493
C 42.0708 5.73459 14.9982
C 41.9578 2.91218 12.8036
C 41.995 2.79903 15.3396
C 40.7782 5.02045 15.4831
C 40.7083 3.66177 13.3573
C 40.7359 3.58923 14.8995
C 40.7328 5.15304 12.9275
C 44.6024 5.75462 13.4111
C 44.619 5.66413 14.9557
C 44.523 2.78284 12.752
C 44.5475 2.67156 15.2968
C 43.3353 4.93648 15.4294
C 43.2701 3.56943 13.3015
C 43.2901 3.49011 14.8501
C 43.2947 5.08171 12.8812
C 47.1566 5.67017 13.387
C 47.1539 5.58308 14.9337
C 47.084 2.68815 12.7381
C 47.0766 2.58706 15.2948
C 45.8697 4.85246 15.3973
C 45.8226 3.46161 13.2726
C 45.8322 3.39136 14.8237
C 45.8538 4.98978 12.8497
C 49.6933 5.5827 13.4178
C 49.6754 5.50319 14.9699
C 49.6522 2.63612 12.7664
C 49.6095 2.53193 15.3256
C 48.3826 4.77563 15.4065
C 48.3746 3.38539 13.2817
C 48.3596 3.31807 14.8333
C 48.4068 4.90321 12.8521
C 52.2372 5.48958 13.4781
C 52.2005 5.41771 15.023
C 52.2192 2.56756 12.8427
C 52.138 2.46152 15.3924
C 50.9083 4.70007 15.465
C 50.9282 3.32108 13.3377
C 50.8962 3.25708 14.8879
C 50.9611 4.82013 12.906
C 54.7876 5.38991 13.5552
C 54.7276 5.32337 15.1033
C 54.7658 2.49893 12.9637
C 54.6569 2.40693 15.5005
C 53.4219 4.61262 15.5258
C 53.4785 3.24242 13.4255
C 53.4246 3.17882 14.9679
C 53.5045 4.72377 12.984
C 57.2864 2.45957 13.0273
C 57.155 2.3488 15.6998
C 55.9263 4.54108 15.6824
C 56.0268 3.177 13.5508
C 55.9579 3.12316 15.0999
C 56.0174 4.61959 13.0248
C 16.4509 7.04348 13.7751
C 16.5376 7.03141 16.4625
C 18.8598 10.0606 14.2904
C 18.9167 10.0321 15.8506
C 18.948 7.11342 13.7585
C 19.043 7.08528 16.3106
C 17.7416 9.23012 16.4506
C 17.6769 7.81798 14.3142
C 17.7312 7.80125 15.8719
C 17.6334 9.27058 13.7776
C 21.4116 10.165 14.197
C 21.4638 10.1309 15.7519
C 21.4568 7.1801 13.651
C 21.5585 7.14997 16.2003
C 20.2388 9.32675 16.2791
C 20.2043 7.88065 14.2208
C 20.2584 7.8586 15.7586
C 20.1472 9.36683 13.7417
C 23.9613 10.2243 14.1239
C 24.0082 10.1887 15.6805
C 23.997 7.24825 13.5396
C 24.0917 7.20813 16.1049
C 22.767 9.41047 16.2051
C 22.729 7.9605 14.1069
C 22.7868 7.93451 15.6608
C 22.6834 9.46145 13.6394
C 26.5313 10.2574 14.043
C 26.5824 10.2203 15.5931
C 26.5521 7.29998 13.4524
C 26.6527 7.24341 16.0044
C 25.3211 9.44551 16.1159
C 25.2812 8.00722 14.0195
C 25.3379 7.97623 15.5694
C 25.2374 9.50948 13.5621
C 29.1206 10.2626 13.9622
C 29.169 10.2207 15.5119
C 29.129 7.34186 13.3595
C 29.2162 7.27598 15.9092
C 27.8957 9.46934 16.0274
C 27.8444 8.04778 13.9285
C 27.8994 8.0104 15.4753
C 27.8112 9.544 13.4733
C 31.7224 10.2621 13.9001
C 31.7659 10.2183 15.4484
C 31.7128 7.37202 13.268
C 31.8045 7.28692 15.8318
C 30.482 9.47802 15.9535
C 30.4321 8.07108 13.8437
C 30.485 8.02632 15.3968
C 30.4094 9.55956 13.4003
C 34.3262 10.2565 13.8501
C 34.362 10.2047 15.3882
C 34.3093 7.39729 13.1777
C 34.3924 7.28965 15.7375
C 33.0753 9.47445 15.8915
C 33.0213 8.08797 13.7601
C 33.0733 8.03175 15.3197
C 33.0097 9.57224 13.3323
C 36.9387 10.2402 13.8042
C 36.9681 10.186 15.3431
C 36.9119 7.41564 13.1158
C 36.9733 7.28726 15.6665
C 35.6672 9.4569 15.8302
C 35.621 8.10187 13.6912
C 35.6647 8.03186 15.2378
C 35.6115 9.57478 13.2836
C 39.5543 10.2224 13.7639
C 39.5731 10.1586 15.3104
C 39.5094 7.38017 13.0692
C 39.5445 7.24103 15.6304
C 38.2731 9.43523 15.7907
C 38.2309 8.09262 13.6327
C 38.2615 8.0142 15.1876
C 38.2333 9.56376 13.2294
C 42.1497 10.2048 13.7418
C 42.1592 10.129 15.2857
C 42.0797 7.32707 13.0436
C 42.1169 7.1716 15.5955
C 40.868 9.39522 15.757
C 40.8177 8.05044 13.6106
C 40.8388 7.96328 15.1586
C 40.8426 9.53349 13.2083
C 44.7268 10.1657 13.7156
C 44.7346 10.0818 15.2667
C 44.6429 7.26583 13.0058
C 44.6663 7.11023 15.558
C 43.4348 9.34402 15.7328
C 43.3894 8.00243 13.5764
C 43.4034 7.90798 15.1308
C 43.4199 9.49733 13.1798
C 47.299 10.1268 13.7045
C 47.2936 10.0301 15.2582
C 47.2001 7.19051 12.978
C 47.2005 7.03092 15.5363
C 45.9964 9.28725 15.7108
C 45.9508 7.93814 13.5442
C 45.9575 7.84693 15.0955
C 45.9919 9.45023 13.1513
C 49.8394 10.0448 13.7126
C 49.8232 9.93991 15.2583
C 49.7419 7.0935 12.9992
C 49.7167 6.95219 15.5543
C 48.5305 9.20878 15.7027
C 48.494 7.86483 13.5328
C 48.4854 7.77292 15.088
C 48.5477 9.38389 13.1401
C 52.3841 9.92859 13.7351
C 52.3675 9.82786 15.2828
C 52.2791 6.98452 13.0489
C 52.2337 6.85999 15.5904
C 51.0559 9.10977 15.7092
C 51.0276 7.76286 13.5636
C 51.0101 7.67291 15.1093
C 51.0804 9.27672 13.1636
C 54.7932 6.85662 13.0432
C 54.7211 6.73219 15.718
C 53.5721 8.99145 15.7785
C 53.5739 7.64456 13.61
C 53.5421 7.56683 15.1609
C 53.5886 9.12914 13.1326
C 18.8218 11.5153 13.7324
C 18.9044 11.4668 16.4426
C 21.337 11.6817 13.7224
C 21.4131 11.6097 16.3068
C 20.0248 12.2913 14.2609
C 20.0825 12.2599 15.8728
C 23.871 14.716 14.282
C 23.915 14.669 15.837
C 23.9018 11.7504 13.6745
C 23.9904 11.6757 16.233
C 22.639 13.916 16.43
C 22.5921 12.4863 14.236
C 22.6461 12.4317 15.8081
C 22.552 14.016 13.761
C 26.522 14.667 14.162
C 26.563 14.634 15.718
C 26.5036 11.7571 13.5872
C 26.59 11.6935 16.141
C 25.259 13.935 16.301
C 25.2122 12.4962 14.1491
C 25.2656 12.454 15.7196
C 25.179 14.004 13.655
C 29.144 14.628 14.063
C 29.182 14.603 15.621
C 29.1187 11.7473 13.509
C 29.189 11.682 16.0656
C 27.885 13.905 16.199
C 27.827 12.4704 14.0593
C 27.8733 12.439 15.6304
C 27.812 13.955 13.55
C 31.755 14.595 13.986
C 31.786 14.576 15.543
C 31.7222 11.7341 13.4544
C 31.782 11.6663 16.0021
C 30.493 13.877 16.116
C 30.4365 12.4496 13.9898
C 30.4725 12.4186 15.552
C 30.43 13.916 13.465
C 34.355 14.566 13.928
C 34.382 14.549 15.486
C 34.327 11.7186 13.3984
C 34.3731 11.6442 15.9416
C 33.09 13.851 16.051
C 33.0309 12.432 13.9332
C 33.0641 12.3993 15.4953
C 33.038 13.885 13.398
C 36.954 14.541 13.893
C 36.974 14.523 15.45
C 36.9437 11.6963 13.3624
C 36.9803 11.6181 15.9073
C 35.68 13.823 16.004
C 35.6487 12.406 13.883
C 35.6723 12.3758 15.4462
C 35.641 13.857 13.351
C 39.55 14.521 13.877
C 39.563 14.498 15.435
C 39.5629 11.6834 13.3294
C 39.5827 11.5942 15.8794
C 38.268 13.796 15.978
C 38.2547 12.3817 13.8524
C 38.2806 12.3488 15.4186
C 38.241 13.835 13.324
C 42.146 14.504 13.886
C 42.154 14.473 15.444
C 42.1641 11.6709 13.3141
C 42.1749 11.5654 15.8672
C 40.853 13.769 15.971
C 40.8667 12.3684 13.8416
C 40.8775 12.3217 15.4034
C 40.841 13.819 13.317
C 44.744 14.489 13.917
C 44.746 14.446 15.475
C 44.7581 11.6474 13.3066
C 44.7521 11.5231 15.8659
C 43.441 13.741 15.986
C 43.4627 12.3521 13.8403
C 43.4685 12.2995 15.4055
C 43.44 13.807 13.333
C 47.35 14.48 13.978
C 47.345 14.419 15.53
C 47.3406 11.628 13.3168
C 47.3208 11.4785 15.8691
C 46.033 13.708 16.021
C 46.0532 12.3325 13.8487
C 46.0491 12.2636 15.414
C 46.046 13.8 13.373
C 49.9022 11.5632 13.3411
C 49.865 11.3905 15.8831
C 48.642 13.681 16.076
C 48.6378 12.3128 13.8859
C 48.6241 12.2242 15.4359
C 48.667 13.81 13.443
C 52.4186 11.4241 13.2996
C 52.3823 11.2313 15.9718
C 51.2154 12.2086 13.9142
C 51.1925 12.1072 15.477
C 5.98435 -16.3135 14.3095
C 5.98386 -16.3094 15.8661
C 8.57476 -16.3058 14.3183
C 8.583 -16.3075 15.867
C 8.68768 -19.2509 13.829
C 8.71404 -19.2529 16.3865
C 7.31473 -17.0472 16.3789
C 7.40494 -18.5291 14.331
C 7.41957 -18.5298 15.8884
C 7.30382 -17.0499 13.8182
C 11.1567 -16.3005 14.2959
C 11.1832 -16.3157 15.84
C 11.2034 -19.2155 13.7835
C 11.2645 -19.2258 16.3378
C 9.90569 -17.0305 16.3591
C 9.93873 -18.4948 14.3189
C 9.96064 -18.4999 15.8647
C 9.88004 -17.0278 13.8135
C 13.7149 -16.3025 14.2265
C 13.7546 -16.3206 15.7724
C 13.7238 -19.2231 13.7033
C 13.811 -19.2393 16.2503
C 12.4933 -17.0461 16.3113
C 12.4738 -18.4882 14.254
C 12.5171 -18.498 15.8005
C 12.4307 -17.0263 13.7544
C 16.2596 -16.3033 14.1279
C 16.3115 -16.3299 15.6759
C 16.2414 -19.2394 13.6069
C 16.3407 -19.2555 16.1626
C 15.0575 -17.0612 16.2214
C 15.0035 -18.5002 14.1668
C 15.0603 -18.5157 15.7047
C 14.9722 -17.0322 13.668
C 18.817 -16.3139 14.0236
C 18.8737 -16.337 15.5863
C 18.7493 -19.2792 13.5154
C 18.8517 -19.2889 16.053
C 17.5993 -17.0596 16.1222
C 17.5205 -18.5111 14.0658
C 17.5829 -18.5243 15.6105
C 17.5051 -17.0301 13.5697
C 21.2428 -19.3649 13.3416
C 21.3532 -19.3554 16.0066
C 20.1185 -17.1388 16.0802
C 20.0511 -18.5717 13.9526
C 20.1106 -18.5782 15.5136
C 20.0197 -17.1156 13.4125
C 52.4157 -19.5174 12.1773
C 52.2817 -19.4796 14.8249
C 54.8884 -16.5119 12.8651
C 54.8361 -16.5189 14.4092
C 54.9174 -19.4831 12.3555
C 54.8171 -19.4721 14.8947
C 53.5856 -17.3048 14.8968
C 53.6294 -18.7485 12.7915
C 53.5667 -18.7492 14.3341
C 53.6862 -17.3032 12.2554
C 57.4628 -16.5352 12.9495
C 57.4104 -16.5403 14.4881
C 57.4431 -19.4611 12.4421
C 57.3523 -19.4651 14.9955
C 56.104 -17.2574 14.9459
C 56.1619 -18.7267 12.9098
C 56.1123 -18.7308 14.4434
C 56.1922 -17.2505 12.409
C 60.0332 -16.5693 13.03
C 59.9754 -16.5749 14.5815
C 60.0021 -19.4905 12.5233
C 59.9083 -19.496 15.087
C 58.661 -17.2828 15.0403
C 58.7132 -18.7521 12.9892
C 58.656 -18.7548 14.5362
C 58.7491 -17.2804 12.4864
C 62.6196 -16.5867 13.121
C 62.5579 -16.5923 14.6732
C 62.5498 -19.523 12.6239
C 62.4592 -19.5329 15.1893
C 61.2337 -17.3052 15.1328
C 61.273 -18.7772 13.0858
C 61.2162 -18.7784 14.6377
C 61.3301 -17.3082 12.5748
C 65.2009 -16.6421 13.254
C 65.1405 -16.656 14.7931
C 63.8035 -17.3407 15.2298
C 63.8155 -18.8078 13.1778
C 63.7622 -18.8099 14.7231
C 63.916 -17.3344 12.6784
C 8.7226 -20.7189 14.3347
C 8.75522 -20.7184 15.8758
C 11.2331 -20.6852 14.2737
C 11.2709 -20.6872 15.8225
C 11.2584 -23.6242 13.7712
C 11.3168 -23.607 16.3353
C 10.0308 -21.4352 16.3566
C 10.0203 -22.8954 14.3026
C 10.0516 -22.8923 15.8478
C 9.97054 -21.4364 13.7976
C 13.7543 -20.6903 14.193
C 13.8057 -20.6947 15.7404
C 13.7565 -23.6332 13.7196
C 13.8341 -23.608 16.2775
C 12.5574 -21.4108 16.2936
C 12.5139 -22.8862 14.2499
C 12.5542 -22.8758 15.7969
C 12.4839 -21.4218 13.7312
C 16.2726 -20.7185 14.108
C 16.3312 -20.7212 15.6509
C 16.2594 -23.6747 13.6233
C 16.3613 -23.6572 16.1789
C 15.0913 -21.4309 16.2004
C 15.0287 -22.908 14.1704
C 15.0836 -22.8983 15.72
C 14.9987 -21.4405 13.6582
C 18.7707 -20.7539 14.0079
C 18.8372 -20.7534 15.5521
C 18.7518 -23.721 13.518
C 18.8601 -23.7002 16.0793
C 17.6015 -21.4691 16.1158
C 17.5321 -22.9523 14.0703
C 17.5963 -22.9447 15.6154
C 17.4976 -21.4802 13.5566
C 21.279 -20.8125 13.8866
C 21.3517 -20.8017 15.4456
C 21.2566 -23.7821 13.4189
C 21.3652 -23.7419 15.9579
C 20.108 -21.5163 15.9994
C 20.0253 -23.0025 13.9641
C 20.0925 -22.9907 15.5081
C 19.9911 -21.5291 13.4585
C 23.752 -23.8366 13.2536
C 23.8643 -23.7746 15.9036
C 22.6024 -21.5665 15.9406
C 22.5412 -23.0465 13.8375
C 22.6081 -23.0212 15.4008
C 22.4687 -21.6008 13.2749
C 49.7344 -24.0325 12.23
C 49.698 -23.9181 14.8697
C 52.3031 -20.9695 12.7481
C 52.249 -20.9408 14.3013
C 52.2715 -23.9756 12.3242
C 52.212 -23.8913 14.856
C 50.9793 -21.6915 14.8103
C 50.9748 -23.2217 12.7623
C 50.945 -23.1662 14.3092
C 51.0961 -21.7848 12.1441
C 54.8591 -20.9546 12.8594
C 54.8116 -20.9475 14.4061
C 54.8054 -23.9249 12.3737
C 54.7385 -23.8749 14.9331
C 53.5066 -21.6719 14.8603
C 53.53 -23.1892 12.8297
C 53.4932 -23.1524 14.3698
C 53.5958 -21.7142 12.3186
C 57.399 -20.9393 12.9388
C 57.3471 -20.9412 14.4935
C 57.3468 -23.9209 12.441
C 57.2832 -23.9001 14.9914
C 56.0501 -21.6752 14.9549
C 56.0753 -23.1647 12.9089
C 56.0365 -23.1443 14.4623
C 56.1345 -21.6888 12.3955
C 59.9549 -20.967 13.0165
C 59.8933 -20.9634 14.572
C 59.8947 -23.9311 12.4992
C 59.8122 -23.9202 15.0718
C 58.5929 -21.6881 15.0369
C 58.6306 -23.1757 12.9635
C 58.5801 -23.1641 14.5258
C 58.6793 -21.6918 12.4612
C 62.4875 -20.99 13.1232
C 62.4275 -21.0007 14.6711
C 61.1291 -21.725 15.1187
C 61.1497 -23.1897 13.0551
C 61.0965 -23.1916 14.6006
C 61.2285 -21.7134 12.5649
C 11.2644 -25.0751 14.2979
C 11.3092 -25.0636 15.8368
C 13.7702 -25.1028 14.2344
C 13.8211 -25.0865 15.7893
C 13.7575 -28.039 13.7575
C 13.8565 -28.0041 16.3156
C 12.5669 -25.8039 16.334
C 12.5207 -27.2913 14.3031
C 12.5789 -27.2701 15.8454
C 12.491 -25.8381 13.7712
C 16.2913 -25.1376 14.132
C 16.3472 -25.1254 15.6863
C 16.2898 -28.0762 13.6725
C 16.3714 -28.0375 16.2304
C 15.1016 -25.8362 16.2442
C 15.0371 -27.3155 14.2066
C 15.0919 -27.2981 15.7499
C 15.0081 -25.8583 13.6888
C 18.7976 -25.1824 14.046
C 18.8551 -25.1664 15.5881
C 18.8216 -28.1368 13.6042
C 18.8969 -28.0866 16.1613
C 17.6225 -25.8726 16.1515
C 17.5729 -27.3615 14.1242
C 17.6208 -27.3372 15.6724
C 17.5347 -25.9053 13.5986
C 21.3096 -25.2499 13.9439
C 21.3651 -25.22 15.4875
C 21.3388 -28.208 13.5274
C 21.427 -28.1464 16.0857
C 20.1277 -25.9169 16.0663
C 20.0888 -27.4206 14.0559
C 20.1391 -27.3917 15.5932
C 20.0316 -25.9656 13.5072
C 23.8453 -25.2842 13.8445
C 23.8961 -25.2457 15.395
C 23.8997 -28.2577 13.447
C 23.9778 -28.1853 15.9876
C 22.6481 -25.96 15.9613
C 22.6262 -27.4877 13.9582
C 22.6759 -27.446 15.5139
C 22.5563 -26.0216 13.418
C 26.4312 -28.284 13.2983
C 26.5065 -28.212 15.9765
C 25.1564 -25.9894 15.9288
C 25.1858 -27.5125 13.8781
C 25.2333 -27.4666 15.4257
C 25.0659 -26.0743 13.2762
C 47.106 -28.5035 12.5074
C 47.1443 -28.3266 15.1935
C 49.6633 -25.4713 12.8488
C 49.6593 -25.399 14.3936
C 49.6285 -28.4651 12.5265
C 49.6595 -28.3101 15.0674
C 48.4197 -26.1255 14.9968
C 48.3509 -27.7024 13.0005
C 48.3743 -27.6124 14.5493
C 48.4171 -26.281 12.3494
C 52.2193 -25.4387 12.8633
C 52.2012 -25.3843 14.4067
C 52.1728 -28.42 12.4759
C 52.1842 -28.2884 15.0381
C 50.9328 -26.1154 14.9212
C 50.9091 -27.6815 12.9602
C 50.9167 -27.6039 14.496
C 50.9444 -26.2305 12.3922
C 54.7609 -25.4019 12.9046
C 54.7352 -25.3618 14.4586
C 54.7222 -28.3851 12.4714
C 54.7148 -28.2883 15.0421
C 53.4512 -26.0884 14.9576
C 53.4526 -27.6399 12.9438
C 53.4475 -27.5751 14.4966
C 53.4867 -26.1765 12.3892
C 57.2955 -25.4013 12.9512
C 57.2613 -25.3754 14.5041
C 57.2502 -28.3651 12.4778
C 57.2405 -28.3077 15.0629
C 55.9834 -26.099 14.9982
C 55.9856 -27.6201 12.9678
C 55.9815 -27.5764 14.5237
C 56.0282 -26.1527 12.4373
C 59.8249 -25.3982 13.0058
C 59.7883 -25.3873 14.5548
C 58.5105 -26.118 15.0379
C 58.5085 -27.6121 12.9881
C 58.497 -27.5843 14.5441
C 58.566 -26.1519 12.4727
C 13.8212 -29.4901 14.2825
C 13.8641 -29.4658 15.8278
C 16.3472 -29.5285 14.2057
C 16.3869 -29.5123 15.7553
C 16.3568 -32.4391 13.7195
C 16.4224 -32.4374 16.297
C 15.1352 -30.2163 16.31
C 15.1151 -31.6915 14.2631
C 15.1528 -31.6796 15.8077
C 15.0715 -30.2398 13.7444
C 18.8869 -29.592 14.1418
C 18.9249 -29.5659 15.6987
C 18.9092 -32.5075 13.6749
C 18.9634 -32.5052 16.2324
C 17.6687 -30.2673 16.2448
C 17.648 -31.744 14.1955
C 17.6814 -31.7373 15.7513
C 17.6033 -30.2908 13.6788
C 21.4224 -29.6615 14.0793
C 21.4665 -29.6321 15.6218
C 21.4514 -32.6013 13.6164
C 21.519 -32.587 16.1646
C 20.2148 -30.3314 16.1837
C 20.2025 -31.824 14.151
C 20.2348 -31.8117 15.7019
C 20.1476 -30.3731 13.6253
C 23.982 -29.7217 13.9864
C 24.027 -29.6828 15.5419
C 24.0038 -32.6647 13.5279
C 24.0707 -32.6468 16.0846
C 22.7674 -30.39 16.1049
C 22.7416 -31.8976 14.0721
C 22.7817 -31.8789 15.6174
C 22.685 -30.4353 13.5437
C 26.588 -29.7434 13.8991
C 26.6246 -29.7075 15.4545
C 26.5695 -32.7379 13.463
C 26.6222 -32.7072 16.0106
C 25.35 -30.441 16.0126
C 25.3056 -31.9572 13.9868
C 25.3439 -31.9354 15.5351
C 25.2773 -30.4911 13.4557
C 29.241 -29.9233 13.8501
C 29.2728 -29.8965 15.3934
C 29.1388 -32.8441 13.4308
C 29.1904 -32.7848 15.975
C 27.9367 -30.5052 15.9429
C 27.8762 -32.0352 13.9321
C 27.9052 -32.011 15.4789
C 27.8803 -30.5539 13.3932
C 31.7988 -30.0639 13.7727
C 31.8301 -30.0119 15.3119
C 31.7108 -32.975 13.3675
C 31.7645 -32.8905 15.9206
C 30.5486 -30.6649 15.8821
C 30.4641 -32.1728 13.8764
C 30.4951 -32.1346 15.4286
C 30.4833 -30.7299 13.3263
C 34.3049 -30.1535 13.6887
C 34.3445 -30.0797 15.2304
C 34.2563 -33.0528 13.3094
C 34.3254 -32.9528 15.8704
C 33.0851 -30.7517 15.8065
C 33.0087 -32.2858 13.8098
C 33.0482 -32.2308 15.3661
C 33.0221 -30.8605 13.2482
C 36.7889 -30.1529 13.6164
C 36.8391 -30.0863 15.1597
C 36.8102 -33.074 13.25
C 36.8818 -32.9555 15.8037
C 35.6079 -30.7922 15.7379
C 35.5503 -32.3309 13.7479
C 35.5871 -32.2685 15.3016
C 35.5354 -30.9076 13.1754
C 39.3153 -30.1189 13.5293
C 39.3632 -30.0356 15.0606
C 39.3518 -33.0547 13.183
C 39.4281 -32.9167 15.7272
C 38.1311 -30.7559 15.6561
C 38.0856 -32.3146 13.6828
C 38.1338 -32.2388 15.2275
C 38.0447 -30.8815 13.1029
C 41.8644 -30.0936 13.4127
C 41.91 -30.0064 14.959
C 41.892 -33.0161 13.0924
C 41.9794 -32.8639 15.6397
C 40.6678 -30.7098 15.5564
C 40.6232 -32.288 13.6008
C 40.6693 -32.1971 15.1441
C 40.5766 -30.8487 13.012
C 44.4018 -30.0349 13.3057
C 44.4505 -29.944 14.8443
C 44.4519 -32.9671 12.9832
C 44.5407 -32.807 15.5349
C 43.2174 -30.6699 15.4505
C 43.1741 -32.2421 13.4884
C 43.2265 -32.1556 15.0283
C 43.1264 -30.823 12.897
C 47.0078 -29.9116 13.1838
C 47.0436 -29.8164 14.7385
C 47.0121 -32.9039 12.8859
C 47.09 -32.7408 15.4385
C 45.7802 -30.566 15.3316
C 45.7393 -32.1727 13.3817
C 45.7874 -32.0726 14.9301
C 45.7015 -30.7209 12.7864
C 49.5918 -29.8952 13.1225
C 49.6237 -29.7986 14.6687
C 49.5796 -32.8407 12.8146
C 49.6378 -32.6958 15.3622
C 48.3566 -30.5146 15.2541
C 48.3004 -32.1113 13.296
C 48.3393 -32.0144 14.8446
C 48.2933 -30.676 12.7063
C 52.1592 -29.8608 13.063
C 52.1778 -29.7727 14.6236
C 52.1415 -32.7928 12.7396
C 52.1938 -32.6543 15.309
C 50.9083 -30.4789 15.192
C 50.8737 -32.0534 13.2316
C 50.9059 -31.9678 14.7851
C 50.8621 -30.6291 12.6352
C 54.7087 -29.8339 13.0416
C 54.7181 -29.7682 14.5974
C 54.6996 -32.771 12.6865
C 54.7335 -32.645 15.2419
C 53.4616 -30.4685 15.1519
C 53.4262 -32.0286 13.1801
C 53.4531 -31.944 14.7377
C 53.4352 -30.6041 12.5888
C 57.2414 -29.8117 13.0341
C 57.2464 -29.7715 14.5807
C 55.9977 -30.4815 15.1209
C 55.9708 -32.0178 13.1434
C 55.9826 -31.9473 14.6816
C 55.9828 -30.5854 12.5647
C 16.3753 -33.8921 14.235
C 16.4189 -33.8971 15.7809
C 18.9177 -33.9694 14.1738
C 18.953 -33.9783 15.7276
C 18.8469 -36.8579 13.5938
C 18.8802 -36.9113 16.1579
C 17.6741 -34.6693 16.2452
C 17.6178 -36.0924 14.1488
C 17.6417 -36.1145 15.6919
C 17.6144 -34.6338 13.6768
C 21.4648 -34.0591 14.1123
C 21.4964 -34.0599 15.6625
C 21.3796 -36.9971 13.5688
C 21.4082 -37.0386 16.1218
C 20.2227 -34.7612 16.1893
C 20.154 -36.2064 14.1075
C 20.1729 -36.2285 15.6517
C 20.1638 -34.7361 13.6314
C 24.0174 -34.1454 14.0364
C 24.0457 -34.1391 15.5863
C 23.9223 -37.1075 13.5422
C 23.9473 -37.1175 16.1012
C 22.7627 -34.841 16.1227
C 22.6846 -36.3153 14.0614
C 22.7034 -36.3248 15.6179
C 22.7108 -34.8421 13.5655
C 26.5703 -34.2212 13.9747
C 26.5855 -34.2042 15.5331
C 26.4919 -37.1701 13.5218
C 26.511 -37.145 16.0742
C 25.3013 -34.9099 16.0686
C 25.2329 -36.4036 14.0239
C 25.246 -36.3975 15.5771
C 25.2663 -34.9298 13.5054
C 29.133 -34.2981 13.9683
C 29.1535 -34.2703 15.516
C 29.071 -37.2318 13.5143
C 29.0863 -37.183 16.0811
C 27.853 -34.9593 16.039
C 27.8029 -36.4594 14.003
C 27.8151 -36.4385 15.5524
C 27.8339 -34.9959 13.4801
C 31.701 -34.406 13.9237
C 31.7266 -34.3635 15.4704
C 31.6457 -37.2812 13.5166
C 31.6782 -37.2312 16.0685
C 30.4292 -35.0249 16.0219
C 30.3716 -36.5231 14.0034
C 30.3866 -36.4993 15.5525
C 30.3924 -35.0827 13.4645
C 34.2611 -34.4757 13.8681
C 34.3027 -34.4145 15.4247
C 34.223 -37.3434 13.4868
C 34.2692 -37.2739 16.0426
C 33.0099 -35.095 15.9776
C 32.9533 -36.5996 13.9819
C 32.981 -36.5561 15.5303
C 32.963 -35.1713 13.4225
C 36.8318 -34.4992 13.8231
C 36.8679 -34.4306 15.3794
C 36.8131 -37.3666 13.4412
C 36.8638 -37.2879 16.0024
C 35.5922 -35.1275 15.9413
C 35.5402 -36.6439 13.9453
C 35.5675 -36.5877 15.5001
C 35.5374 -35.2307 13.3748
C 39.3823 -34.478 13.7608
C 39.4245 -34.4066 15.3121
C 39.3774 -37.3679 13.3931
C 39.445 -37.2812 15.9657
C 38.1653 -35.1174 15.8904
C 38.1134 -36.6427 13.8937
C 38.1453 -36.5908 15.4513
C 38.0998 -35.2305 13.3194
C 41.9378 -34.4424 13.6861
C 41.9829 -34.36 15.2315
C 41.9499 -37.3559 13.3333
C 42.0222 -37.2586 15.9059
C 40.7273 -35.081 15.8177
C 40.6764 -36.6367 13.8415
C 40.7156 -36.5678 15.3963
C 40.6485 -35.2012 13.2613
C 44.4957 -34.4006 13.5791
C 44.5427 -34.3145 15.1305
C 44.5313 -37.3298 13.2582
C 44.6121 -37.2303 15.8149
C 43.2882 -35.0396 15.7369
C 43.2434 -36.6052 13.7674
C 43.2883 -36.5393 15.3291
C 43.2163 -35.1759 13.1754
C 47.0495 -34.3366 13.4921
C 47.0954 -34.2472 15.0413
C 47.1003 -37.2862 13.1579
C 47.1895 -37.1781 15.7184
C 45.8496 -34.9847 15.6319
C 45.822 -36.5684 13.6809
C 45.8678 -36.4937 15.2284
C 45.7708 -35.1353 13.0849
C 49.6139 -34.2726 13.4235
C 49.653 -34.1881 14.9596
C 49.6511 -37.2216 13.0564
C 49.7299 -37.1272 15.6001
C 48.4083 -34.9237 15.5476
C 48.3779 -36.5048 13.5816
C 48.4265 -36.4307 15.121
C 48.3338 -35.0705 12.9991
C 52.1614 -34.2241 13.3358
C 52.1963 -34.1419 14.8821
C 52.2122 -37.1461 12.9757
C 52.2758 -37.0466 15.5276
C 50.9548 -34.8704 15.4643
C 50.9284 -36.4315 13.4823
C 50.9737 -36.3637 15.024
C 50.8826 -35.0022 12.9071
C 54.7017 -34.1907 13.2616
C 54.7259 -34.1173 14.8025
C 53.4901 -34.8285 15.3849
C 53.4726 -36.3769 13.4162
C 53.508 -36.306 14.9548
C 53.4348 -34.9501 12.8315
C 18.799 -38.3245 14.0556
C 18.8056 -38.3566 15.6058
C 21.3167 -38.4978 14.0381
C 21.3188 -38.5298 15.5874
C 19.9902 -39.2294 16.0761
C 19.9955 -39.1519 13.5131
C 23.8704 -38.5872 14.0456
C 23.8706 -38.6033 15.5983
C 22.5492 -39.3383 16.0812
C 22.5561 -39.2866 13.5323
C 26.4524 -38.634 14.0515
C 26.4608 -38.6311 15.5953
C 25.1434 -39.3563 16.1006
C 25.139 -39.3405 13.5565
C 29.0407 -38.681 14.0514
C 29.0486 -38.6647 15.6049
C 27.7388 -39.3708 16.1191
C 27.7289 -39.3826 13.552
C 31.6289 -38.7198 14.053
C 31.644 -38.6996 15.5998
C 30.341 -39.3882 16.1229
C 30.3229 -39.4193 13.5601
C 34.2213 -38.7652 14.023
C 34.2435 -38.7319 15.5797
C 32.9362 -39.413 16.1164
C 32.9132 -39.4539 13.5542
C 36.8095 -38.78 13.9929
C 36.8354 -38.754 15.5439
C 35.5404 -39.4331 16.0957
C 35.5023 -39.4791 13.5209
C 39.3867 -38.7935 13.9568
C 39.425 -38.7564 15.5068
C 38.1362 -39.4473 16.0536
C 38.0856 -39.4978 13.4846
C 41.9656 -38.7868 13.8942
C 42.0114 -38.7393 15.4434
C 40.726 -39.4504 16.0079
C 40.6694 -39.4985 13.4456
C 44.569 -38.7707 13.8186
C 44.6224 -38.7208 15.362
C 43.3329 -39.4475 15.929
C 43.271 -39.4985 13.3792
C 47.1573 -38.7389 13.7107
C 47.2118 -38.7038 15.2739
C 45.9503 -39.4458 15.8402
C 45.8547 -39.4891 13.2858
C 49.7154 -38.6854 13.6027
C 49.771 -38.662 15.1577
C 48.5473 -39.4232 15.7468
C 48.4509 -39.462 13.1678
C 52.2456 -38.5757 13.5239
C 52.2874 -38.5332 15.0684
C 51.0982 -39.2785 15.6996
C 50.9956 -39.2726 12.9629
C 23.77 -41.511 13.45
C 23.757 -41.572 16.136
C 22.456 -40.81 13.993
C 22.44 -40.857 15.57
C 26.386 -41.539 13.494
C 26.388 -41.566 16.191
C 25.087 -40.829 14.041
C 25.083 -40.855 15.623
C 28.989 -41.565 13.518
C 29.002 -41.572 16.218
C 27.697 -40.852 14.071
C 27.7 -40.862 15.653
C 31.587 -41.588 13.524
C 31.61 -41.582 16.225
C 30.298 -40.872 14.082
C 30.307 -40.874 15.666
C 34.181 -41.609 13.512
C 34.214 -41.594 16.214
C 32.895 -40.892 14.077
C 32.91 -40.886 15.66
C 36.776 -41.627 13.484
C 36.818 -41.608 16.185
C 35.49 -40.91 14.055
C 35.512 -40.901 15.638
C 39.371 -41.642 13.439
C 39.422 -41.624 16.139
C 38.086 -40.926 14.017
C 38.113 -40.916 15.6
C 41.972 -41.652 13.375
C 42.03 -41.64 16.073
C 40.685 -40.94 13.963
C 40.717 -40.932 15.546
C 44.58 -41.657 13.294
C 44.646 -41.66 15.988
C 43.288 -40.95 13.893
C 43.325 -40.947 15.474
C 47.206 -41.65 13.18
C 47.284 -41.683 15.89
C 45.902 -40.957 13.801
C 45.946 -40.967 15.388
C 48.489 -40.909 13.708
C 48.544 -40.938 15.271
C 21.058 -41.575 16.031
C 19.842 -40.667 13.941
C 19.818 -40.723 15.524
C 21.098 -41.467 13.395
C 51.233 -40.907 15.728
C 49.923 -41.632 13.613
C 49.98 -41.675 15.176
C 51.133 -40.833 13.024
C 51.241 13.563 16.142
C 50.009 14.481 14.058
C 49.994 14.4 15.64
C 51.279 13.716 13.5
C 21.181 14.641 16.559
C 19.882 13.936 14.441
C 19.937 13.863 16.001
C 21.087 14.764 13.868
H 3.556 -12 14.091
H 3.568 -12.005 16.001
H 3.504 -14.418 13.873
H 3.536 -14.428 16.196
H 67.578 -12.548 13.234
H 67.58 -12.55 15.138
H 67.546 -14.973 13.009
H 67.52 -14.984 15.335
H 5.12446 -16.8649 16.2421
H 5.12141 -16.8676 13.9397
H 23.769 -42.558 13.721
H 23.773 -42.608 15.824
H 20.936 -42.491 13.703
H 20.904 -42.555 15.601
H 18.944 -41.09 13.512
H 18.899 -41.192 15.847
H 52.067 -41.265 13.36
H 52.127 -41.322 15.282
H 50.013 -42.61 13.159
H 50.096 -42.695 15.519
H 52.166 14.155 13.938
H 20.957 15.737 14.324
H 21.023 15.664 16.245
H 18.94 14.364 14.124
H 19.039 14.245 16.468
H 5.23018 -9.75423 13.9643
H 5.20655 -9.78717 16.2238
H 11.7315 1.06357 14.1985
H 11.8289 1.06166 16.508
H 10.4328 -1.13707 14.2086
H 10.5037 -1.14264 16.5163
H 6.59015 -7.65057 14.1323
H 6.59624 -7.70908 16.3771
H 14.2758 5.41814 14.063
H 14.3556 5.41861 16.2867
H 13.0205 3.2318 14.0839
H 13.1101 3.24627 16.3695
H 9.14512 -3.32864 14.2397
H 9.19091 -3.36181 16.4796
H 7.87694 -5.501 14.274
H 7.92206 -5.56194 16.5069
H 16.6966 9.76934 14.0472
H 16.7897 9.73586 16.2858
H 15.5238 7.57015 14.0102
H 15.6018 7.55881 16.2673
H 62.073 -3.59236 13.1252
H 62.0141 -3.68677 15.3044
H 64.7085 -7.96278 12.9829
H 64.6335 -8.01561 15.2137
H 66.0953 -10.1646 12.998
H 65.9998 -10.1617 15.2534
H 63.3706 -5.78165 13.0023
H 63.3187 -5.85228 15.2206
H 59.4957 0.818114 13.2742
H 59.3942 0.732177 15.4733
H 60.7789 -1.38722 13.1561
H 60.7142 -1.46913 15.3555
H 56.9416 5.13306 13.295
H 56.8627 5.06018 15.496
H 58.1929 2.98984 13.3359
H 58.0833 2.90277 15.572
H 54.5425 9.60469 13.3729
H 54.521 9.49481 15.582
H 55.7313 7.34871 13.3067
H 55.6694 7.24267 15.5457
H 23.866 15.76 13.996
H 23.929 15.693 16.186
H 26.526 15.709 13.87
H 26.587 15.663 16.053
H 29.148 15.668 13.765
H 29.203 15.634 15.951
H 31.758 15.634 13.684
H 31.806 15.607 15.871
H 34.361 15.605 13.626
H 34.399 15.581 15.813
H 36.96 15.58 13.59
H 36.988 15.554 15.778
H 39.556 15.561 13.578
H 39.576 15.528 15.766
H 42.153 15.545 13.591
H 42.161 15.502 15.779
H 44.754 15.533 13.633
H 44.753 15.472 15.819
H 47.339 15.527 13.704
H 47.331 15.441 15.886
H 6.53628 -19.0849 13.9778
H 6.55526 -19.0868 16.25
H 11.615 -27.8066 13.9845
H 11.7052 -27.7813 16.2486
H 10.4263 -25.5678 16.2285
H 10.3589 -25.5782 13.9599
H 9.13037 -23.4194 13.9566
H 9.17938 -23.4168 16.2365
H 7.88802 -21.258 16.2552
H 7.83465 -21.2449 13.9839
H 14.2141 -32.2046 13.9278
H 14.2723 -32.1913 16.1932
H 12.9835 -29.969 16.2248
H 12.9265 -30.0169 13.953
H 64.7017 -19.3507 12.8462
H 64.6192 -19.3512 15.1249
H 65.9775 -17.2297 15.1899
H 66.0722 -17.2012 12.9119
H 56.8548 -32.5529 12.8024
H 56.8724 -32.451 15.053
H 60.6644 -25.9064 14.9377
H 60.7161 -25.923 12.6657
H 62.0419 -23.7159 12.7197
H 61.9654 -23.722 14.9835
H 63.2853 -21.5451 15.0648
H 63.3776 -21.5235 12.7881
H 58.1432 -30.2653 14.9475
H 58.1289 -30.33 12.6792
H 59.3914 -28.1443 12.641
H 59.3829 -28.0999 14.9088
H 17.8801 -38.7831 13.6977
H 16.7169 -36.589 13.7985
H 16.7424 -36.6104 16.0511
H 15.5345 -34.4095 16.1576
H 15.4715 -34.4037 13.9046
H 17.881 -38.8139 15.9527
H 53.2045 -39.0054 15.4155
H 53.1295 -39.0974 13.169
H 54.3627 -36.8864 13.0566
H 54.4169 -36.7796 15.3198
H 55.6242 -34.6056 15.1737
H 55.5805 -34.7246 12.9089
H 26.372 -42.583 13.776
H 26.39 -42.606 15.892
H 28.979 -42.607 13.81
H 29.001 -42.614 15.928
H 31.58 -42.629 13.82
H 31.603 -42.625 15.939
H 34.177 -42.649 13.812
H 34.207 -42.638 15.93
H 36.775 -42.666 13.784
H 36.807 -42.652 15.904
H 39.374 -42.682 13.738
H 39.411 -42.668 15.856
H 41.978 -42.692 13.672
H 42.018 -42.684 15.79
H 44.59 -42.699 13.586
H 44.63 -42.703 15.7
H 47.222 -42.692 13.471
H 47.269 -42.72 15.582
H 53.3649 11.8814 13.5857
H 53.3318 11.7383 15.8013
H 17.8808 12.0018 13.9812
H 17.9544 11.9521 16.2355
H 50.139 15.515 13.766
H 50.106 15.37 16.106
H 52.155 14.054 15.835
H 23.753 -41.583 17.218
H 58.6228 -17.2849 16.1285
H 26.387 -41.56 17.273
H 13.8547 -19.2428 17.3379
H 12.5229 -17.0425 17.3988
H 29.005 -41.555 17.3
H 31.617 -41.559 17.307
H 16.3738 -19.2672 17.2504
H 15.1043 -17.0688 17.3087
H 36.834 -41.581 17.267
H 39.443 -41.597 17.221
H 21.3524 -19.4006 17.0966
H 20.2855 9.29814 17.3672
H 44.673 -41.643 17.07
H 17.6946 -34.6998 17.3335
H 47.314 -41.68 16.972
H 51.0029 -21.7069 15.9004
H 17.6422 -17.0646 17.2101
H 52.3443 -10.66 16.0457
H 51.0666 -8.46384 16.089
H 61.2095 -17.3048 16.221
H 54.8656 -10.7049 16.0786
H 53.5811 -8.5067 16.134
H 57.398 -10.7667 16.1352
H 56.1166 -8.57699 16.1702
H 40.8796 9.33032 16.8431
H 59.9239 -10.8033 16.2236
H 58.622 -8.62899 16.2418
H 35.6159 -35.0739 17.0286
H 36.8941 -37.2529 17.0889
H 22.8 9.38147 17.2929
H 51.272 -40.935 16.809
H 62.4932 -10.8008 16.3313
H 61.1549 -8.62759 16.3359
H 47.2245 -28.3006 16.2827
H 53.4737 -21.6662 15.9494
H 64.9674 -10.8026 16.519
H 63.6254 -8.64656 16.4784
H 8.95887 -6.21461 17.7433
H 11.3692 -6.11752 17.6456
H 10.2157 -3.96147 17.7598
H 34.225 -41.569 17.296
H 51.222 13.495 17.222
H 13.8996 -6.1003 17.6007
H 12.6712 -3.88139 17.6503
H 31.685 -37.1907 17.1553
H 52.296 -19.5025 15.9157
H 16.423 -6.08358 17.5333
H 15.2228 -3.88066 17.5699
H 54.7699 -19.4702 15.9814
H 18.9624 -6.07953 17.449
H 17.7469 -3.86751 17.476
H 39.4713 -37.2331 17.0526
H 25.3554 9.42516 17.203
H 57.3171 -19.4677 16.0836
H 21.4878 -6.08671 17.35
H 20.2786 -3.8742 17.3918
H 38.1977 -35.0704 16.978
H 21.4411 -28.1214 17.1738
H 18.8848 -19.2999 17.1408
H 56.0247 -21.6693 16.0441
H 59.8751 -19.5009 16.1763
H 23.9841 -6.07465 17.2757
H 22.8023 -3.8611 17.294
H 62.4302 -19.5364 16.2759
H 25.3488 -3.84749 17.223
H 11.3422 -23.6023 17.4203
H 63.7633 -17.3349 16.314
H 13.8742 -23.5901 17.3658
H 12.5999 -21.3964 17.3812
H 42.055 -41.616 17.155
H 16.4011 -23.6495 17.2676
H 40.7638 -35.0129 16.9039
H 58.5543 -21.7031 16.1269
H 20.0964 -17.1765 17.1704
H 17.6394 -21.4761 17.2037
H 22.6171 -21.58 17.0312
H 49.782 -6.30185 16.133
H 48.4603 -4.1187 16.1794
H 51.048 9.03727 16.7951
H 52.2964 -6.31735 16.1874
H 50.9761 -4.09655 16.2326
H 44.6547 -37.1814 16.9006
H 30.5053 9.44336 17.0406
H 54.8175 -6.37507 16.2356
H 53.5046 -4.14122 16.2928
H 43.3276 -34.9642 16.8222
H 54.7048 -28.252 16.1323
H 57.3093 -6.43908 16.3033
H 56.0203 -4.22715 16.3775
H 59.8609 -6.47942 16.384
H 58.5593 -4.26379 16.4557
H 62.3366 -6.4765 16.5082
H 61.0177 -4.31058 16.5601
H 15.1263 -21.4188 17.2882
H 11.5663 -1.7493 17.7685
H 42.044 -37.2057 16.9927
H 13.9965 -1.66544 17.607
H 12.9068 0.454 17.7312
H 16.5349 -1.66365 17.5151
H 15.3067 0.543953 17.5511
H 47.237 -37.135 16.8044
H 33.0881 9.44367 16.9789
H 19.0599 -1.65764 17.4091
H 17.8157 0.531742 17.442
H 45.8934 -34.9065 16.7165
H 57.2358 -28.279 16.1506
H 52.1844 -23.8498 15.9443
H 21.5931 -1.65605 17.3193
H 20.3723 0.544967 17.3412
H 12.5803 -25.7877 17.4198
H 54.706 -23.8486 16.0222
H 24.1449 -1.62537 17.2239
H 22.9247 0.581929 17.2414
H 18.8962 -23.6966 17.1668
H 57.2689 -23.9072 16.0823
H 26.6721 -1.59974 17.1311
H 25.4793 0.6237 17.132
H 59.7843 -23.9347 16.1579
H 28.0655 0.625965 17.0197
H 61.0929 -21.7451 16.2045
H 30.6632 0.830427 16.9228
H 49.6765 -28.2385 16.154
H 35.6875 9.40717 16.9178
H 33.2075 0.895178 16.7601
H 58.4997 -26.1146 16.1249
H 56.002 -30.4417 16.2084
H 35.7111 0.85206 16.6051
H 15.1485 -25.8337 17.3322
H 38.1671 0.774281 16.4893
H 33.0359 -35.0476 17.0646
H 21.3974 -23.7363 17.0462
H 40.6697 0.716811 16.4353
H 20.1557 -21.5106 17.0863
H 43.2128 0.604048 16.3893
H 47.135 -1.90768 16.2494
H 45.7836 0.347213 16.3149
H 38.2864 9.38113 16.8777
H 49.6656 -1.90463 16.2695
H 48.3428 0.323727 16.3167
H 50.984 -34.8126 16.5528
H 24.0012 -28.1476 17.0757
H 13.891 -27.997 17.4011
H 52.1765 -1.9244 16.324
H 50.8572 0.266679 16.3562
H 17.6619 -25.8551 17.2403
H 15.154 -30.2139 17.3964
H 54.7014 -1.9948 16.4236
H 53.3802 0.208535 16.4448
H 23.8638 -23.7684 16.9942
H 57.238 -2.05306 16.5128
H 55.9053 0.16225 16.5565
H 59.7341 -2.08892 16.6347
H 58.3793 0.0775832 16.7115
H 14.1504 2.68036 17.6408
H 16.5788 2.72155 17.4744
H 15.3741 4.85251 17.5714
H 10.0493 -21.4398 17.442
H 19.1201 2.72068 17.375
H 17.8414 4.88419 17.4273
H 53.5215 8.89986 16.8619
H 21.6811 2.75231 17.2718
H 20.3821 4.89736 17.3269
H 39.4654 -32.8508 16.8131
H 20.1522 -25.8933 17.154
H 24.2182 2.8003 17.1497
H 22.9292 4.95457 17.2119
H 48.4845 -26.0961 16.0857
H 22.5592 -39.3528 17.1715
H 26.7765 2.8406 17.0333
H 25.473 5.0064 17.0937
H 50.9294 -26.07 16.0092
H 29.3193 2.87169 16.9195
H 28.0305 5.03319 16.9812
H 53.4335 -26.0558 16.0467
H 31.8902 2.95927 16.7921
H 30.5683 5.08487 16.8893
H 55.9629 -26.0737 16.0883
H 44.6793 7.03697 16.6435
H 34.4485 2.97464 16.6559
H 33.1576 5.07818 16.7744
H 36.9586 2.94442 16.5512
H 35.7211 5.07932 16.6822
H 16.4369 -32.4393 17.3845
H 22.6789 -25.9288 17.0494
H 39.4632 2.86728 16.4833
H 38.2539 5.05008 16.6096
H 18.9765 -32.5024 17.3224
H 17.6906 -30.2587 17.3347
H 42.0142 2.76287 16.4272
H 40.7833 4.96826 16.5698
H 21.5458 -32.5815 17.2528
H 20.2375 -30.3105 17.2725
H 44.5638 2.6345 16.3855
H 43.356 4.87511 16.5149
H 24.1043 -32.6477 17.1726
H 22.7928 -30.3746 17.1921
H 47.0608 2.53331 16.3817
H 45.8772 4.77995 16.4831
H 26.6421 -32.6985 17.0981
H 25.3888 -30.4253 17.1011
H 27.9254 9.43631 17.1143
H 49.5858 2.4749 16.4123
H 48.3618 4.7051 16.4927
H 29.2034 -32.7498 17.0628
H 27.9442 -30.467 17.0313
H 52.0971 2.40971 16.4788
H 50.8869 4.64022 16.552
H 31.7904 -32.8519 17.0072
H 30.5776 -30.6111 16.9665
H 25.1245 -25.9908 17.0196
H 54.5855 2.35978 16.5855
H 53.3788 4.56417 16.6122
H 34.3448 -32.9045 16.9576
H 33.1198 -30.6972 16.8896
H 57.0232 2.24941 16.7789
H 55.8383 4.49609 16.7715
H 36.9162 -32.8996 16.8904
H 35.6408 -30.7389 16.8229
H 21.05 -41.62 17.112
H 16.6298 6.98641 17.5478
H 19.0993 7.06869 17.3974
H 17.8601 9.17295 17.5348
H 38.1783 -30.6973 16.7408
H 21.5956 7.12143 17.2881
H 5.79794 -14.7983 17.4282
H 4.49 -12.488 17.425
H 42.0219 -32.7861 16.7247
H 40.7107 -30.638 16.6394
H 52.1928 -28.2281 16.125
H 24.1236 7.18242 17.1929
H 8.51768 -14.8461 17.4649
H 7.16905 -12.6183 17.4576
H 44.5825 -32.7324 16.6202
H 43.269 -30.5977 16.534
H 26.7044 7.22371 17.0915
H 11.1576 -14.8575 17.4479
H 9.85072 -12.6817 17.4901
H 47.1219 -32.6672 16.5234
H 45.8238 -30.4887 16.4159
H 29.2467 7.24134 16.9961
H 13.7707 -14.8806 17.3799
H 12.4816 -12.7088 17.4605
H 49.6653 -32.6202 16.448
H 48.3899 -30.4367 16.3398
H 31.8107 7.23922 16.9193
H 16.3311 -14.9132 17.3021
H 15.0533 -12.7217 17.3969
H 52.2118 -32.5933 16.3983
H 50.9314 -30.404 16.2779
H 34.4201 7.22876 16.8241
H 18.9018 -14.9118 17.2212
H 17.5959 -12.7279 17.3266
H 54.7623 -32.595 16.3292
H 53.4746 -30.409 16.2408
H 20.2445 -34.7787 17.2791
H 36.9979 7.21543 16.7528
H 20.1224 -12.697 17.261
H 39.5611 7.17215 16.7171
H 21.428 -37.0706 17.2099
H 26.4528 -28.2379 17.0671
H 42.1272 7.10056 16.6816
H 43.4455 9.26879 16.8181
H 47.2039 6.94803 16.6216
H 46.0012 9.21584 16.7962
H 34.2695 -37.2275 17.1294
H 49.7153 6.8933 16.6414
H 48.5241 9.1314 16.7871
H 18.8953 -36.9419 17.247
H 54.6223 6.64921 16.8012
H 52.2093 6.81367 16.6773
H 30.4463 -34.9896 17.1097
H 22.685 13.87 17.51
H 23.9764 -37.1227 17.1891
H 19.0027 11.4081 17.5269
H 22.8024 -34.8419 17.2102
H 25.3255 -34.9011 17.1566
H 24.0214 11.6334 17.3237
H 29.0965 -37.1566 17.1686
H 25.296 13.9 17.382
H 21.4512 11.5784 17.3954
H 27.916 13.876 17.281
H 21.233 14.592 17.639
H 54.8109 -15.0582 16.0101
H 53.6109 -12.8457 16.0052
H 31.8173 11.63 17.0899
H 30.52 13.853 17.198
H 57.3863 -15.0893 16.0836
H 56.1273 -12.8874 16.0609
H 34.3975 11.6143 17.029
H 33.111 13.827 17.133
H 59.94 -15.0997 16.1689
H 58.6724 -12.9461 16.1257
H 36.991 11.5822 16.994
H 35.697 13.801 17.086
H 18.9308 -28.053 17.2495
H 62.526 -15.1311 16.2776
H 61.2236 -12.9404 16.2255
H 39.5834 11.5485 16.9665
H 38.278 13.772 17.06
H 65.1685 -15.206 16.429
H 63.827 -12.9617 16.3734
H 42.17 11.5053 16.9535
H 40.857 13.741 17.053
H 53.6317 -17.3536 15.9838
H 66.641 -12.99 16.562
H 44.7584 11.4463 16.9521
H 43.44 13.706 17.068
H 26.5236 -37.1239 17.1616
H 49.7651 -37.0742 16.6877
H 48.4422 -34.8543 16.6333
H 47.3167 11.3875 16.9545
H 46.026 13.663 17.102
H 6.11834 -10.4898 17.5325
H 52.3159 -37.0019 16.6125
H 49.8466 11.291 16.9692
H 48.627 13.621 17.157
H 8.63912 -10.511 17.5193
H 7.56882 -8.38922 17.654
H 52.321 11.1001 17.0541
H 53.5275 -34.7691 16.4731
H 11.2286 -10.5327 17.5298
H 10.0298 -8.34569 17.6059
H 16.405 -28.0157 17.3193
H 27.8545 -34.9412 17.127
H 19.9956 -39.273 17.1623
H 8.70951 -19.2477 17.4725
H 13.7989 -10.5452 17.497
H 12.5718 -8.34337 17.58
H 26.621 11.6562 17.23
H 7.30015 -17.0523 17.4677
H 25.1436 -39.3402 17.1908
H 16.3602 -10.5359 17.4276
H 15.1116 -8.33893 17.538
H 27.7374 -39.3471 17.2089
H 30.3487 -39.3534 17.2117
H 56.0705 -17.2604 16.034
H 18.9029 -10.5118 17.3651
H 17.6541 -8.31761 17.4677
H 32.9381 -39.3735 17.2047
H 35.5593 -39.3943 17.1836
H 21.4199 -10.5152 17.2877
H 20.1902 -8.32107 17.3711
H 38.1564 -39.3962 17.1408
H 40.7506 -39.4116 17.0964
H 22.7014 -8.31524 17.2978
H 43.368 -39.4062 17.0177
H 45.9843 -39.414 16.9299
H 48.5789 -39.4049 16.834
H 49.7511 -23.905 15.96
H 51.1249 -39.1213 16.7828
H 29.2197 11.6438 17.1537
H 11.2885 -19.2204 17.4254
H 9.90574 -17.0176 17.446
H 5.85798 -14.8096 12.713
H 4.435 -12.485 12.628
H 8.5329 -14.8315 12.7339
H 7.25937 -12.605 12.7257
H 11.0977 -14.8242 12.7174
H 9.83995 -12.6301 12.7488
H 13.6472 -14.8258 12.6547
H 12.3975 -12.6234 12.7193
H 16.1841 -14.8199 12.5619
H 14.9311 -12.612 12.6568
H 18.7613 -14.7845 12.4793
H 17.4641 -12.5824 12.59
H 19.9827 -12.562 12.5219
H 54.9476 -15.0313 11.2729
H 53.7074 -12.7478 11.2584
H 57.538 -15.0783 11.3443
H 56.2599 -12.8358 11.3224
H 60.1299 -15.0957 11.4297
H 58.8413 -12.8948 11.4042
H 62.7596 -15.0937 11.5615
H 61.4322 -12.8994 11.5093
H 65.3882 -15.1379 11.6948
H 64.077 -12.9142 11.6476
H 66.674 -12.982 11.761
H 6.22558 -10.3716 12.6733
H 8.68301 -10.3992 12.7987
H 7.58578 -8.19716 12.8105
H 11.1868 -10.4145 12.7946
H 9.99107 -8.19541 12.8845
H 13.7085 -10.4079 12.7559
H 12.4903 -8.22125 12.8527
H 16.2211 -10.3859 12.7046
H 14.9943 -8.22054 12.8043
H 18.7455 -10.3786 12.6229
H 17.5013 -8.21791 12.7254
H 21.2761 -10.3909 12.5485
H 20.0237 -8.22426 12.6462
H 22.5584 -8.23653 12.5556
H 52.4255 -10.5223 11.3136
H 51.1708 -8.30661 11.3592
H 54.9589 -10.5881 11.3386
H 53.6861 -8.34573 11.3949
H 57.546 -10.6524 11.4009
H 56.2387 -8.40012 11.4439
H 60.1082 -10.6924 11.4933
H 58.7661 -8.45188 11.5052
H 62.6926 -10.7101 11.6116
H 61.3115 -8.49721 11.6026
H 65.2027 -10.7654 11.6555
H 63.7726 -8.54435 11.64
H 8.80888 -6.03486 12.9091
H 11.2818 -6.0386 12.9215
H 10.1125 -3.8949 12.91
H 13.774 -6.0557 12.8677
H 12.5435 -3.8559 12.9211
H 16.2716 -6.05272 12.8007
H 15.0598 -3.87574 12.8366
H 18.7875 -6.05922 12.7008
H 17.5728 -3.87599 12.7529
H 21.3205 -6.07001 12.6135
H 20.1003 -3.88092 12.6437
H 23.8716 -6.07055 12.5335
H 22.6541 -3.8861 12.5561
H 25.1896 -3.89897 12.4875
H 49.8825 -6.12351 11.4061
H 48.5148 -3.97197 11.4584
H 52.4088 -6.14152 11.4481
H 51.0948 -3.93379 11.4923
H 54.9412 -6.16082 11.5093
H 53.652 -3.95447 11.5624
H 57.4645 -6.21818 11.58
H 56.1795 -4.00891 11.6415
H 59.9642 -6.25279 11.6391
H 58.6813 -4.03761 11.7423
H 62.4155 -6.33275 11.6674
H 61.1559 -4.0951 11.7613
H 11.4073 -1.7263 12.8843
H 13.8176 -1.66418 12.8845
H 12.675 0.469587 12.8606
H 16.3444 -1.6794 12.7786
H 15.107 0.512307 12.822
H 18.8786 -1.69091 12.6809
H 17.6388 0.509195 12.711
H 21.424 -1.69368 12.5832
H 20.1921 0.512284 12.6129
H 23.972 -1.68707 12.4973
H 22.7201 0.510049 12.5132
H 26.4907 -1.68618 12.4048
H 25.2729 0.533205 12.3969
H 27.85 0.528231 12.2829
H 30.4052 0.828214 12.0694
H 32.9638 0.928129 11.925
H 35.4933 0.968899 11.7849
H 38.0501 0.998151 11.677
H 40.5844 0.903344 11.6157
H 43.1635 0.773193 11.5587
H 47.1594 -1.75931 11.5245
H 45.7636 0.467324 11.5762
H 49.7327 -1.73904 11.5354
H 48.388 0.463818 11.5886
H 52.3351 -1.75998 11.6092
H 50.9875 0.460628 11.6298
H 54.8877 -1.79421 11.6934
H 53.5683 0.381888 11.721
H 57.3842 -1.83787 11.7987
H 56.1067 0.368146 11.8468
H 59.8463 -1.89461 11.797
H 58.5755 0.320466 11.8935
H 13.9849 2.61987 12.7751
H 16.4075 2.70138 12.7444
H 15.2257 4.84135 12.7276
H 18.9311 2.70747 12.6494
H 17.6721 4.89536 12.7049
H 21.4673 2.70996 12.5358
H 20.1907 4.92256 12.5977
H 24.0167 2.75985 12.4179
H 22.7262 4.98682 12.4704
H 26.5714 2.81125 12.3081
H 25.2817 5.04689 12.3595
H 29.1139 2.86255 12.1945
H 27.8464 5.09268 12.2662
H 31.6599 2.99644 12.0687
H 30.3821 5.16975 12.1677
H 34.2483 3.05741 11.9415
H 32.9668 5.2106 12.0557
H 36.8191 3.08845 11.8295
H 35.5796 5.28206 11.9503
H 39.382 3.05176 11.7635
H 38.1555 5.29039 11.8813
H 41.9302 2.95462 11.7164
H 40.7143 5.21117 11.8413
H 44.5122 2.81965 11.6633
H 43.2871 5.15197 11.7961
H 47.0934 2.72592 11.6509
H 45.8399 5.03485 11.762
H 49.6758 2.68756 11.6795
H 48.426 4.94152 11.7644
H 52.2416 2.62238 11.7564
H 50.9744 4.87225 11.8193
H 54.8042 2.55275 11.8762
H 53.5275 4.76721 11.9053
H 57.2845 2.4876 11.952
H 56.001 4.61124 11.9378
H 16.4958 6.99947 12.6859
H 18.9137 7.11986 12.6706
H 17.6419 9.24591 12.6866
H 21.4067 7.19271 12.564
H 20.1152 9.37984 12.6433
H 23.9624 7.27632 12.4519
H 22.6535 9.47698 12.552
H 26.5135 7.32477 12.3656
H 25.2088 9.54906 12.4732
H 29.0983 7.37472 12.2719
H 27.7827 9.57021 12.3843
H 31.6686 7.41203 12.1807
H 30.3862 9.59316 12.3197
H 34.284 7.4525 12.0893
H 32.9933 9.63312 12.2429
H 36.8914 7.48278 12.0279
H 35.5941 9.64793 12.1995
H 39.5085 7.4471 11.9818
H 38.227 9.6392 12.1425
H 42.0767 7.39932 11.9561
H 40.8312 9.6009 12.1098
H 44.6335 7.34334 11.9188
H 43.4088 9.56483 12.0892
H 47.1984 7.2658 11.8919
H 45.9969 9.54225 12.0666
H 49.7415 7.15365 11.912
H 48.547 9.47246 12.0547
H 52.293 7.03771 11.9602
H 51.0858 9.35672 12.0667
H 54.7532 6.85935 11.9519
H 53.5256 9.16362 12.0456
H 18.8619 11.4792 12.6418
H 21.3268 11.7153 12.6342
H 23.8562 11.7834 12.583
H 22.512 14.056 12.681
H 26.4648 11.7877 12.4928
H 25.145 14.029 12.574
H 29.0764 11.7735 12.4116
H 27.782 13.971 12.469
H 31.7097 11.7695 12.3894
H 30.404 13.928 12.384
H 34.3041 11.7697 12.3283
H 33.017 13.893 12.317
H 36.9243 11.7306 12.2865
H 35.626 13.867 12.27
H 39.5655 11.7237 12.2553
H 38.231 13.847 12.243
H 42.1823 11.7175 12.2313
H 40.836 13.835 12.236
H 44.7517 11.7162 12.2055
H 43.442 13.83 12.252
H 47.3571 11.7127 12.229
H 46.055 13.834 12.292
H 49.9106 11.6518 12.2537
H 48.683 13.86 12.363
H 52.3753 11.4923 12.2103
H 8.66803 -19.2523 12.7435
H 7.28801 -17.0725 12.7293
H 11.1777 -19.2035 12.6963
H 9.86414 -17.0271 12.7263
H 13.6948 -19.211 12.6152
H 12.4064 -17.0149 12.6666
H 16.1901 -19.2418 12.5201
H 14.933 -17.0358 12.5803
H 18.6921 -19.286 12.4288
H 17.4603 -17.0189 12.4815
H 21.1304 -19.4003 12.2575
H 19.9134 -17.1309 12.327
H 52.5487 -19.5799 11.0951
H 54.9935 -19.49 11.2705
H 53.7984 -17.3452 11.1701
H 57.4752 -19.4577 11.3558
H 56.2315 -17.2476 11.3215
H 60.0417 -19.4792 11.4318
H 58.7918 -17.2761 11.3992
H 62.5971 -19.5145 11.5217
H 61.3837 -17.3083 11.4784
H 63.992 -17.331 11.5874
H 11.2421 -23.6372 12.6858
H 9.94045 -21.4438 12.7125
H 13.7263 -23.6493 12.6314
H 12.459 -21.4323 12.643
H 16.2079 -23.6843 12.5351
H 14.9575 -21.452 12.5707
H 18.6959 -23.7448 12.4317
H 17.4433 -21.4999 12.4697
H 21.1889 -23.8108 12.3324
H 19.9418 -21.5435 12.3717
H 23.645 -23.9018 12.1686
H 22.3603 -21.6587 12.1898
H 49.8321 -24.1199 11.1465
H 52.3057 -24.0137 11.237
H 51.2588 -21.8938 11.0702
H 54.836 -23.9448 11.2887
H 53.6607 -21.7379 11.2329
H 57.3787 -23.9317 11.3449
H 56.1792 -21.6974 11.3097
H 59.9454 -23.9342 11.4135
H 58.7152 -21.6775 11.3714
H 61.2752 -21.7253 11.4712
H 13.7019 -28.0606 12.6731
H 12.4619 -25.86 12.6859
H 16.2449 -28.0903 12.5839
H 14.9614 -25.8743 12.6011
H 18.7843 -28.1701 12.5163
H 17.4914 -25.9241 12.5106
H 21.2818 -28.2442 12.4415
H 19.9715 -25.9977 12.421
H 23.8507 -28.2957 12.3595
H 22.499 -26.0636 12.3315
H 26.3267 -28.3556 12.2128
H 24.9605 -26.1535 12.1934
H 47.1628 -28.6348 11.4258
H 49.6164 -28.5348 11.4404
H 48.4884 -26.3852 11.2666
H 52.1707 -28.4694 11.3907
H 50.966 -26.2914 11.3052
H 54.7434 -28.4348 11.3866
H 53.5103 -26.2001 11.3036
H 57.2608 -28.3876 11.394
H 56.053 -26.1774 11.3596
H 58.6015 -26.1529 11.3853
H 16.3171 -32.4434 12.6325
H 15.019 -30.2512 12.6589
H 18.8792 -32.5099 12.5862
H 17.5675 -30.3057 12.5893
H 21.4154 -32.5949 12.5296
H 20.1082 -30.3956 12.5374
H 23.9611 -32.6709 12.4412
H 22.6361 -30.4592 12.458
H 26.5371 -32.7467 12.3762
H 25.236 -30.5104 12.3674
H 29.112 -32.8679 12.3438
H 27.8418 -30.5739 12.3049
H 31.6721 -33.0079 12.2818
H 30.4436 -30.7536 12.2411
H 34.2329 -33.0896 12.2234
H 32.9826 -30.8896 12.1638
H 36.7704 -33.1272 12.1642
H 35.5052 -30.9536 12.0896
H 39.3157 -33.1192 12.0982
H 38.009 -30.9189 12.0162
H 41.8537 -33.0901 12.0082
H 40.5277 -30.9128 11.9287
H 44.4078 -33.0552 11.9
H 43.0867 -30.8795 11.8122
H 46.9745 -32.9659 11.8018
H 45.6685 -30.777 11.6994
H 49.5747 -32.9107 11.7288
H 48.269 -30.7504 11.621
H 52.1206 -32.8557 11.6512
H 50.8567 -30.6803 11.5491
H 54.6955 -32.8261 11.6013
H 53.4287 -30.6676 11.507
H 55.9761 -30.6321 11.4831
H 18.8272 -36.8254 12.5053
H 17.5872 -34.6057 12.5922
H 21.367 -36.972 12.4809
H 20.1302 -34.7197 12.5446
H 23.9076 -37.1142 12.4535
H 22.6779 -34.8422 12.4785
H 26.4741 -37.1789 12.431
H 25.243 -34.9417 12.4176
H 29.0861 -37.249 12.4196
H 27.8335 -34.9996 12.3925
H 31.6408 -37.2894 12.4114
H 30.375 -35.1037 12.3763
H 34.2126 -37.3606 12.374
H 32.9407 -35.2091 12.335
H 36.7941 -37.3986 12.353
H 35.5204 -35.2592 12.2859
H 39.3442 -37.4277 12.3178
H 38.0815 -35.2708 12.2317
H 41.9256 -37.3751 12.2462
H 40.6326 -35.2647 12.1735
H 44.4949 -37.3988 12.1706
H 43.1661 -35.2521 12.0911
H 47.0771 -37.3329 12.0999
H 45.7302 -35.2202 12.0026
H 49.6312 -37.2426 11.9862
H 48.3186 -35.1275 11.9167
H 52.2103 -37.1852 11.8852
H 50.8522 -35.0456 11.836
H 53.4 -35.0073 11.7509
H 19.9831 -39.1032 12.4238
H 22.5689 -39.269 12.4479
H 25.1372 -39.3422 12.4691
H 27.727 -39.3943 12.4607
H 30.3132 -39.4186 12.4871
H 32.8937 -39.448 12.4876
H 35.4731 -39.5001 12.423
H 38.0656 -39.5174 12.4023
H 40.6619 -39.5265 12.3362
H 43.2036 -39.5257 12.3041
H 45.8057 -39.5054 12.1872
H 48.4117 -39.4987 12.082
H 50.9575 -39.0978 11.8877
H 23.778 -41.473 12.369
H 26.388 -41.512 12.413
H 28.986 -41.547 12.437
H 31.58 -41.575 12.443
H 34.169 -41.599 12.431
H 36.76 -41.619 12.403
H 39.351 -41.632 12.358
H 41.947 -41.641 12.294
H 44.55 -41.642 12.213
H 47.174 -41.626 12.099
H 21.12 -41.42 12.315
H 51.094 -40.793 11.944
H 51.294 13.772 12.42
H 21.049 14.815 12.788
H 20.9774 -16.6506 13.6173
H 21.0515 -16.6551 15.817
H 22.1876 -18.8521 13.526
H 22.2788 -18.8431 15.7406
H 52.7383 -16.8161 12.4483
H 52.649 -16.8179 14.6525
H 51.4865 -18.9644 12.3271
H 51.3778 -18.936 14.5493
H 23.408 -21.066 13.4376
H 23.5207 -21.0435 15.6591
H 24.6921 -23.2988 13.401
H 24.7863 -23.2545 15.6285
H 50.1641 -21.2278 12.2739
H 50.0713 -21.1561 14.5235
H 48.8033 -23.4896 12.4118
H 48.7716 -23.3932 14.624
H 25.9932 -25.522 13.4377
H 26.0638 -25.4487 15.6582
H 29.3078 -28.9104 13.4599
H 29.3483 -28.8694 15.7428
H 27.3298 -27.704 13.4835
H 27.3977 -27.6489 15.7159
H 31.8431 -29.0499 13.3803
H 31.8761 -28.9749 15.6416
H 34.3162 -29.1436 13.2847
H 34.3741 -29.037 15.5422
H 36.7764 -29.1429 13.2102
H 36.833 -29.0427 15.4707
H 39.2863 -29.1157 13.1096
H 39.3632 -28.9913 15.3676
H 41.8367 -29.0919 12.9895
H 41.9062 -28.9621 15.2659
H 44.3213 -29.0373 12.8785
H 44.3887 -28.9045 15.1528
H 47.4938 -25.7232 12.524
H 47.4944 -25.6013 14.7538
H 46.2058 -27.9235 12.6836
H 46.2456 -27.7696 14.948
H 33.1391 -0.236507 15.4496
H 35.5713 -0.187133 13.0662
H 35.6481 -0.244954 15.2743
H 20.929 -14.5019 13.6676
H 21.0085 -14.5542 15.9343
H 22.2254 -12.446 15.9616
H 22.1543 -12.4026 13.7149
H 52.7679 -14.6771 12.4557
H 52.7001 -14.7097 14.7093
H 51.4966 -12.587 14.7281
H 51.5519 -12.5369 12.4758
H 24.8083 -8.03858 16.0091
H 24.7398 -8.05046 13.7481
H 50.2701 -10.3161 12.5302
H 50.2266 -10.3946 14.7752
H 48.9628 -8.21031 14.8023
H 49.0098 -8.12425 12.5642
H 26.0461 -5.87312 13.7206
H 26.106 -5.85865 15.9964
H 27.4402 -3.62655 15.9133
H 27.3646 -3.65344 13.647
H 47.7245 -6.00787 12.5971
H 47.6699 -6.06588 14.8672
H 46.3349 -3.85517 14.9572
H 46.3597 -3.81311 12.6868
H 28.6654 -1.46922 13.552
H 28.7526 -1.43289 15.7956
H 30.5654 -0.303665 13.3893
H 30.668 -0.300024 15.6114
H 33.0602 -0.218623 13.2234
H 38.1025 -0.289187 15.1294
H 40.5659 -0.268148 12.8922
H 40.5915 -0.361762 15.0881
H 45.0149 -1.61687 12.7495
H 45.0025 -1.65828 15.0317
H 43.0622 -0.400772 12.8356
H 43.0988 -0.484524 15.0492
H 38.0634 -0.194022 12.9344
H 23.4612 -10.2396 13.736
H 23.526 -10.2648 16.0035
C -78.0657 -11.8764 15.015
C -78.0158 -11.8562 16.5904
C -78.1203 -14.8324 14.5368
C -78.0269 -14.8549 17.0689
C -79.429 -12.547 17.229
C -79.47 -14.05 15.119
C -79.45 -14.051 16.702
C -79.458 -12.545 14.596
C -75.4168 -11.9617 14.8717
C -75.3741 -11.9271 16.4136
C -75.4731 -14.8796 14.4079
C -75.3929 -14.8775 16.956
C -76.6768 -12.6364 17.0004
C -76.7761 -14.1258 14.9689
C -76.7267 -14.1204 16.5177
C -76.7735 -12.6592 14.4567
C -72.822 -11.9765 14.7909
C -72.8049 -11.9487 16.3468
C -72.8513 -14.8943 14.3231
C -72.8126 -14.8804 16.8773
C -74.0896 -12.6687 16.8925
C -74.1453 -14.1657 14.8495
C -74.1088 -14.1437 16.4067
C -74.15 -12.7091 14.333
C -70.2604 -11.9756 14.7879
C -70.2603 -11.9556 16.3367
C -70.2676 -14.9001 14.3095
C -70.2669 -14.8928 16.8613
C -71.5326 -12.6826 16.854
C -71.5526 -14.1671 14.8049
C -71.5427 -14.151 16.3562
C -71.5458 -12.7108 14.2843
C -67.7194 -11.9658 14.7954
C -67.7309 -11.9546 16.3407
C -67.7174 -14.9036 14.3045
C -67.7224 -14.9037 16.8714
C -68.9978 -12.689 16.8536
C -68.991 -14.1711 14.8118
C -68.9944 -14.1647 16.3597
C -68.9885 -12.7118 14.2922
C -65.1975 -11.9438 14.8165
C -65.214 -11.9355 16.3666
C -65.1608 -14.8888 14.3183
C -65.1685 -14.8956 16.8812
C -66.4732 -12.6868 16.8644
C -66.447 -14.1703 14.8158
C -66.4554 -14.1662 16.3726
C -66.4514 -12.6983 14.3054
C -62.6769 -11.9403 14.8533
C -62.7008 -11.9303 16.3972
C -63.9676 -12.6551 16.8974
C -63.9327 -14.1133 14.8492
C -63.9391 -14.1066 16.3849
C -63.9374 -12.666 14.3288
C -31.4804 -12.0834 14.5577
C -31.5174 -12.074 16.1058
C -28.9683 -12.1272 14.596
C -28.9684 -12.1366 16.1533
C -29.0772 -15.0723 14.1274
C -28.9935 -15.0761 16.6803
C -30.2623 -12.8198 16.666
C -30.2832 -14.2702 14.6317
C -30.2567 -14.2822 16.1773
C -30.2318 -12.8368 14.0879
C -26.4402 -12.1883 14.5712
C -26.4107 -12.2253 16.1166
C -26.525 -15.0776 14.0047
C -26.4105 -15.1503 16.5617
C -27.6863 -12.9195 16.6443
C -27.7637 -14.3581 14.5811
C -27.7096 -14.3815 16.1317
C -27.7303 -12.8908 14.0869
C -23.8869 -12.2115 14.4979
C -23.8479 -12.2747 16.0453
C -23.9526 -15.0862 13.8756
C -23.8421 -15.2032 16.4331
C -25.1194 -12.993 16.5578
C -25.2076 -14.3817 14.4697
C -25.1426 -14.4341 16.0143
C -25.188 -12.9097 14.0107
C -21.2852 -12.2277 14.4296
C -21.2541 -12.2942 15.977
C -21.3247 -15.0889 13.7789
C -21.2555 -15.2407 16.3266
C -22.5431 -13.0343 16.479
C -22.6167 -14.3998 14.3658
C -22.56 -14.4752 15.9154
C -22.6106 -12.9181 13.9337
C -18.6047 -12.2408 14.3214
C -18.5882 -12.2895 15.8897
C -18.6551 -15.1774 13.7251
C -18.6316 -15.2896 16.2803
C -19.9123 -13.0465 16.3955
C -19.9615 -14.4299 14.2882
C -19.9362 -14.498 15.8385
C -19.9643 -12.9391 13.8507
C -17.248 -13.049 16.366
C -17.254 -14.545 14.251
C -17.263 -14.547 15.835
C -17.231 -13.045 13.729
C -77.905 -10.4482 14.3676
C -77.8138 -10.3707 17.0481
C -75.2226 -7.56728 14.6779
C -75.2124 -7.51919 16.2326
C -75.3451 -10.5129 14.3238
C -75.2918 -10.4378 16.861
C -76.4609 -8.21656 16.8334
C -76.5971 -9.7368 14.8268
C -76.5625 -9.68423 16.3768
C -76.4782 -8.3272 14.1746
C -72.6799 -7.57685 14.6742
C -72.689 -7.53587 16.2184
C -72.7703 -10.5265 14.2531
C -72.755 -10.4714 16.8235
C -73.9545 -8.25661 16.751
C -74.0229 -9.77746 14.7569
C -74.0018 -9.73772 16.3068
C -73.96 -8.33229 14.2008
C -70.1645 -7.5664 14.6998
C -70.1834 -7.53508 16.2484
C -70.2188 -10.5217 14.2578
C -70.2305 -10.479 16.8196
C -71.4492 -8.2627 16.7544
C -71.479 -9.77952 14.7394
C -71.4788 -9.7463 16.2918
C -71.4316 -8.3263 14.2017
C -67.6495 -7.55875 14.7467
C -67.6736 -7.54218 16.2948
C -67.6874 -10.5026 14.276
C -67.7111 -10.4799 16.8295
C -68.9416 -8.27476 16.7892
C -68.9485 -9.77223 14.761
C -68.9615 -9.75575 16.3056
C -68.9085 -8.31512 14.233
C -65.1289 -7.54718 14.791
C -65.1499 -7.54369 16.3439
C -65.163 -10.4878 14.3008
C -65.1951 -10.4662 16.8642
C -66.4279 -8.26784 16.8292
C -66.4218 -9.75048 14.7875
C -66.4412 -9.7396 16.3349
C -66.3886 -8.2892 14.2651
C -62.6118 -7.56763 14.8241
C -62.6218 -7.56042 16.3699
C -62.6325 -10.4939 14.3296
C -62.6607 -10.4748 16.8949
C -63.8977 -8.27618 16.8683
C -63.898 -9.75066 14.8205
C -63.915 -9.74251 16.37
C -63.8751 -8.29314 14.3094
C -60.1004 -7.56053 14.8213
C -60.1045 -7.5573 16.3621
C -61.3604 -8.29084 16.8827
C -61.3676 -9.76516 14.845
C -61.3829 -9.75931 16.3904
C -61.3574 -8.30736 14.3219
C -33.9559 -7.68299 14.2621
C -34.067 -7.68357 15.8007
C -31.4664 -7.70455 14.4566
C -31.5561 -7.70286 16.0028
C -31.4553 -10.6408 14.0039
C -31.556 -10.6085 16.5703
C -32.8527 -8.4004 16.4269
C -32.7182 -9.87229 14.4224
C -32.7961 -9.86052 15.9665
C -32.6795 -8.43503 13.8733
C -28.9598 -7.75626 14.5959
C -29.015 -7.76882 16.147
C -28.9507 -10.6746 14.0813
C -28.9971 -10.6772 16.6519
C -30.3152 -8.45484 16.5949
C -30.2103 -9.91745 14.5499
C -30.2571 -9.91347 16.1054
C -30.1917 -8.46216 14.0342
C -26.4498 -7.80933 14.676
C -26.4767 -7.84581 16.2189
C -26.4425 -10.718 14.0966
C -26.4273 -10.7747 16.6548
C -27.7548 -8.54293 16.6845
C -27.6973 -9.97602 14.61
C -27.712 -9.99949 16.1611
C -27.693 -8.50622 14.133
C -23.9369 -7.83962 14.6958
C -23.9425 -7.90221 16.241
C -23.9057 -10.7381 14.0542
C -23.8632 -10.8415 16.6118
C -25.205 -8.62395 16.7187
C -25.1693 -10.0164 14.6068
C -25.1556 -10.0643 16.1577
C -25.1907 -8.53451 14.158
C -21.4025 -7.82524 14.673
C -21.3897 -7.9049 16.2275
C -21.3386 -10.7397 13.9986
C -21.2894 -10.8575 16.5501
C -22.6537 -8.66902 16.6973
C -22.623 -10.0416 14.5741
C -22.5969 -10.1091 16.1164
C -22.6687 -8.54901 14.1475
C -18.7696 -10.7403 13.8467
C -18.7264 -10.8522 16.5518
C -20.1177 -8.66768 16.7103
C -20.0422 -10.022 14.4971
C -20.0114 -10.0956 16.0634
C -20.1565 -8.53249 14.0446
C -75.1502 -6.1483 14.0638
C -75.1532 -6.06303 16.732
C -72.6491 -3.14359 14.5472
C -72.6773 -3.11064 16.0999
C -72.6401 -6.11758 14.1332
C -72.6707 -6.04969 16.6777
C -73.9106 -3.86648 16.6559
C -73.9211 -5.36654 14.5933
C -73.9325 -5.32344 16.1461
C -73.8644 -3.93959 13.9767
C -70.0962 -3.14548 14.6286
C -70.1299 -3.1214 16.1787
C -70.1242 -6.10442 14.1667
C -70.1684 -6.05327 16.7213
C -71.4114 -3.84407 16.6503
C -71.382 -5.35518 14.6363
C -71.4062 -5.32037 16.1769
C -71.3552 -3.89777 14.108
C -67.5652 -3.1409 14.692
C -67.5991 -3.12887 16.2406
C -67.6153 -6.09454 14.2209
C -67.6606 -6.06357 16.7785
C -68.8839 -3.85362 16.7199
C -68.8671 -5.34945 14.688
C -68.8981 -5.33102 16.2329
C -68.8281 -3.88194 14.1612
C -65.034 -3.16041 14.7586
C -65.0584 -3.14824 16.3096
C -65.0923 -6.08727 14.274
C -65.1322 -6.07252 16.8442
C -66.3554 -3.86386 16.7911
C -66.354 -5.3515 14.7524
C -66.3761 -5.33642 16.3021
C -66.3052 -3.88724 14.2353
C -62.5078 -3.16788 14.7979
C -62.5203 -3.15942 16.3462
C -62.5679 -6.10538 14.3103
C -62.5912 -6.0932 16.873
C -63.8089 -3.88353 16.8473
C -63.8218 -5.35977 14.798
C -63.8421 -5.35471 16.35
C -63.7724 -3.90354 14.279
C -59.9747 -3.16572 14.8141
C -59.9813 -3.16273 16.3625
C -60.0608 -6.10288 14.3027
C -60.0629 -6.10046 16.8758
C -61.268 -3.89686 16.861
C -61.3041 -5.36464 14.8155
C -61.3135 -5.36445 16.3646
C -61.2502 -3.9046 14.3075
C -57.4534 -3.15393 14.8033
C -57.4477 -3.15638 16.3477
C -58.7266 -3.90144 16.8682
C -58.7828 -5.37382 14.8114
C -58.7882 -5.37155 16.3636
C -58.7253 -3.90782 14.3001
C -36.6142 -3.32633 14.0976
C -36.7142 -3.37059 15.6394
C -34.087 -3.30742 14.2485
C -34.1884 -3.34462 15.8036
C -33.954 -6.23623 13.7354
C -34.1347 -6.24079 16.2918
C -35.4678 -4.09713 16.2098
C -35.2608 -5.5244 14.1499
C -35.3689 -5.53893 15.6913
C -35.3002 -4.0491 13.6549
C -31.5426 -3.3345 14.4326
C -31.6439 -3.37099 15.9837
C -31.4482 -6.25216 13.9247
C -31.6166 -6.25114 16.4874
C -32.9391 -4.07673 16.3828
C -32.7512 -5.50079 14.3273
C -32.8528 -5.51807 15.8741
C -32.7665 -4.0332 13.8236
C -29.011 -3.37498 14.6231
C -29.104 -3.41238 16.1664
C -28.9475 -6.29236 14.096
C -29.0811 -6.31509 16.6496
C -30.4013 -4.11306 16.5723
C -30.2321 -5.53954 14.5138
C -30.325 -5.55687 16.0666
C -30.2325 -4.07548 14.0178
C -26.5076 -3.42227 14.7789
C -26.5791 -3.46897 16.328
C -26.4611 -6.33502 14.2067
C -26.5473 -6.39723 16.7581
C -27.8649 -4.17628 16.745
C -27.7249 -5.59313 14.6749
C -27.7897 -5.62532 16.2125
C -27.7277 -4.12195 14.1902
C -23.9943 -3.42661 14.8917
C -24.0437 -3.48491 16.4384
C -23.9583 -6.34974 14.2663
C -24.0017 -6.4612 16.8089
C -25.3265 -4.23481 16.8656
C -25.2259 -5.63262 14.7717
C -25.2644 -5.68473 16.3163
C -25.2279 -4.14829 14.316
C -21.4717 -6.35001 14.2097
C -21.4808 -6.48939 16.8826
C -22.8194 -4.27865 16.9851
C -22.7067 -5.62983 14.8148
C -22.7243 -5.70328 16.3651
C -22.7482 -4.15752 14.3523
C -72.5536 -1.7079 13.9457
C -72.6463 -1.65746 16.6498
C -70.0209 1.26902 14.553
C -70.0752 1.28836 16.111
C -70.0555 -1.67608 14.1128
C -70.126 -1.64366 16.661
C -71.3342 0.550297 16.6538
C -71.3439 -0.925492 14.551
C -71.3933 -0.900108 16.1129
C -71.2474 0.512493 13.9645
C -67.479 1.24674 14.6518
C -67.5258 1.25191 16.195
C -67.5153 -1.68425 14.1791
C -67.5867 -1.66201 16.7359
C -68.8181 0.545539 16.6648
C -68.7861 -0.945272 14.641
C -68.8289 -0.924875 16.1869
C -68.7339 0.511161 14.1085
C -64.9423 1.23545 14.7325
C -64.9797 1.23642 16.2782
C -64.99 -1.69295 14.2488
C -65.0403 -1.67493 16.7941
C -66.2816 0.518865 16.7495
C -66.2524 -0.950644 14.714
C -66.2912 -0.944905 16.2582
C -66.2058 0.506705 14.1981
C -62.3988 1.24373 14.7816
C -62.4201 1.23808 16.3319
C -62.4515 -1.70394 14.2849
C -62.4834 -1.69273 16.8398
C -63.7129 0.508845 16.8102
C -63.7152 -0.964013 14.7642
C -63.7413 -0.962354 16.3147
C -63.6693 0.504259 14.2579
C -59.8564 1.26872 14.812
C -59.8556 1.25861 16.3683
C -59.9223 -1.68855 14.3101
C -59.9351 -1.688 16.8635
C -61.1597 0.513599 16.8577
C -61.1813 -0.955945 14.8
C -61.1939 -0.95708 16.3536
C -61.1368 0.515347 14.2931
C -57.2927 1.2932 14.8027
C -57.2695 1.28149 16.354
C -57.4055 -1.67685 14.2935
C -57.3806 -1.67841 16.8554
C -58.5791 0.530022 16.8701
C -58.6472 -0.939791 14.814
C -58.6462 -0.939508 16.3673
C -58.5894 0.542259 14.31
C -54.7336 1.32455 14.7101
C -54.6822 1.31313 16.2624
C -55.9698 0.547255 16.8191
C -56.1156 -0.936321 14.7747
C -56.095 -0.94167 16.32
C -56.0348 0.553716 14.2608
C -52.1742 1.44034 14.5622
C -52.1027 1.41958 16.1254
C -53.3371 0.6919 16.7585
C -53.4525 0.710029 14.0766
C -49.6259 1.49353 14.402
C -49.5496 1.44929 15.9481
C -50.783 0.751846 16.5839
C -50.9153 0.796142 13.9177
C -47.0837 1.53165 14.2529
C -47.0205 1.45215 15.793
C -48.2564 0.732512 16.3755
C -48.375 0.845889 13.7546
C -44.5331 1.48048 14.1609
C -44.5086 1.39473 15.7058
C -45.7643 0.699585 16.2432
C -45.8439 0.86595 13.6115
C -41.9661 1.37307 14.1299
C -41.973 1.28982 15.6815
C -43.2628 0.630307 16.1998
C -43.2836 0.786212 13.547
C -39.3759 1.20937 14.1599
C -39.4191 1.13229 15.7128
C -40.7482 0.491868 16.1962
C -40.7114 0.640426 13.5421
C -36.787 1.13968 14.2659
C -36.8609 1.06917 15.8181
C -36.6651 -1.82469 13.6422
C -36.811 -1.91665 16.1939
C -38.1623 0.309328 16.2211
C -37.9898 -1.09812 14.1059
C -38.0734 -1.16165 15.6533
C -38.0565 0.427732 13.6711
C -34.2081 1.09216 14.414
C -34.3039 1.0278 15.9681
C -34.1102 -1.82296 13.7888
C -34.275 -1.90358 16.3485
C -35.6048 0.291007 16.347
C -35.4404 -1.0953 14.2423
C -35.5328 -1.1543 15.7856
C -35.46 0.399382 13.8049
C -31.6479 1.03042 14.5921
C -31.7484 0.97017 16.1401
C -31.5465 -1.8546 13.9842
C -31.7213 -1.93444 16.5187
C -33.0552 0.254552 16.5165
C -32.8757 -1.12908 14.4085
C -32.9769 -1.17944 15.9583
C -32.8869 0.356116 13.9695
C -29.1068 0.975657 14.7732
C -29.2049 0.922361 16.3093
C -29.0165 -1.89948 14.1606
C -29.1828 -1.9787 16.7097
C -30.5031 0.198877 16.7017
C -30.3213 -1.1702 14.6038
C -30.4228 -1.22351 16.1383
C -30.3335 0.297493 14.1486
C -26.5545 0.960812 14.925
C -26.6464 0.907766 16.4605
C -26.5074 -1.94719 14.3216
C -26.6458 -2.02664 16.8669
C -27.9499 0.166919 16.8558
C -27.7951 -1.21612 14.771
C -27.8875 -1.26655 16.3089
C -27.7991 0.25806 14.3234
C -24.0112 -1.96289 14.4014
C -24.1328 -2.05595 17.0354
C -25.4335 0.143938 17.0533
C -25.2692 -1.23432 14.9105
C -25.3487 -1.28581 16.4601
C -25.2876 0.233956 14.4233
C -69.9316 2.70147 13.9861
C -70.0331 2.73123 16.655
C -67.4536 5.62874 14.6651
C -67.5039 5.6109 16.2231
C -67.4347 2.7108 14.1445
C -67.5222 2.70699 16.6926
C -68.757 4.88375 16.7215
C -68.7246 3.45761 14.5914
C -68.7762 3.45432 16.1474
C -68.6656 4.89624 14.0546
C -64.915 5.62304 14.7614
C -64.9541 5.59735 16.3092
C -64.9092 2.69895 14.2267
C -64.9722 2.68887 16.7773
C -66.2391 4.86584 16.7605
C -66.1817 3.43177 14.6971
C -66.2244 3.42056 16.2379
C -66.161 4.89089 14.209
C -62.3867 5.65702 14.8271
C -62.4104 5.63117 16.379
C -62.3659 2.71352 14.2784
C -62.4067 2.69646 16.846
C -63.692 4.86791 16.8401
C -63.6498 3.42823 14.7614
C -63.6807 3.41361 16.3142
C -63.6341 4.90321 14.2802
C -59.8467 5.71572 14.8636
C -59.853 5.68574 16.4169
C -59.8223 2.75002 14.3154
C -59.8293 2.73313 16.8744
C -61.125 4.91999 16.897
C -61.1021 3.47244 14.8155
C -61.115 3.45578 16.3724
C -61.1009 4.95326 14.328
C -57.2971 5.7547 14.8559
C -57.2785 5.72315 16.4064
C -57.28 2.78613 14.3056
C -57.2439 2.75899 16.8539
C -58.5513 4.96129 16.9047
C -58.552 3.51095 14.8271
C -58.5418 3.49029 16.3757
C -58.5618 5.00452 14.344
C -54.7486 5.80296 14.7885
C -54.7039 5.77251 16.3345
C -54.7541 2.82877 14.2268
C -54.668 2.80144 16.7838
C -55.9654 4.99875 16.8605
C -56.0062 3.54455 14.7914
C -55.9671 3.52305 16.3338
C -56.026 5.03603 14.3147
C -52.1754 5.83309 14.6841
C -52.1222 5.78786 16.2319
C -52.2051 2.92086 14.1067
C -52.0876 2.87937 16.6447
C -53.3908 5.04321 16.7724
C -53.4684 3.60915 14.6879
C -53.4117 3.58088 16.2339
C -53.4847 5.09924 14.2168
C -49.5953 5.86084 14.5736
C -49.5345 5.80925 16.1153
C -49.6411 2.98261 13.9551
C -49.5196 2.90345 16.4967
C -50.8033 5.05522 16.6476
C -50.9036 3.65709 14.5518
C -50.8334 3.6208 16.0946
C -50.9152 5.13844 14.0951
C -47.0048 5.87792 14.472
C -46.956 5.81446 16.0222
C -47.0738 3.02188 13.8267
C -46.9855 2.89628 16.3794
C -48.2334 5.07636 16.5376
C -48.3305 3.70518 14.4225
C -48.2648 3.64458 15.9663
C -48.3229 5.18489 13.9807
C -44.4272 5.84347 14.4285
C -44.4044 5.76569 15.9786
C -44.5107 2.97858 13.7543
C -44.4703 2.83324 16.2992
C -45.6874 5.04424 16.4526
C -45.7665 3.70074 14.3227
C -45.7258 3.62265 15.8697
C -45.7372 5.17766 13.901
C -41.852 5.77049 14.4141
C -41.8518 5.68167 15.9701
C -41.9303 2.87833 13.7285
C -41.9335 2.73021 16.2628
C -43.1468 4.96244 16.428
C -43.1945 3.61921 14.2823
C -43.181 3.5339 15.8253
C -43.1615 5.10972 13.8729
C -39.2791 5.69307 14.4357
C -39.3101 5.61021 15.985
C -39.3365 2.74304 13.7555
C -39.4015 2.60269 16.2942
C -40.601 4.87291 16.421
C -40.6207 3.52066 14.2709
C -40.6389 3.43305 15.8177
C -40.5809 5.03145 13.8684
C -36.7191 5.60017 14.52
C -36.7776 5.52613 16.0672
C -36.7634 2.65047 13.8493
C -36.8783 2.52424 16.3988
C -38.0822 4.79273 16.4762
C -38.0565 3.41534 14.3372
C -38.102 3.33467 15.8865
C -38.0021 4.93397 13.9272
C -34.1852 5.50897 14.641
C -34.2566 5.45066 16.19
C -34.1975 2.58767 13.989
C -34.3472 2.47206 16.5466
C -35.5661 4.71606 16.5908
C -35.4966 3.3316 14.4588
C -35.5731 3.26151 16.0072
C -35.4521 4.83587 14.0361
C -31.6485 5.41559 14.7621
C -31.7289 5.36494 16.3073
C -31.6511 2.50439 14.1569
C -31.809 2.41128 16.7063
C -33.0352 4.65147 16.7265
C -32.951 3.25722 14.609
C -33.0374 3.19678 16.1625
C -32.9064 4.74396 14.17
C -29.1136 5.31844 14.9026
C -29.1997 5.26866 16.4515
C -29.1165 2.44078 14.3186
C -29.2742 2.35391 16.8692
C -30.5197 4.56208 16.8568
C -30.4117 3.17478 14.7643
C -30.5056 3.12388 16.3078
C -30.3741 4.64614 14.3072
C -26.5997 2.40825 14.4156
C -26.7584 2.31092 17.0697
C -28.0157 4.48687 17.0621
C -27.8711 3.12298 14.9221
C -27.9633 3.07091 16.4735
C -27.8659 4.56303 14.4051
C -67.3881 7.05534 14.1118
C -67.474 7.02709 16.8034
C -65.0035 10.0461 14.8442
C -65.0409 9.99929 16.4098
C -64.8938 7.09498 14.277
C -64.9711 7.05244 16.8319
C -66.2662 9.20069 16.8938
C -66.1919 7.8105 14.7361
C -66.2389 7.78015 16.2946
C -66.1874 9.26646 14.2165
C -62.4573 10.1293 14.9493
C -62.4902 10.0816 16.5053
C -62.3861 7.14951 14.3652
C -62.4479 7.09939 16.9105
C -63.7567 9.2814 16.9312
C -63.6692 7.85951 14.8417
C -63.7102 7.82318 16.3879
C -63.6825 9.35204 14.3789
C -59.9288 10.1843 14.9841
C -59.9238 10.1397 16.5421
C -59.8748 7.21003 14.3941
C -59.8796 7.15836 16.9535
C -61.201 9.3513 17.0025
C -61.1512 7.91992 14.9058
C -61.1725 7.88064 16.4605
C -61.1748 9.42255 14.4452
C -57.3745 10.2092 14.9512
C -57.3397 10.168 16.4997
C -57.3364 7.24559 14.3825
C -57.296 7.19439 16.9348
C -58.6163 9.4 17.0135
C -58.6167 7.96337 14.9173
C -58.6047 7.92693 16.4673
C -58.6515 9.46183 14.454
C -54.7854 10.2079 14.8907
C -54.7383 10.1743 16.4377
C -54.7793 7.28758 14.3166
C -54.7032 7.23038 16.8674
C -56.0235 9.42736 16.9539
C -56.0609 7.9948 14.8685
C -56.0235 7.95978 16.4198
C -56.0938 9.48832 14.4056
C -52.1892 10.2037 14.8105
C -52.1386 10.1753 16.3561
C -52.1994 7.31552 14.2313
C -52.1063 7.23944 16.7781
C -53.4195 9.44029 16.8824
C -53.4759 8.01925 14.7952
C -53.4245 7.98166 16.3428
C -53.5086 9.49812 14.3321
C -49.5813 10.1954 14.737
C -49.5346 10.1566 16.2784
C -49.6022 7.33539 14.13
C -49.517 7.24795 16.6795
C -50.8234 9.43507 16.8017
C -50.8844 8.02858 14.7018
C -50.834 7.98464 16.2556
C -50.9065 9.50122 14.2482
C -46.969 10.1862 14.6747
C -46.9435 10.1364 16.2169
C -46.9902 7.35649 14.0421
C -46.936 7.24408 16.6023
C -48.2345 9.41881 16.728
C -48.2833 8.03916 14.6141
C -48.2432 7.98965 16.1633
C -48.2935 9.50177 14.166
C -44.3447 10.1746 14.6555
C -44.3389 10.1161 16.199
C -44.3931 7.3266 14.0081
C -44.3707 7.19401 16.5647
C -45.6393 9.39703 16.679
C -45.6712 8.03551 14.5486
C -45.6476 7.97038 16.1082
C -45.6607 9.50834 14.1191
C -41.7449 10.1443 14.6555
C -41.7535 10.0817 16.2023
C -41.807 7.26769 14.0054
C -41.8074 7.12455 16.5602
C -43.0497 9.35965 16.6717
C -43.0825 7.99711 14.5407
C -43.0743 7.92102 16.0944
C -43.0513 9.47628 14.1176
C -39.1598 10.0986 14.666
C -39.1809 10.0397 16.2252
C -39.2266 7.1972 14.0315
C -39.2692 7.06293 16.585
C -40.4863 9.30694 16.6852
C -40.5001 7.93656 14.5531
C -40.5119 7.86094 16.1094
C -40.4636 9.42009 14.125
C -36.5903 10.0468 14.7125
C -36.6326 9.98673 16.2656
C -36.6563 7.10795 14.091
C -36.7445 6.98783 16.6513
C -37.9362 9.25585 16.72
C -37.9281 7.86804 14.5978
C -37.9688 7.79696 16.1538
C -37.8754 9.36187 14.1522
C -34.0515 9.96196 14.793
C -34.1016 9.91092 16.3424
C -34.1203 7.00501 14.1984
C -34.2332 6.91418 16.7512
C -35.4073 9.19191 16.7819
C -35.3831 7.78709 14.6725
C -35.4417 7.7273 16.2246
C -35.3252 9.28212 14.2171
C -31.5072 9.83805 14.8781
C -31.5602 9.79304 16.419
C -31.5923 6.90221 14.3088
C -31.7163 6.81665 16.8548
C -32.8836 9.09267 16.8605
C -32.8547 7.67939 14.7773
C -32.921 7.62705 16.326
C -32.7963 9.16524 14.3175
C -29.0853 6.77202 14.3806
C -29.2383 6.69164 17.053
C -30.3849 8.96034 17.0043
C -30.3109 7.57048 14.889
C -30.3933 7.5205 16.4343
C -30.2722 9.03893 14.3723
C -65.0112 11.5129 14.3247
C -65.0818 11.4239 17.0299
C -62.5057 11.6413 14.4893
C -62.5546 11.5588 17.0806
C -63.8375 12.2521 14.953
C -63.8619 12.2438 16.5606
C -60.03 14.659 15.168
C -59.986 14.612 16.723
C -59.9784 11.7077 14.5407
C -59.9511 11.6181 17.1015
C -61.262 13.859 17.316
C -61.2898 12.4389 15.084
C -61.2784 12.3763 16.6568
C -61.349 13.959 14.647
C -57.379 14.61 15.048
C -57.338 14.577 16.604
C -57.3979 11.7064 14.4871
C -57.3307 11.6376 17.0429
C -58.642 13.878 17.187
C -58.6886 12.4472 15.0342
C -58.6545 12.4013 16.604
C -58.722 13.947 14.541
C -54.757 14.571 14.949
C -54.719 14.546 16.507
C -54.7914 11.6855 14.4168
C -54.7155 11.6349 16.9658
C -56.016 13.848 17.085
C -56.0777 12.4183 14.9574
C -56.0374 12.3804 16.5262
C -56.089 13.898 14.436
C -52.146 14.538 14.872
C -52.115 14.519 16.429
C -52.1889 11.6689 14.3404
C -52.1235 11.6291 16.8909
C -53.408 13.82 17.002
C -53.471 12.3931 14.8813
C -53.4311 12.3684 16.4388
C -53.471 13.859 14.351
C -49.546 14.509 14.814
C -49.519 14.492 16.372
C -49.5795 11.654 14.2711
C -49.5182 11.5995 16.8228
C -50.811 13.794 16.937
C -50.8717 12.3756 14.8071
C -50.8354 12.3506 16.3738
C -50.863 13.828 14.284
C -46.947 14.484 14.779
C -46.927 14.466 16.336
C -46.9641 11.6414 14.218
C -46.9317 11.5687 16.7748
C -48.221 13.766 16.89
C -48.2619 12.3544 14.7536
C -48.2305 12.3258 16.3168
C -48.26 13.8 14.237
C -44.351 14.464 14.763
C -44.338 14.441 16.321
C -44.3398 11.6338 14.201
C -44.3301 11.5507 16.7576
C -45.633 13.739 16.864
C -45.6467 12.3306 14.7232
C -45.6283 12.2984 16.2897
C -45.66 13.778 14.21
C -41.755 14.447 14.772
C -41.747 14.416 16.33
C -41.7316 11.6085 14.2004
C -41.7408 11.5243 16.7551
C -43.048 13.712 16.857
C -43.0343 12.3128 14.713
C -43.0309 12.2746 16.2766
C -43.06 13.762 14.203
C -39.157 14.432 14.803
C -39.155 14.389 16.361
C -39.1326 11.5741 14.2148
C -39.1623 11.4889 16.7797
C -40.46 13.684 16.872
C -40.4325 12.2915 14.729
C -40.4399 12.2465 16.2909
C -40.461 13.75 14.219
C -36.551 14.423 14.864
C -36.556 14.362 16.416
C -36.5501 11.5436 14.2636
C -36.6024 11.4514 16.809
C -37.868 13.651 16.907
C -37.8423 12.2695 14.7573
C -37.8645 12.216 16.3163
C -37.855 13.743 14.259
C -33.991 11.4703 14.3304
C -34.0559 11.3756 16.881
C -35.259 13.624 16.962
C -35.2571 12.2428 14.8171
C -35.2861 12.1788 16.3669
C -35.234 13.753 14.329
C -31.472 11.3074 14.3447
C -31.5355 11.2258 16.9991
C -32.6832 12.1337 14.8755
C -32.7149 12.0675 16.4363
C -77.9908 -16.3346 14.9789
C -77.941 -16.349 16.5322
C -75.412 -16.3507 14.8914
C -75.3683 -16.3484 16.4414
C -75.3084 -19.3007 14.3567
C -75.2607 -19.2983 16.9183
C -76.6239 -17.0985 16.9757
C -76.5888 -18.5644 14.8869
C -76.5571 -18.572 16.4447
C -76.698 -17.0792 14.4096
C -72.8223 -16.3526 14.8295
C -72.8002 -16.345 16.3728
C -72.7786 -19.2775 14.3283
C -72.7363 -19.2756 16.8842
C -74.0545 -17.0781 16.8982
C -74.0476 -18.5465 14.8516
C -74.0193 -18.545 16.3947
C -74.1095 -17.0751 14.3553
C -70.2562 -16.3571 14.8119
C -70.2497 -16.3572 16.3618
C -70.2403 -19.2953 14.3013
C -70.2141 -19.2868 16.8517
C -71.5118 -17.0862 16.8674
C -71.5108 -18.5504 14.8103
C -71.4883 -18.5479 16.3617
C -71.5357 -17.0827 14.3103
C -67.703 -16.3635 14.8064
C -67.6979 -16.3658 16.3577
C -67.7129 -19.3043 14.2796
C -67.6918 -19.3039 16.8427
C -68.9697 -17.1041 16.8577
C -68.9682 -18.5621 14.7975
C -68.9532 -18.5645 16.3435
C -68.9811 -17.0926 14.2996
C -65.1428 -16.3674 14.7975
C -65.1371 -16.3784 16.3591
C -65.1977 -19.3397 14.2667
C -65.1791 -19.3436 16.8038
C -66.4263 -17.1045 16.8456
C -66.4434 -18.5706 14.7798
C -66.4338 -18.576 16.3254
C -66.4353 -17.0906 14.2926
C -62.6945 -19.4094 14.1842
C -62.6762 -19.4132 16.853
C -63.9132 -17.1865 16.8947
C -63.9132 -18.6227 14.7534
C -63.9037 -18.6304 16.319
C -63.9343 -17.17 14.2126
C -31.714 -19.4717 14.308
C -31.4416 -19.6045 16.9444
C -29.1204 -16.5348 14.6665
C -29.0119 -16.563 16.2075
C -29.1894 -19.4468 14.1
C -28.9455 -19.5687 16.6257
C -30.1683 -17.383 16.874
C -30.41 -18.7478 14.7525
C -30.2587 -18.8164 16.2893
C -30.4086 -17.2924 14.2293
C -26.547 -16.5396 14.479
C -26.447 -16.5942 16.0149
C -26.6567 -19.4205 13.8478
C -26.4358 -19.5608 16.38
C -27.69 -17.327 16.5874
C -27.8708 -18.726 14.5036
C -27.7348 -18.7896 16.0341
C -27.8754 -17.2463 14.0494
C -23.9811 -16.5638 14.3124
C -23.8966 -16.644 15.8609
C -24.0948 -19.4277 13.6215
C -23.9101 -19.6011 16.1701
C -25.1547 -17.3742 16.4031
C -25.32 -18.7306 14.2691
C -25.204 -18.8162 15.8131
C -25.3171 -17.2449 13.8516
C -21.3784 -16.5808 14.1863
C -21.3198 -16.6734 15.7345
C -21.5274 -19.4532 13.4546
C -21.3783 -19.6614 16.0022
C -22.601 -17.4242 16.2435
C -22.7537 -18.7527 14.0947
C -22.6607 -18.8577 15.6387
C -22.7258 -17.2526 13.6972
C -18.7786 -16.6687 14.1286
C -18.7456 -16.7392 15.676
C -20.0475 -17.4699 16.1367
C -20.2044 -18.8063 13.9725
C -20.1266 -18.9048 15.5137
C -20.1237 -17.2989 13.5954
C -75.2632 -20.7723 14.8697
C -75.2338 -20.7682 16.4134
C -72.7543 -20.7487 14.8346
C -72.729 -20.7439 16.3842
C -72.7242 -23.6977 14.365
C -72.6855 -23.6647 16.9335
C -73.9649 -21.4841 16.91
C -73.9721 -22.958 14.8744
C -73.9427 -22.9483 16.4226
C -74.0135 -21.5011 14.3498
C -70.2224 -20.7579 14.8092
C -70.2052 -20.7529 16.3582
C -70.2163 -23.6986 14.3411
C -70.1771 -23.6733 16.8957
C -71.457 -21.4725 16.8829
C -71.471 -22.9554 14.8507
C -71.4462 -22.9419 16.3995
C -71.4894 -21.493 14.3282
C -67.6971 -20.7786 14.7833
C -67.6847 -20.7741 16.3317
C -67.6971 -23.7335 14.2919
C -67.6607 -23.7087 16.8477
C -68.9351 -21.4866 16.8525
C -68.9459 -22.9705 14.8156
C -68.921 -22.9584 16.3617
C -68.9612 -21.5023 14.3033
C -65.1946 -20.8159 14.7553
C -65.1796 -20.81 16.2986
C -65.1867 -23.7793 14.2547
C -65.1596 -23.7601 16.8162
C -66.4269 -21.5298 16.827
C -66.4264 -23.0166 14.7724
C -66.4118 -23.0008 16.317
C -66.4532 -21.5377 14.2624
C -62.6703 -20.8605 14.7275
C -62.6554 -20.8587 16.2882
C -62.6858 -23.8324 14.2462
C -62.6574 -23.8091 16.7833
C -63.9215 -21.5749 16.7874
C -63.9273 -23.0604 14.7479
C -63.9124 -23.0494 16.291
C -63.95 -21.5857 14.2451
C -60.1915 -23.8724 14.159
C -60.1536 -23.8634 16.8075
C -61.424 -21.6341 16.8331
C -61.4142 -23.0971 14.7162
C -61.3939 -23.0898 16.2853
C -61.4566 -21.6444 14.1627
C -34.3306 -23.9301 14.3385
C -34.0703 -24.0977 16.962
C -31.7372 -20.9465 14.7943
C -31.575 -21.0349 16.3383
C -31.8264 -23.8868 14.1491
C -31.5691 -24.0394 16.665
C -32.7471 -21.8514 16.9815
C -33.0444 -23.1859 14.8116
C -32.8878 -23.2763 16.349
C -33.031 -21.6968 14.3289
C -29.1867 -20.9346 14.5286
C -29.0284 -21.018 16.0619
C -29.3182 -23.8506 13.8677
C -29.0468 -23.992 16.4085
C -30.256 -21.7938 16.6559
C -30.5063 -23.1536 14.5572
C -30.3494 -23.2414 16.0839
C -30.5228 -21.6556 14.1302
C -26.6563 -20.9186 14.2631
C -26.5079 -21.0112 15.8023
C -26.795 -23.8437 13.5805
C -26.518 -24.0045 16.1196
C -27.7335 -21.7739 16.3894
C -27.9859 -23.1318 14.2668
C -27.8266 -23.223 15.8054
C -27.9955 -21.6256 13.85
C -24.1125 -20.9277 14.0151
C -23.981 -21.0351 15.5591
C -24.2665 -23.836 13.3
C -24.0023 -24.0156 15.845
C -25.2097 -21.7954 16.1345
C -25.4555 -23.1337 13.9844
C -25.2975 -23.2342 15.5344
C -25.4528 -21.6244 13.5792
C -21.58 -20.9561 13.8192
C -21.463 -21.0766 15.3561
C -22.697 -21.8246 15.8961
C -22.9429 -23.1381 13.7363
C -22.7917 -23.2479 15.2729
C -22.91 -21.6283 13.348
C -72.7118 -25.145 14.9046
C -72.6851 -25.1243 16.4475
C -70.2075 -25.1686 14.8514
C -70.1819 -25.1511 16.4117
C -70.1955 -28.1 14.3727
C -70.1548 -28.0843 16.9414
C -71.4362 -25.8733 16.9428
C -71.4472 -27.3546 14.9008
C -71.4236 -27.3405 16.4468
C -71.478 -25.9018 14.3772
C -67.6834 -25.2002 14.8003
C -67.6575 -25.1831 16.3585
C -67.6665 -28.1339 14.3294
C -67.6273 -28.108 16.8878
C -68.9064 -25.8969 16.8942
C -68.929 -27.3789 14.8544
C -68.9074 -27.3621 16.4046
C -68.953 -25.9239 14.3348
C -65.1692 -25.2399 14.773
C -65.1426 -25.2297 16.3165
C -65.1368 -28.1869 14.2901
C -65.1011 -28.1588 16.8473
C -66.3883 -25.9346 16.848
C -66.3955 -27.4144 14.8057
C -66.3759 -27.3981 16.354
C -66.4289 -25.9595 14.2911
C -62.6557 -25.3014 14.7457
C -62.6335 -25.2875 16.2915
C -62.6107 -28.2492 14.2542
C -62.5715 -28.222 16.8169
C -63.8847 -25.9925 16.8224
C -63.8751 -27.4756 14.7805
C -63.851 -27.4607 16.3213
C -63.9236 -26.0149 14.2586
C -60.1186 -25.3276 14.7067
C -60.097 -25.3195 16.2585
C -60.0492 -28.2975 14.2214
C -60.0099 -28.2678 16.7664
C -61.3579 -26.0402 16.7743
C -61.3338 -27.539 14.7346
C -61.3094 -27.5207 16.2911
C -61.396 -26.0657 14.2353
C -57.5166 -28.3169 14.1049
C -57.4665 -28.2801 16.7797
C -58.8419 -26.0816 16.7926
C -58.7739 -27.5511 14.6894
C -58.7452 -27.5355 16.2388
C -58.8876 -26.0966 14.1279
C -36.8641 -28.4058 14.1474
C -36.738 -28.4991 16.8302
C -34.3248 -25.4167 14.7749
C -34.1912 -25.5122 16.3127
C -34.3799 -28.3591 14.0952
C -34.1942 -28.4673 16.6333
C -35.395 -26.3104 16.8944
C -35.614 -27.6499 14.7026
C -35.5123 -27.7263 16.2543
C -35.5968 -26.1609 14.2526
C -31.8014 -25.3875 14.5517
C -31.6519 -25.4774 16.0831
C -31.8771 -28.3212 13.8787
C -31.6402 -28.4229 16.4271
C -32.8709 -26.2694 16.6465
C -33.0817 -27.623 14.5365
C -32.9522 -27.7011 16.0672
C -33.1053 -26.1225 14.1287
C -29.2929 -25.3539 14.2822
C -29.1262 -25.4385 15.8238
C -29.3781 -28.2983 13.6154
C -29.1012 -28.4001 16.1632
C -30.3448 -26.2169 16.4163
C -30.5718 -27.5872 14.2913
C -30.4166 -27.6632 15.8331
C -30.6112 -26.0832 13.8697
C -26.7828 -25.3536 13.9878
C -26.6111 -25.4401 15.5296
C -26.8837 -28.2724 13.3118
C -26.5912 -28.3905 15.8688
C -27.8205 -26.2046 16.1362
C -28.0736 -27.5663 14.0063
C -27.9011 -27.6415 15.5516
C -28.1046 -26.0673 13.5938
C -24.2716 -25.3354 13.7037
C -24.0996 -25.437 15.2359
C -25.3037 -26.2084 15.8301
C -25.5786 -27.544 13.7035
C -25.398 -27.6277 15.2382
C -25.595 -26.0497 13.2866
C -70.1431 -29.556 14.8866
C -70.1241 -29.5439 16.4359
C -67.6214 -29.5949 14.8416
C -67.602 -29.575 16.3947
C -67.5979 -32.5327 14.3857
C -67.5549 -32.48 16.9582
C -68.8542 -30.2853 16.9355
C -68.8485 -31.7669 14.8978
C -68.8249 -31.7453 16.4478
C -68.8849 -30.3142 14.3671
C -65.0806 -29.6502 14.7973
C -65.0592 -29.628 16.3517
C -65.0483 -32.5936 14.3471
C -65.0102 -32.538 16.9025
C -66.3166 -30.3203 16.8852
C -66.3163 -31.819 14.8517
C -66.2937 -31.7915 16.4031
C -66.3595 -30.364 14.3254
C -62.5342 -29.7148 14.7672
C -62.512 -29.6973 16.3191
C -62.4917 -32.6727 14.3169
C -62.4613 -32.6226 16.8682
C -63.7764 -30.3898 16.8502
C -63.7624 -31.8867 14.8158
C -63.7419 -31.86 16.365
C -63.8064 -30.4309 14.2835
C -59.9698 -29.7706 14.7313
C -59.9498 -29.7473 16.2833
C -59.9257 -32.7409 14.29
C -59.9041 -32.6784 16.848
C -61.2191 -30.4508 16.8198
C -61.2064 -31.9583 14.7874
C -61.1861 -31.9295 16.3393
C -61.2523 -30.4948 14.2517
C -57.3647 -29.791 14.6807
C -57.3406 -29.7612 16.2358
C -57.3656 -32.8101 14.267
C -57.3435 -32.7365 16.8175
C -58.6316 -30.4937 16.7744
C -58.64 -32.0154 14.7586
C -58.6237 -31.9799 16.3061
C -58.6659 -30.5393 14.2239
C -54.693 -29.9818 14.6348
C -54.683 -29.935 16.1758
C -54.7898 -32.9093 14.2328
C -54.7619 -32.8257 16.7761
C -56.0248 -30.5452 16.7227
C -56.0623 -32.0943 14.7242
C -56.05 -32.0531 16.2709
C -56.057 -30.6104 14.1768
C -52.1249 -30.1162 14.6095
C -52.1096 -30.0652 16.1474
C -52.2082 -33.0278 14.2039
C -52.183 -32.9356 16.7555
C -53.4155 -30.7049 16.6922
C -53.4703 -32.2294 14.6911
C -53.4537 -32.1807 16.239
C -53.4357 -30.7884 14.138
C -49.6077 -30.187 14.568
C -49.5963 -30.127 16.112
C -49.6441 -33.0953 14.1797
C -49.6219 -32.9917 16.7426
C -50.8598 -30.803 16.6662
C -50.9041 -32.3294 14.6628
C -50.8924 -32.2746 16.2145
C -50.8881 -30.8933 14.1032
C -47.1062 -30.1903 14.5411
C -47.1006 -30.1255 16.0841
C -47.0902 -33.1103 14.1551
C -47.0653 -33.0134 16.7192
C -48.3384 -30.8343 16.6363
C -48.3595 -32.3722 14.6398
C -48.3449 -32.3116 16.1929
C -48.3659 -30.9386 14.0718
C -44.5765 -30.1463 14.5318
C -44.5752 -30.088 16.0742
C -44.5359 -33.0773 14.1419
C -44.5335 -32.9922 16.6985
C -45.832 -30.8064 16.6143
C -45.8185 -32.3542 14.6212
C -45.813 -32.2938 16.173
C -45.8342 -30.9134 14.0538
C -42.0277 -30.1155 14.573
C -42.0337 -30.083 16.1204
C -41.9889 -33.0301 14.1515
C -41.9889 -32.9676 16.7023
C -43.3085 -30.7881 16.6227
C -43.2768 -32.3127 14.6247
C -43.2809 -32.2679 16.1723
C -43.2888 -30.867 14.0709
C -39.5028 -30.0355 14.6422
C -39.4909 -30.0376 16.1849
C -39.438 -32.956 14.1497
C -39.4167 -32.9332 16.7029
C -40.7557 -30.7836 16.6745
C -40.7243 -32.2631 14.6387
C -40.7214 -32.245 16.1888
C -40.7366 -30.8166 14.1118
C -36.9258 -29.8831 14.657
C -36.873 -29.9256 16.2121
C -36.9185 -32.8663 14.1107
C -36.8301 -32.8754 16.6694
C -38.1672 -30.6949 16.704
C -38.1767 -32.1646 14.6424
C -38.1416 -32.1705 16.1935
C -38.1924 -30.6721 14.1457
C -34.3778 -29.8509 14.5432
C -34.2729 -29.9067 16.0848
C -34.4058 -32.7929 13.9924
C -34.2486 -32.8177 16.5472
C -35.5423 -30.6628 16.6405
C -35.6489 -32.092 14.5778
C -35.5687 -32.1185 16.1234
C -35.6667 -30.6082 14.1007
C -31.8436 -29.8113 14.3253
C -31.705 -29.8619 15.8752
C -31.8915 -32.7411 13.7906
C -31.6594 -32.7639 16.3489
C -32.9501 -30.6077 16.4804
C -33.114 -32.0312 14.4134
C -32.9936 -32.061 15.9642
C -33.1564 -30.5527 13.9282
C -29.3199 -29.7887 14.0618
C -29.158 -29.8387 15.6101
C -29.3764 -32.7127 13.5278
C -29.108 -32.7424 16.071
C -30.3752 -30.5771 16.2355
C -30.5855 -31.996 14.1635
C -30.4348 -32.0238 15.7145
C -30.6331 -30.5244 13.6781
C -26.8227 -29.7626 13.7659
C -26.6451 -29.8176 15.3072
C -27.8327 -30.5761 15.9445
C -28.0726 -31.9767 13.891
C -27.904 -32.0128 15.4223
C -28.1196 -30.5133 13.3983
C -67.5808 -33.9736 14.9321
C -67.5549 -33.9463 16.4791
C -65.0378 -34.041 14.8908
C -65.0121 -34.0179 16.4397
C -65.0936 -36.9519 14.4265
C -65.0581 -36.9381 16.9937
C -66.2898 -34.6854 16.9873
C -66.3317 -36.1742 14.958
C -66.3045 -36.149 16.505
C -66.3334 -34.7314 14.4153
C -62.4779 -34.1278 14.8514
C -62.4615 -34.1001 16.4017
C -62.5459 -37.0783 14.4136
C -62.5365 -37.0719 16.9692
C -63.7454 -34.7829 16.9387
C -63.7887 -36.2781 14.9134
C -63.7708 -36.2684 16.4607
C -63.776 -34.8219 14.3856
C -59.9181 -34.2088 14.838
C -59.9096 -34.1771 16.389
C -59.9916 -37.1742 14.4136
C -59.9944 -37.152 16.9731
C -61.2008 -34.8731 16.9162
C -61.2394 -36.3852 14.903
C -61.2395 -36.3717 16.4598
C -61.2178 -34.9215 14.368
C -57.3641 -34.2835 14.8172
C -57.3591 -34.2445 16.3739
C -57.4265 -37.2357 14.421
C -57.4198 -37.19 16.9766
C -58.6499 -34.938 16.9128
C -58.6933 -36.4628 14.9019
C -58.6924 -36.4386 16.4558
C -58.6622 -34.9999 14.3514
C -54.7922 -34.362 14.7927
C -54.7834 -34.3135 16.337
C -54.8429 -37.291 14.4089
C -54.8324 -37.2266 16.9724
C -56.0797 -34.9888 16.8883
C -56.1172 -36.5208 14.8972
C -56.111 -36.4851 16.4512
C -56.0972 -35.0734 14.3342
C -52.2191 -34.4627 14.7781
C -52.2069 -34.4109 16.3216
C -52.257 -37.3437 14.4164
C -52.2467 -37.278 16.9528
C -53.505 -35.0683 16.8669
C -53.5384 -36.5854 14.8835
C -53.5332 -36.5429 16.4264
C -53.5275 -35.1514 14.3126
C -49.6447 -34.523 14.7556
C -49.6317 -34.4612 16.3071
C -49.6766 -37.3953 14.3731
C -49.6482 -37.3227 16.9266
C -50.9246 -35.1375 16.855
C -50.9515 -36.6541 14.874
C -50.9399 -36.6055 16.413
C -50.9462 -35.2302 14.3013
C -47.0814 -34.5403 14.7205
C -47.0602 -34.4854 16.2728
C -47.0973 -37.4171 14.3343
C -47.0571 -37.3465 16.8851
C -48.3389 -35.1749 16.8298
C -48.3749 -36.6928 14.8349
C -48.3519 -36.6392 16.3796
C -48.3716 -35.2735 14.2662
C -44.5215 -34.5149 14.6948
C -44.5114 -34.4667 16.2475
C -44.5217 -37.4195 14.293
C -44.4903 -37.347 16.8465
C -45.7795 -35.1843 16.7902
C -45.7988 -36.6937 14.7896
C -45.7801 -36.6474 16.3369
C -45.7998 -35.2668 14.2286
C -41.9685 -34.4788 14.6931
C -41.9575 -34.4436 16.2378
C -41.9555 -37.3903 14.2556
C -41.9168 -37.3412 16.8131
C -43.2204 -35.1676 16.7648
C -43.2346 -36.6757 14.76
C -43.2168 -36.6401 16.3041
C -43.2396 -35.235 14.2137
C -39.4194 -34.4211 14.6677
C -39.3907 -34.4061 16.2166
C -39.3827 -37.3543 14.2121
C -39.3159 -37.3288 16.7675
C -40.6539 -35.1423 16.7563
C -40.6694 -36.6424 14.7267
C -40.6396 -36.6183 16.2812
C -40.6869 -35.1868 14.1864
C -36.8842 -34.3451 14.6114
C -36.8247 -34.3447 16.1663
C -36.8371 -37.3068 14.1144
C -36.7198 -37.2909 16.674
C -38.0813 -35.1037 16.7066
C -38.1032 -36.5986 14.6699
C -38.0509 -36.5863 16.2222
C -38.15 -35.1306 14.1543
C -34.3536 -34.2691 14.4831
C -34.2523 -34.277 16.0262
C -34.3218 -37.228 13.9746
C -34.1564 -37.2273 16.5191
C -35.4958 -35.0469 16.6038
C -35.569 -36.5262 14.5494
C -35.4833 -36.5239 16.0976
C -35.6242 -35.0492 14.0505
C -31.8274 -34.2108 14.2889
C -31.697 -34.2272 15.8382
C -31.7979 -37.1267 13.7762
C -31.5926 -37.1412 16.3246
C -32.9263 -34.9782 16.4375
C -33.0436 -36.439 14.3875
C -32.9267 -36.4477 15.933
C -33.1152 -34.9712 13.8893
C -29.3179 -34.1694 14.0343
C -29.1722 -34.1915 15.5728
C -30.3681 -34.9329 16.2129
C -30.5214 -36.3639 14.1558
C -30.3944 -36.3829 15.6954
C -30.6024 -34.9134 13.6516
C -65.1296 -38.4056 14.9268
C -65.1247 -38.4049 16.477
C -62.6008 -38.5636 14.9159
C -62.6065 -38.5782 16.4643
C -63.9326 -39.2728 16.9578
C -63.9212 -39.2226 14.3957
C -60.0389 -38.6533 14.9299
C -60.0517 -38.6541 16.4855
C -61.3734 -39.3869 16.972
C -61.3503 -39.3492 14.4169
C -57.461 -38.6933 14.9607
C -57.4677 -38.6802 16.5078
C -58.7802 -39.4077 17.0023
C -58.7621 -39.4049 14.445
C -54.8696 -38.7342 14.9628
C -54.8645 -38.7113 16.5095
C -56.1794 -39.4231 17.0187
C -56.18 -39.4352 14.4687
C -52.2765 -38.7752 14.9471
C -52.2627 -38.7511 16.4955
C -53.5681 -39.4441 17.0203
C -53.5849 -39.4718 14.4731
C -49.6831 -38.8206 14.9137
C -49.6636 -38.7868 16.4645
C -50.9651 -39.4696 17.0054
C -50.9957 -39.5094 14.4422
C -47.0959 -38.8414 14.8807
C -47.0735 -38.8062 16.424
C -48.3644 -39.4875 16.9739
C -48.4012 -39.5373 14.4129
C -44.5192 -38.8521 14.8363
C -44.4938 -38.8158 16.3855
C -45.7769 -39.5043 16.9368
C -45.8211 -39.5562 14.3726
C -41.9374 -38.832 14.7892
C -41.9078 -38.811 16.3397
C -43.1907 -39.5168 16.8899
C -43.237 -39.5584 14.3212
C -39.3421 -38.8133 14.7283
C -39.2985 -38.802 16.2793
C -40.579 -39.5184 16.8244
C -40.6439 -39.5451 14.2722
C -36.7661 -38.7807 14.6224
C -36.7002 -38.7811 16.1884
C -37.9688 -39.521 16.7501
C -38.0571 -39.5326 14.1825
C -34.226 -38.7155 14.4699
C -34.132 -38.725 16.0192
C -35.3541 -39.5011 16.6307
C -35.4843 -39.5041 14.0576
C -31.7149 -38.5847 14.2828
C -31.6158 -38.6073 15.8198
C -32.7981 -39.3422 16.4668
C -32.9634 -39.319 13.7899
C -60.131 -41.568 14.336
C -60.144 -41.629 17.022
C -61.445 -40.867 14.879
C -61.461 -40.914 16.456
C -57.515 -41.596 14.38
C -57.513 -41.623 17.077
C -58.814 -40.886 14.927
C -58.818 -40.912 16.509
C -54.912 -41.622 14.404
C -54.899 -41.629 17.104
C -56.204 -40.909 14.957
C -56.201 -40.919 16.539
C -52.314 -41.645 14.41
C -52.291 -41.639 17.111
C -53.603 -40.929 14.968
C -53.594 -40.931 16.552
C -49.72 -41.666 14.398
C -49.687 -41.651 17.1
C -51.006 -40.949 14.963
C -50.991 -40.943 16.546
C -47.125 -41.684 14.37
C -47.083 -41.665 17.071
C -48.411 -40.967 14.941
C -48.389 -40.958 16.524
C -44.53 -41.699 14.325
C -44.479 -41.681 17.025
C -45.815 -40.983 14.903
C -45.788 -40.973 16.486
C -41.929 -41.709 14.261
C -41.871 -41.697 16.959
C -43.216 -40.997 14.849
C -43.184 -40.989 16.432
C -39.321 -41.714 14.18
C -39.255 -41.717 16.874
C -40.613 -41.007 14.779
C -40.576 -41.004 16.36
C -36.695 -41.707 14.066
C -36.617 -41.74 16.776
C -37.999 -41.014 14.687
C -37.955 -41.024 16.274
C -35.412 -40.966 14.594
C -35.357 -40.995 16.157
C -62.843 -41.632 16.917
C -64.059 -40.724 14.827
C -64.083 -40.78 16.41
C -62.803 -41.524 14.281
C -32.668 -40.964 16.614
C -33.978 -41.689 14.499
C -33.921 -41.732 16.062
C -32.768 -40.89 13.91
C -32.66 13.506 17.028
C -33.892 14.424 14.944
C -33.907 14.343 16.526
C -32.622 13.659 14.386
C -62.72 14.584 17.445
C -64.019 13.879 15.327
C -63.964 13.806 16.887
C -62.814 14.707 14.754
H -80.346 -12.057 14.977
H -80.334 -12.061 16.887
H -80.398 -14.474 14.759
H -80.366 -14.485 17.083
H -16.323 -12.605 14.121
H -16.322 -12.607 16.024
H -16.355 -15.03 13.895
H -16.381 -15.041 16.221
H -78.7981 -16.8957 16.9257
H -78.8719 -16.8717 14.6282
H -60.133 -42.615 14.607
H -60.129 -42.664 16.71
H -62.966 -42.548 14.589
H -62.997 -42.612 16.487
H -64.958 -41.146 14.398
H -65.003 -41.249 16.733
H -31.835 -41.321 14.246
H -31.775 -41.378 16.168
H -33.889 -42.667 14.045
H -33.805 -42.751 16.405
H -31.735 14.098 14.824
H -62.944 15.68 15.21
H -62.878 15.608 17.131
H -64.961 14.307 15.01
H -64.863 14.188 17.354
H -78.7705 -9.83189 14.5974
H -78.7185 -9.80098 16.8528
H -72.1695 1.06528 14.1372
H -72.2421 1.10015 16.4179
H -73.4784 -1.15747 14.1021
H -73.5575 -1.12553 16.395
H -77.3793 -7.74705 14.3654
H -77.369 -7.66814 16.5856
H -69.5967 5.43599 14.2435
H -69.663 5.43053 16.4621
H -70.8561 3.25766 14.1537
H -70.9369 3.27966 16.3934
H -74.7982 -3.40139 14.1511
H -74.8404 -3.34916 16.4007
H -76.0684 -5.59263 14.2605
H -76.073 -5.52305 16.5026
H -67.1347 9.77587 14.4062
H -67.1998 9.71657 16.6599
H -68.3157 7.60195 14.2908
H -68.3891 7.56935 16.5572
H -21.8372 -3.63207 14.6401
H -21.8956 -3.72471 16.8163
H -19.246 -7.98883 14.2912
H -19.221 -8.0817 16.5088
H -17.8661 -10.1742 14.0622
H -17.839 -10.2565 16.3516
H -20.5513 -5.81845 14.4548
H -20.5715 -5.91694 16.6987
H -24.3799 0.762077 14.7228
H -24.5032 0.693929 16.898
H -23.1016 -1.43367 14.6898
H -23.208 -1.50346 16.864
H -26.9529 5.08655 14.6945
H -27.0742 5.01904 16.9097
H -25.6998 2.95402 14.7068
H -25.8371 2.8764 16.9156
H -29.3391 9.53162 14.6447
H -29.4257 9.45303 16.8287
H -28.1573 7.27011 14.6682
H -28.2822 7.20061 16.9118
H -60.036 15.703 14.882
H -59.972 15.637 17.072
H -57.375 15.652 14.756
H -57.315 15.606 16.939
H -54.753 15.611 14.651
H -54.698 15.577 16.837
H -52.144 15.577 14.57
H -52.096 15.55 16.757
H -49.541 15.548 14.512
H -49.503 15.524 16.699
H -46.942 15.523 14.476
H -46.913 15.498 16.664
H -44.346 15.504 14.464
H -44.326 15.472 16.652
H -41.748 15.488 14.477
H -41.74 15.445 16.666
H -39.148 15.476 14.519
H -39.148 15.416 16.705
H -36.563 15.47 14.59
H -36.57 15.384 16.772
H -77.4677 -19.1081 14.5445
H -77.418 -19.1247 16.8193
H -72.3371 -27.8775 14.5577
H -72.3032 -27.8546 16.8297
H -73.5772 -25.62 16.825
H -73.6103 -25.6516 14.5579
H -74.8585 -23.4883 14.528
H -74.8184 -23.4676 16.8088
H -76.1033 -21.3001 16.7983
H -76.1498 -21.3019 14.5219
H -69.7469 -32.2808 14.5632
H -69.7071 -32.2549 16.8305
H -71.0052 -30.0616 16.8085
H -71.0284 -30.0804 14.5362
H -19.3609 -19.3352 13.5265
H -19.2345 -19.4607 15.804
H -17.8755 -17.3164 15.9912
H -17.9379 -17.2299 13.7193
H -27.2303 -32.4839 13.4233
H -26.9849 -32.5369 15.6779
H -23.1823 -25.9814 15.4561
H -23.4369 -25.8334 13.21
H -22.1092 -23.638 13.243
H -21.8745 -23.7885 15.5025
H -20.5638 -21.6388 15.6057
H -20.743 -21.4715 13.3477
H -25.7129 -30.3304 15.538
H -25.9716 -30.2416 13.2828
H -24.7367 -28.0336 13.2154
H -24.4774 -28.1692 15.4513
H -66.0468 -38.8808 14.5777
H -67.2364 -36.6847 14.6292
H -67.1986 -36.6384 16.8921
H -68.4393 -34.4518 16.8643
H -68.4782 -34.4977 14.6077
H -66.0506 -38.854 16.8375
H -30.6884 -39.0995 16.1057
H -30.8324 -39.0627 13.8639
H -29.6575 -36.8571 13.7139
H -29.4696 -36.8881 15.9685
H -28.2551 -34.7103 15.8432
H -28.4658 -34.6701 13.5774
H -57.529 -42.64 14.662
H -57.512 -42.662 16.778
H -54.922 -42.664 14.696
H -54.901 -42.671 16.814
H -52.321 -42.685 14.706
H -52.298 -42.682 16.825
H -49.725 -42.705 14.698
H -49.694 -42.694 16.816
H -47.127 -42.723 14.67
H -47.095 -42.709 16.79
H -44.528 -42.738 14.624
H -44.491 -42.725 16.742
H -41.924 -42.749 14.559
H -41.884 -42.741 16.676
H -39.312 -42.755 14.472
H -39.272 -42.759 16.586
H -36.68 -42.749 14.357
H -36.633 -42.777 16.468
H -30.5336 11.7986 14.6213
H -30.5838 11.7129 16.8033
H -65.9637 12.0008 14.5386
H -66.0155 11.9253 16.7721
H -33.762 15.458 14.653
H -33.796 15.314 16.992
H -31.746 13.997 16.721
H -60.149 -41.64 18.104
H -25.0917 -17.4385 17.4881
H -57.515 -41.617 18.159
H -70.2125 -19.2887 17.9402
H -71.5026 -17.0845 17.9555
H -54.897 -41.612 18.186
H -52.284 -41.616 18.193
H -67.6841 -19.307 17.9306
H -68.9587 -17.116 17.9461
H -47.068 -41.638 18.153
H -44.458 -41.654 18.107
H -62.7162 -19.4528 17.9422
H -63.7926 9.24696 18.0196
H -39.229 -41.7 17.956
H -66.2775 -34.6605 18.0751
H -36.588 -41.737 17.858
H -32.5279 -21.9657 18.044
H -66.4194 -17.1145 17.934
H -31.6218 -10.5749 17.6542
H -32.9469 -8.36538 17.5094
H -22.5396 -17.4967 17.3273
H -29.0339 -10.6677 17.7402
H -30.3892 -8.44549 17.6808
H -26.4286 -10.7955 17.7432
H -27.7864 -8.5565 17.7728
H -43.0436 9.31485 17.759
H -23.8601 -10.8945 17.6982
H -25.226 -8.65419 17.8058
H -48.32 -35.127 17.9176
H -47.0418 -37.3111 17.9719
H -61.2149 9.30978 18.0898
H -32.629 -40.991 17.695
H -21.2737 -10.914 17.6372
H -22.6544 -8.72616 17.7849
H -36.6337 -28.5962 17.912
H -30.1221 -21.8636 17.734
H -18.7875 -10.9692 17.6376
H -20.1595 -8.77667 17.7951
H -75.0809 -6.06316 17.8199
H -72.675 -6.028 17.766
H -73.8646 -3.8714 17.7428
H -49.676 -41.625 18.182
H -32.68 13.438 18.108
H -70.1925 -6.03994 17.8092
H -71.4447 -3.83423 17.7385
H -52.2413 -37.2299 18.0394
H -31.23 -19.703 18.0089
H -67.6835 -6.05736 17.8676
H -68.9079 -3.85366 17.8086
H -28.8327 -19.6364 17.7055
H -65.1506 -6.06435 17.9339
H -66.3767 -3.85444 17.8809
H -44.4755 -37.3107 17.9334
H -58.5989 9.38068 18.1012
H -26.3469 -19.6286 17.4632
H -62.5922 -6.09205 17.9621
H -63.8224 -3.8733 17.9369
H -45.7708 -35.1395 17.8782
H -62.5758 -28.225 17.9047
H -65.1842 -19.3602 17.8916
H -27.6166 -21.8407 17.4703
H -23.8321 -19.6794 17.2541
H -60.061 -6.1065 17.9634
H -61.2705 -3.89176 17.9495
H -21.3189 -19.7691 17.0822
H -58.7067 -3.89912 17.9542
H -72.6727 -23.655 18.0177
H -20.0106 -17.5652 17.2179
H -70.1537 -23.6638 17.9849
H -71.445 -21.4562 17.9713
H -41.846 -41.673 18.041
H -67.6444 -23.7079 17.9369
H -43.2169 -35.1333 17.853
H -25.1096 -21.8788 17.2173
H -63.9655 -17.2241 17.9839
H -66.4218 -21.5425 17.9154
H -61.4589 -21.6672 17.923
H -34.2166 -6.23312 17.3754
H -35.5476 -4.11767 17.2932
H -32.9196 9.06343 17.9478
H -31.7169 -6.24089 17.5712
H -33.0323 -4.08408 17.4664
H -39.2895 -37.3079 17.8548
H -53.3928 9.41135 17.9691
H -29.1497 -6.3099 17.7365
H -30.4821 -4.11346 17.658
H -40.6475 -35.1138 17.8448
H -28.9753 -28.4504 17.2451
H -26.5956 -6.41911 17.8445
H -27.9407 -4.1955 17.8303
H -24.0296 -6.51126 17.8959
H -25.3743 -4.27381 17.9523
H -21.5395 -6.59582 17.9667
H -22.9043 -4.36478 18.0674
H -68.9218 -21.4865 17.9414
H -72.6026 -1.6801 17.7432
H -41.9089 -37.3078 17.9
H -70.1638 -1.62424 17.7497
H -71.2836 0.52342 17.7447
H -67.6162 -1.65532 17.8249
H -68.8556 0.560291 17.7531
H -36.6629 -37.2767 17.7604
H -50.7993 9.42036 17.8894
H -65.0677 -1.66401 17.8831
H -66.3133 0.533904 17.8383
H -38.0582 -35.0814 17.7946
H -26.4496 -28.4338 16.9461
H -31.456 -24.1087 17.7457
H -62.5043 -1.68565 17.9284
H -63.7359 0.517543 17.8996
H -71.4253 -25.8693 18.0275
H -28.9234 -24.0498 17.4894
H -59.924 -1.68394 17.9511
H -61.1686 0.520376 17.9465
H -65.155 -23.7565 17.9044
H -26.3883 -24.0767 17.2003
H -57.3506 -1.68066 17.9418
H -58.5669 0.521533 17.9588
H -23.8795 -24.1081 16.9205
H -55.9126 0.535137 17.9062
H -22.6066 -21.9273 16.9739
H -53.2801 0.775278 17.8454
H -34.1098 -28.5061 17.7181
H -48.2155 9.39359 17.8159
H -50.7069 0.813674 17.6703
H -25.1671 -26.2786 16.9059
H -27.6995 -30.6023 17.0237
H -48.1988 0.735197 17.4641
H -68.8767 -25.8861 17.9833
H -45.7276 0.680358 17.333
H -50.9179 -35.0802 17.9424
H -62.6678 -23.8121 17.872
H -43.2515 0.633978 17.2904
H -63.9176 -21.5816 17.8756
H -40.7464 0.485249 17.2858
H -36.8815 -1.95831 17.2785
H -38.2182 0.25226 17.3075
H -45.6367 9.36121 17.7664
H -34.3517 -1.94469 17.4326
H -35.664 0.241819 17.4322
H -32.8423 -34.9704 17.5248
H -59.9993 -28.2595 17.8556
H -70.1519 -28.0803 18.027
H -31.8075 -1.96103 17.6036
H -33.1423 0.212306 17.6004
H -66.3749 -25.9327 17.9378
H -68.8546 -30.2788 18.0222
H -29.2569 -2.00641 17.7949
H -30.5886 0.157321 17.7858
H -60.2064 -23.8951 17.8965
H -26.7072 -2.05415 17.9529
H -28.0255 0.127286 17.9407
H -24.2266 -2.12597 18.1179
H -25.5399 0.0813338 18.1366
H -70.0272 2.70552 17.747
H -67.5591 2.71502 17.7808
H -68.7566 4.84492 17.8122
H -73.9518 -21.4774 17.9944
H -64.9953 2.68705 17.8659
H -66.2761 4.85589 17.8483
H -30.4826 8.90855 18.0885
H -62.4262 2.69041 17.9358
H -63.7161 4.85032 17.9288
H -44.529 -32.9599 17.7865
H -63.8954 -25.9929 17.9102
H -59.8228 2.73252 17.9635
H -61.1362 4.91364 17.9865
H -35.2543 -26.4306 17.9687
H -61.3775 -39.3988 18.0623
H -57.2194 2.77221 17.9412
H -58.5438 4.94903 17.9931
H -32.7706 -26.3375 17.7289
H -54.614 2.78723 17.8716
H -55.9288 4.98156 17.9476
H -30.2297 -26.2861 17.4973
H -52.0295 2.86266 17.731
H -53.3484 5.03174 17.8596
H -27.6905 -26.2684 17.2172
H -39.2941 6.99193 17.6706
H -49.4685 2.87593 17.5837
H -50.7499 5.0229 17.7339
H -46.9536 2.83918 17.4659
H -48.1851 5.03286 17.6245
H -67.5496 -32.4604 18.0458
H -61.3522 -26.0403 17.8633
H -44.4564 2.77719 17.3867
H -45.6623 4.98638 17.5386
H -64.9979 -32.5069 17.992
H -66.298 -30.3004 17.9749
H -41.9349 2.66685 17.3492
H -43.1507 4.89506 17.5141
H -62.4594 -32.5913 17.9564
H -63.7773 -30.3749 17.9395
H -39.4233 2.53112 17.381
H -40.6069 4.79564 17.5058
H -59.899 -32.649 17.9362
H -61.2086 -30.4318 17.9075
H -36.9375 2.46291 17.4832
H -38.1206 4.71303 17.5609
H -57.3334 -32.7 17.9049
H -58.607 -30.4668 17.863
H -55.9922 9.40685 18.041
H -34.4121 2.41001 17.6312
H -35.6204 4.64484 17.6758
H -54.7556 -32.7795 17.8632
H -56.0174 -30.5027 17.8111
H -31.8822 2.35776 17.7911
H -33.0822 4.60079 17.8133
H -52.1722 -32.8802 17.8419
H -53.4069 -30.6612 17.7777
H -58.8922 -26.1292 17.882
H -29.3549 2.30947 17.9534
H -30.5972 4.52442 17.9414
H -49.6168 -32.9299 17.8292
H -50.8374 -30.7515 17.7499
H -26.8698 2.23731 18.1515
H -28.1349 4.42931 18.1444
H -47.0572 -32.9751 17.8075
H -48.3292 -30.7842 17.7221
H -62.852 -41.676 17.999
H -67.4398 6.97684 17.8925
H -65.0057 7.03238 17.9196
H -66.2469 9.13508 17.9833
H -45.827 -30.7582 17.7007
H -62.4736 7.07073 17.9983
H -77.9836 -14.8795 18.1584
H -79.411 -12.545 18.311
H -41.9978 -32.9419 17.7903
H -43.3359 -30.7441 17.7077
H -31.5385 -28.4664 17.5099
H -59.8814 7.13688 18.0415
H -75.3423 -14.8759 18.0443
H -76.6154 -12.6333 18.0901
H -39.4248 -32.9214 17.7913
H -40.7855 -30.7592 17.761
H -57.2757 7.17073 18.0224
H -72.8026 -14.8698 17.9648
H -74.055 -12.6596 17.9802
H -36.7991 -32.8702 17.7568
H -38.1581 -30.6783 17.7919
H -54.6639 7.21164 17.9545
H -70.2735 -14.8936 17.9491
H -71.5219 -12.6779 17.9424
H -34.1754 -32.8219 17.6335
H -35.4871 -30.6732 17.7272
H -52.0838 7.20685 17.8657
H -67.735 -14.9137 17.9593
H -69.0039 -12.6869 17.9425
H -31.5582 -32.7588 17.4354
H -32.8493 -30.6067 17.5646
H -49.4822 7.19723 17.7666
H -65.1716 -14.9068 17.9689
H -66.4842 -12.6793 17.9529
H -28.9712 -32.7429 17.1509
H -30.258 -30.6001 17.3198
H -63.7305 -34.7575 18.0281
H -46.9092 7.18402 17.6898
H -63.9678 -12.654 17.9847
H -44.3601 7.12625 17.6517
H -62.5341 -37.0799 18.0579
H -57.5209 -28.31 17.871
H -41.8134 7.06107 17.6472
H -40.4936 9.25551 17.772
H -36.7729 6.92985 17.7379
H -37.9469 9.21562 17.8072
H -49.6357 -37.2834 18.0135
H -34.2701 6.87412 17.8383
H -35.4402 9.15533 17.8676
H -65.0434 -36.9393 18.0829
H -29.3802 6.6228 18.1328
H -31.7652 6.79031 17.9414
H -53.4979 -35.0137 17.954
H -61.216 13.813 18.397
H -59.9878 -37.1405 18.0613
H -65.0606 11.3507 18.1152
H -61.1998 -34.849 18.0041
H -58.6444 -34.9005 18.0005
H -59.9333 11.5727 18.1922
H -54.8122 -37.1886 18.0593
H -58.606 13.844 18.268
H -62.5944 11.5077 18.1683
H -55.986 13.819 18.167
H -62.669 14.536 18.525
H -28.9748 -15.0507 17.768
H -30.2873 -12.7906 17.7544
H -52.0845 11.6061 17.9788
H -53.382 13.797 18.084
H -26.347 -15.1836 17.6473
H -27.6789 -12.9092 17.7335
H -49.4957 11.582 17.911
H -50.79 13.771 18.019
H -23.8016 -15.2465 17.5196
H -25.0943 -13.0279 17.6449
H -46.9263 11.5434 17.8627
H -48.205 13.744 17.972
H -65.0895 -28.1513 17.9367
H -21.2218 -15.3012 17.4136
H -22.5169 -13.0584 17.5659
H -44.3262 11.5116 17.8453
H -45.624 13.716 17.946
H -18.6052 -15.3588 17.3708
H -19.8879 -13.0816 17.4862
H -41.7446 11.4855 17.8427
H -43.044 13.685 17.939
H -29.9697 -17.4596 17.9421
H -17.261 -13.047 17.448
H -39.1656 11.4505 17.8678
H -40.462 13.65 17.954
H -57.4208 -37.1648 18.0641
H -34.087 -37.2222 17.6059
H -35.4385 -35.0436 17.6912
H -36.6176 11.4075 17.8975
H -37.875 13.607 17.989
H -77.677 -10.3522 18.1331
H -31.4904 -37.1425 17.4069
H -34.0855 11.348 17.9717
H -35.275 13.564 18.043
H -75.2473 -10.4141 17.9486
H -76.3851 -8.18749 17.9207
H -31.6104 11.1716 18.0883
H -30.246 -34.9351 17.2964
H -72.7373 -10.4473 17.9113
H -73.9401 -8.20851 17.8387
H -67.6032 -28.0997 17.977
H -56.0758 -34.9356 17.9751
H -63.9209 -39.3082 18.0444
H -75.2438 -19.2933 18.0039
H -70.2308 -10.4646 17.9086
H -71.4567 -8.23586 17.8421
H -57.3051 11.6073 18.1326
H -76.5916 -17.1258 18.0636
H -58.7878 -39.4039 18.0924
H -67.7202 -10.4668 17.9184
H -68.9629 -8.27144 17.8784
H -56.1798 -39.4052 18.1086
H -53.5557 -39.4134 18.1093
H -27.6099 -17.3716 17.6722
H -65.1918 -10.4567 17.9528
H -66.4498 -8.26347 17.9184
H -50.9568 -39.4267 18.0935
H -48.3446 -39.439 18.0612
H -62.657 -10.4664 17.9805
H -63.903 -8.27819 17.9569
H -45.7606 -39.4597 18.0245
H -43.1706 -39.477 17.9781
H -61.3571 -8.29309 17.9705
H -40.5608 -39.4874 17.9136
H -37.9354 -39.4973 17.8399
H -35.2848 -39.4728 17.7148
H -33.8833 -24.2234 18.0305
H -32.7251 -39.3008 17.5641
H -54.6908 11.6148 18.0546
H -72.7234 -19.2634 17.9718
H -74.0301 -17.0757 17.9851
H -78.2042 -14.7937 13.4509
H -79.467 -12.542 13.515
H -75.5265 -14.8738 13.3184
H -76.8301 -12.656 13.3678
H -72.8818 -14.8943 13.2353
H -74.1791 -12.7127 13.2441
H -70.265 -14.9086 13.2219
H -71.5386 -12.7157 13.195
H -67.7216 -14.9088 13.2164
H -68.985 -12.7176 13.2038
H -65.1373 -14.8763 13.2304
H -66.4425 -12.7065 13.2169
H -63.9137 -12.6761 13.2421
H -29.099 -15.1003 13.0394
H -30.2195 -12.8672 13.0003
H -26.567 -15.052 12.9173
H -27.7413 -12.8759 12.9984
H -23.9874 -15.0219 12.7891
H -25.2186 -12.8759 12.9232
H -21.3505 -15.0053 12.6935
H -22.6466 -12.8501 12.8486
H -18.6571 -15.0871 12.6364
H -20.017 -12.8737 12.7632
H -17.228 -13.039 12.647
H -77.8924 -10.5522 13.2791
H -75.3531 -10.5528 13.2366
H -76.4116 -8.44318 13.0923
H -72.769 -10.5458 13.1555
H -73.9599 -8.3632 13.1198
H -70.2068 -10.5349 13.17
H -71.4217 -8.36224 13.1138
H -67.665 -10.5051 13.1872
H -68.8853 -8.33495 13.145
H -65.1338 -10.4896 13.2123
H -66.3583 -8.29754 13.1759
H -62.6183 -10.5048 13.2435
H -63.8594 -8.3129 13.2209
H -61.3591 -8.33759 13.2343
H -31.407 -10.678 12.9191
H -32.5991 -8.46475 12.789
H -28.9383 -10.691 12.9921
H -30.1415 -8.48265 12.9468
H -26.4449 -10.7058 13.0078
H -27.6597 -8.50202 13.0445
H -23.9221 -10.6932 12.9669
H -25.1927 -8.49313 13.0709
H -21.3727 -10.6828 12.9114
H -22.6766 -8.49835 13.0591
H -18.8777 -10.7244 12.7579
H -20.2332 -8.49154 12.9557
H -75.0804 -6.23087 12.979
H -72.6186 -6.1575 13.0491
H -73.7617 -4.02008 12.895
H -70.104 -6.13486 13.0708
H -71.3116 -3.91918 13.0215
H -67.584 -6.1038 13.1324
H -68.7994 -3.90189 13.0738
H -65.0651 -6.09189 13.1847
H -66.2764 -3.90114 13.1473
H -62.5595 -6.1213 13.2216
H -63.7537 -3.9149 13.1899
H -60.0535 -6.10887 13.2147
H -61.2363 -3.91438 13.2193
H -58.7205 -3.91252 13.2142
H -33.891 -6.24774 12.6504
H -35.2491 -4.04429 12.5702
H -31.3737 -6.27403 12.839
H -32.7044 -4.01943 12.7376
H -28.8838 -6.29878 13.0084
H -30.1596 -4.05915 12.9311
H -26.4318 -6.31543 13.1191
H -27.6681 -4.11495 13.1038
H -23.9342 -6.3031 13.1787
H -25.1801 -4.11561 13.2287
H -21.537 -6.32252 13.1207
H -22.7504 -4.12033 13.2629
H -72.4223 -1.78064 12.8607
H -70.0116 -1.67932 13.0431
H -71.1315 0.45409 12.8838
H -67.4759 -1.69376 13.0917
H -68.6879 0.497171 13.035
H -64.9611 -1.70129 13.1604
H -66.1678 0.491684 13.1136
H -62.4278 -1.70852 13.1959
H -63.6484 0.49062 13.169
H -59.9047 -1.6946 13.2226
H -61.1149 0.511847 13.2043
H -57.3994 -1.69131 13.2071
H -58.5828 0.542147 13.2214
H -56.0566 0.539345 13.1722
H -53.5263 0.76867 12.9887
H -50.9784 0.871619 12.8308
H -48.4361 0.92613 12.6677
H -45.8795 1.00688 12.5304
H -43.2951 0.944055 12.4682
H -40.6816 0.784605 12.4622
H -36.6217 -1.78465 12.5569
H -38.0326 0.470204 12.5826
H -34.0509 -1.78951 12.7032
H -35.4029 0.452595 12.7196
H -31.4728 -1.8126 12.8988
H -32.8208 0.410527 12.8844
H -28.9497 -1.86867 13.0749
H -30.2624 0.339052 13.0631
H -26.4491 -1.91703 13.2353
H -27.7376 0.297191 13.2373
H -24.0061 -1.95148 13.3117
H -25.2636 0.251724 13.3333
H -69.8103 2.6604 12.9129
H -67.3771 2.69842 13.0496
H -68.5648 4.87274 12.9737
H -64.8759 2.6855 13.1238
H -66.114 4.89791 13.1232
H -62.3336 2.71444 13.1905
H -63.6121 4.91707 13.1963
H -59.8083 2.7513 13.2263
H -61.0821 4.96457 13.2396
H -57.2932 2.79637 13.2175
H -58.5625 5.02211 13.2556
H -54.7893 2.83295 13.1374
H -56.0479 5.05973 13.2266
H -52.2638 2.94795 13.0203
H -53.5216 5.13222 13.13
H -49.686 3.03605 12.8684
H -50.946 5.18731 13.0084
H -47.1061 3.08693 12.7408
H -48.3598 5.24665 12.8947
H -44.5245 3.05941 12.6688
H -45.7549 5.25226 12.8158
H -41.9342 2.9541 12.6426
H -43.1615 5.18289 12.7877
H -39.3076 2.81124 12.6688
H -40.5709 5.11121 12.7842
H -36.713 2.70694 12.7641
H -37.9805 4.9909 12.8403
H -34.1391 2.64947 12.904
H -35.3926 4.89077 12.9504
H -31.5931 2.55327 13.071
H -32.8578 4.78752 13.0831
H -29.0646 2.47361 13.2323
H -30.3191 4.68139 13.2209
H -26.5912 2.41626 13.3253
H -27.8586 4.56062 13.3151
H -67.262 7.01364 13.0299
H -64.8504 7.11689 13.1958
H -66.0761 9.25061 13.1302
H -62.334 7.14848 13.2806
H -63.6382 9.39417 13.2957
H -59.8578 7.23769 13.3058
H -61.1574 9.42928 13.3794
H -57.352 7.26569 13.2945
H -58.6554 9.48706 13.369
H -54.8157 7.31253 13.2293
H -56.1158 9.51222 13.314
H -52.2378 7.34409 13.1439
H -53.5384 9.51203 13.2397
H -49.6303 7.38207 13.0426
H -50.9273 9.5532 13.1641
H -47.0305 7.42189 12.9556
H -48.3206 9.55837 13.0828
H -44.3871 7.38022 12.9214
H -45.6806 9.56723 13.0319
H -41.7897 7.32378 12.9185
H -43.0336 9.53795 13.0264
H -39.2184 7.26946 12.9454
H -40.461 9.48636 13.0002
H -36.6313 7.16092 13.0041
H -37.856 9.41248 13.0623
H -34.0775 7.04777 13.1116
H -35.2889 9.31566 13.1327
H -31.5462 6.94559 13.222
H -32.7603 9.19709 13.2316
H -29.0831 6.76011 13.2894
H -30.2716 9.03684 13.278
H -64.8985 11.5081 13.242
H -62.4431 11.6763 13.4031
H -60.0064 11.7468 13.4587
H -61.39 13.999 13.567
H -57.4241 11.7359 13.3959
H -58.757 13.973 13.46
H -54.8403 11.7029 13.3247
H -56.119 13.914 13.355
H -52.2147 11.686 13.2476
H -53.498 13.871 13.27
H -49.611 11.6925 13.1727
H -50.885 13.837 13.203
H -46.968 11.6896 13.1382
H -48.276 13.81 13.156
H -44.3439 11.6518 13.115
H -45.671 13.79 13.129
H -41.73 11.644 13.106
H -43.065 13.778 13.122
H -39.1272 11.6153 13.1211
H -40.459 13.773 13.138
H -36.5216 11.5714 13.1809
H -37.846 13.778 13.178
H -33.9671 11.4846 13.2484
H -35.219 13.803 13.249
H -31.4999 11.2871 13.2525
H -75.3363 -19.3007 13.2687
H -76.7504 -17.0675 13.3208
H -72.8166 -19.2703 13.2483
H -74.1451 -17.0636 13.2599
H -70.2456 -19.2928 13.2125
H -71.5441 -17.0774 13.2214
H -67.7243 -19.3117 13.1923
H -68.9849 -17.0956 13.2111
H -65.2126 -19.3346 13.1791
H -66.4338 -17.0774 13.2042
H -62.7651 -19.4396 13.0956
H -64.0247 -17.1906 13.125
H -31.752 -19.4583 13.2182
H -29.2828 -19.3973 13.0173
H -30.4504 -17.3063 13.1392
H -26.7481 -19.3631 12.7642
H -27.951 -17.2059 12.9637
H -24.1611 -19.3418 12.5372
H -25.387 -17.1742 12.7674
H -21.5725 -19.3433 12.3746
H -22.7693 -17.1712 12.6125
H -20.1282 -17.2076 12.5126
H -72.7301 -23.7232 13.275
H -74.035 -21.5233 13.2558
H -70.2329 -23.7142 13.2673
H -71.4964 -21.4981 13.2297
H -67.7172 -23.7428 13.2011
H -68.9669 -21.5134 13.217
H -65.2128 -23.7921 13.1691
H -66.4746 -21.5561 13.1756
H -62.7161 -23.8463 13.1583
H -63.9568 -21.5873 13.157
H -60.2566 -23.9021 13.0701
H -61.5169 -21.6862 13.0743
H -34.3654 -23.8882 13.2484
H -31.9307 -23.8218 13.0672
H -33.0625 -21.69 13.2382
H -29.4386 -23.7779 12.7873
H -30.6251 -21.6103 13.0468
H -26.9098 -23.7755 12.4976
H -28.0987 -21.5514 12.7681
H -24.3614 -23.7584 12.2201
H -25.5477 -21.5441 12.4956
H -22.9902 -21.5437 12.2676
H -70.2079 -28.1035 13.291
H -71.496 -25.9169 13.2808
H -67.7 -28.1446 13.2423
H -68.9775 -25.9354 13.2531
H -65.1394 -28.1856 13.1955
H -66.4502 -25.969 13.2004
H -62.6451 -28.2544 13.1663
H -63.9526 -26.0173 13.1717
H -60.0916 -28.3097 13.1332
H -61.4233 -26.0748 13.148
H -57.6157 -28.3915 13.0191
H -58.9823 -26.1431 13.0421
H -36.8234 -28.4173 13.0569
H -34.4478 -28.3301 13.0087
H -35.602 -26.1234 13.1627
H -31.9837 -28.2829 12.7961
H -33.1873 -26.0654 13.0441
H -29.4973 -28.2697 12.5316
H -30.7252 -26.0296 12.7874
H -27.0127 -28.2235 12.2326
H -28.2217 -26.0048 12.5115
H -25.7069 -25.9769 12.2075
H -67.6222 -32.5591 13.299
H -68.9186 -30.336 13.2723
H -65.0823 -32.6193 13.2658
H -66.3959 -30.3737 13.242
H -62.5149 -32.7052 13.2342
H -63.8182 -30.4552 13.1856
H -59.9385 -32.7756 13.203
H -61.272 -30.5187 13.1647
H -57.3818 -32.8535 13.1798
H -58.689 -30.5672 13.1353
H -54.8183 -32.9445 13.146
H -56.1068 -30.6369 13.0889
H -52.2273 -33.0766 13.1182
H -53.4534 -30.8113 13.0522
H -49.6563 -33.1533 13.094
H -50.9051 -30.9285 13.0188
H -47.0956 -33.1557 13.0677
H -48.3752 -30.9763 12.9853
H -44.5298 -33.113 13.054
H -45.8316 -30.947 12.9662
H -41.9889 -33.0615 13.064
H -43.2644 -30.8999 12.9856
H -39.4336 -32.9633 13.0616
H -40.7024 -30.8181 13.0254
H -36.9467 -32.8697 13.0243
H -38.1658 -30.6572 13.0579
H -34.4788 -32.7832 12.9073
H -35.7091 -30.6017 13.0129
H -31.9941 -32.7392 12.7054
H -33.2485 -30.5338 12.8436
H -29.4862 -32.7225 12.4445
H -30.742 -30.515 12.5925
H -28.2404 -30.5132 12.3168
H -65.1104 -36.954 13.3364
H -66.3551 -34.7555 13.3268
H -62.5349 -37.0804 13.3251
H -63.8092 -34.8534 13.2862
H -59.9944 -37.1812 13.3141
H -61.2206 -34.9459 13.2892
H -57.4298 -37.2626 13.3543
H -58.665 -35.0342 13.2666
H -54.851 -37.3103 13.3166
H -56.11 -35.1042 13.246
H -52.2317 -37.3556 13.321
H -53.5358 -35.186 13.2221
H -49.685 -37.4161 13.2872
H -50.9545 -35.2775 13.2131
H -47.1009 -37.4342 13.2584
H -48.3772 -35.3179 13.1809
H -44.5447 -37.4372 13.2052
H -45.8098 -35.2946 13.1425
H -41.9683 -37.4082 13.1629
H -43.2411 -35.2583 13.1277
H -39.4025 -37.3686 13.1234
H -40.6988 -35.2203 13.0951
H -36.8866 -37.3128 13.0258
H -38.1735 -35.1525 13.0655
H -34.401 -37.2318 12.887
H -35.6689 -35.0587 12.9632
H -31.9012 -37.1252 12.699
H -33.1956 -34.9772 12.804
H -30.7134 -34.9137 12.5702
H -63.9259 -39.1841 13.3078
H -61.3346 -39.332 13.3258
H -58.7507 -39.4007 13.3534
H -56.1833 -39.4408 13.3773
H -53.6001 -39.4543 13.4049
H -51.0134 -39.5249 13.3645
H -48.421 -39.5652 13.3208
H -45.8405 -39.5825 13.2907
H -43.257 -39.5583 13.2354
H -40.6746 -39.5531 13.1827
H -38.0982 -39.5465 13.0905
H -35.5508 -39.5237 12.9724
H -33.0586 -39.1591 12.7056
H -60.124 -41.53 13.255
H -57.514 -41.569 13.299
H -54.915 -41.603 13.323
H -52.322 -41.631 13.329
H -49.732 -41.656 13.317
H -47.141 -41.675 13.289
H -44.55 -41.689 13.244
H -41.954 -41.697 13.18
H -39.351 -41.699 13.099
H -36.727 -41.683 12.985
H -62.781 -41.476 13.201
H -32.808 -40.85 12.83
H -32.607 13.715 13.306
H -62.853 14.759 13.674
H -62.9785 -16.7042 14.429
H -62.9711 -16.7047 16.6571
H -61.7594 -18.8948 14.407
H -61.7427 -18.8977 16.6204
H -31.3091 -16.7921 14.5637
H -31.1315 -16.8937 16.7736
H -32.5989 -18.9229 14.6415
H -32.3791 -19.0541 16.8644
H -60.523 -21.1203 14.3803
H -60.5014 -21.1005 16.5924
H -59.2578 -23.3428 14.3594
H -59.2281 -23.33 16.5789
H -33.9258 -21.1707 14.6757
H -33.6911 -21.3047 16.9241
H -35.2333 -23.4232 14.6887
H -35.0101 -23.5453 16.896
H -57.9684 -25.5417 14.3185
H -57.9331 -25.5299 16.5528
H -54.6235 -28.9753 14.2283
H -54.6063 -28.9075 16.5253
H -56.6171 -27.7381 14.2954
H -56.5782 -27.708 16.5309
H -52.0879 -29.1029 14.2148
H -52.0639 -29.0268 16.4721
H -49.5904 -29.1746 14.1699
H -49.5738 -29.0856 16.4286
H -47.1159 -29.1782 14.1405
H -47.1099 -29.0835 16.4002
H -44.5936 -29.1391 14.1196
H -44.5762 -29.0473 16.394
H -42.0517 -29.1001 14.1826
H -42.0401 -29.0476 16.4561
H -39.5919 -29.0095 14.2934
H -39.5503 -29.0143 16.5501
H -36.5075 -25.6472 14.5648
H -36.3194 -25.7406 16.7867
H -37.759 -27.8479 14.4044
H -37.6387 -27.9104 16.6738
H -50.7878 -0.312397 16.3507
H -48.3454 -0.23357 13.9246
H -48.2688 -0.328096 16.1133
H -63.0149 -14.563 14.4895
H -63.026 -14.5576 16.763
H -61.824 -12.4492 16.7747
H -61.7927 -12.4748 14.5147
H -31.2125 -14.7058 14.2864
H -31.1604 -14.758 16.5479
H -32.4138 -12.5874 16.4453
H -32.3725 -12.5889 14.1952
H -59.217 -8.07397 16.7189
H -59.2151 -8.07757 14.456
H -33.6008 -10.3735 14.0304
H -33.7007 -10.3785 16.2773
H -34.9777 -8.2085 16.0814
H -34.8217 -8.19818 13.8503
H -57.9037 -5.90612 14.4529
H -57.9124 -5.90658 16.7223
H -56.5756 -3.70177 16.7019
H -56.5732 -3.68161 14.4399
H -36.1084 -6.05549 13.721
H -36.2598 -6.08935 15.982
H -37.619 -3.90625 15.922
H -37.4648 -3.85139 13.6642
H -55.2548 -1.48884 14.4098
H -55.2359 -1.512 16.6656
H -53.3623 -0.348883 14.2969
H -53.2813 -0.370772 16.5452
H -50.8779 -0.273846 14.1241
H -45.7814 -0.354067 15.956
H -43.3338 -0.292066 13.6976
H -43.3194 -0.420065 15.9142
H -38.8294 -1.64274 13.6791
H -38.9552 -1.72283 15.9515
H -40.804 -0.434868 13.6978
H -40.8446 -0.552192 15.9058
H -45.8636 -0.21587 13.7525
H -60.4785 -10.2853 14.4933
H -60.5033 -10.2766 16.7663
