conveyor

 19132 atoms

 8 atom types

   -86          72      xlo xhi
   -48          20      ylo yhi
   -29          34      zlo zhi

 Masses

 5 12.0109997
 6 1.00796998
 7 12.0109997
 8 1.00796998
 3 12.0109997
 4 1.00796998
 1 12.0109997
 2 1.00796998

 Atoms #molecular

1   1   1   46.325000   -8.322000  2.468000
2   1   1   47.622000   -10.515000  2.477000
3   1   1   47.601000   -10.532000  0.924000
4   1   1   48.998000   -12.714000  2.507000
5   1   1   48.979000   -12.731000  0.924000
6   1   1   46.303000   -8.34000  0.911000
7   1   1   23.258000   -12.903000  2.955000
8   1   1   23.229000   -12.927000  1.357000
9   1   1   24.548000   -12.173000  3.47000
10   1   1   23.29000   -14.375000  3.512000
11   1   1   24.499000   -12.214000  0.772000
12   1   1   23.24000   -14.416000  0.844000
13   1   1   24.565000   -15.063000  2.941000
14   1   1   24.537000   -15.087000  1.387000
15   1   1   20.713000   -12.967000  2.994000
16   1   1   20.684000   -12.99000  1.416000
17   1   1   21.971000   -12.204000  3.535000
18   1   1   20.745000   -14.409000  3.603000
19   1   1   21.92000   -12.245000  0.805000
20   1   1   20.693000   -14.45000  0.85000
21   1   1   22.003000   -15.116000  2.998000
22   1   1   21.973000   -15.14000  1.428000
23   1   1   29.583000   -1.721000  2.677000
24   1   1   29.556000   -1.743000  1.079000
25   1   1   30.861000   -0.954000  3.181000
26   1   1   29.653000   -3.178000  3.245000
27   1   1   30.817000   -0.99000  0.512000
28   1   1   29.607000   -3.214000  0.548000
29   1   1   32.112000   -1.697000  2.611000
30   1   1   32.086000   -1.719000  1.057000
31   1   1   28.317000   -0.982000  3.254000
32   1   1   28.272000   -1.016000  0.524000
33   1   1   30.791000   0.51000  2.614000
34   1   1   30.767000   0.489000  1.044000
35   1   1   45.083000   -1.585000  2.439000
36   1   1   45.061000   -1.603000  0.841000
37   1   1   42.555000   -1.616000  2.45000
38   1   1   42.534000   -1.634000  0.896000
39   1   1   43.803000   -0.846000  2.984000
40   1   1   43.767000   -0.875000  0.316000
41   1   1   45.062000   -3.046000  3.004000
42   1   1   45.026000   -3.076000  0.306000
43   1   1   43.819000   0.621000  2.42000
44   1   1   43.797000   0.604000  0.85000
45   1   1   46.345000   -0.814000  2.983000
46   1   1   46.31000   -0.844000  0.251000
47   1   1   50.304000   -12.007000  3.046000
48   1   1   50.271000   -12.031000  0.346000
49   1   1   51.591000   -12.708000  2.489000
50   1   1   51.572000   -12.72000  0.89000
51   1   1   51.573000   -14.205000  0.368000
52   1   1   50.319000   -14.887000  2.501000
53   1   1   50.303000   -14.904000  0.947000
54   1   1   51.603000   -14.182000  3.038000
55   1   1   52.884000   -11.998000  3.041000
56   1   1   52.85000   -12.011000  0.302000
57   1   1   52.893000   -14.887000  2.479000
58   1   1   52.875000   -14.901000  0.908000
59   1   1   45.124000   -25.422000  3.308000
60   1   1   43.844000   -26.166000  2.788000
61   1   1   45.101000   -23.973000  2.725000
62   1   1   45.111000   -25.455000  0.633000
63   1   1   43.835000   -26.186000  1.189000
64   1   1   45.091000   -23.991000  1.17000
65   1   1   42.61000   -25.38000  3.339000
66   1   1   42.588000   -25.42000  0.639000
67   1   1   46.365000   -26.194000  2.76000
68   1   1   46.364000   -26.213000  1.188000
69   1   1   43.872000   -27.629000  3.373000
70   1   1   43.856000   -27.664000  0.638000
71   1   1   29.757000   -25.416000  3.572000
72   1   1   29.735000   -25.488000  0.902000
73   1   1   32.267000   -25.449000  0.857000
74   1   1   31.035000   -26.159000  3.043000
75   1   1   29.788000   -23.978000  2.98000
76   1   1   29.77000   -24.019000  1.426000
77   1   1   31.024000   -26.204000  1.444000
78   1   1   32.292000   -25.383000  3.561000
79   1   1   31.001000   -27.684000  0.914000
80   1   1   28.496000   -26.199000  3.051000
81   1   1   28.485000   -26.243000  1.481000
82   1   1   31.014000   -27.603000  3.656000
83   1   5   37.435000   -12.041000  3.214000
84   1   5   38.709000   -12.781000  2.662000
85   1   5   37.388000   -12.079000  0.549000
86   1   5   38.682000   -12.804000  1.073000
87   1   5   33.613000   -14.285000  3.311000
88   1   5   32.314000   -15.035000  2.796000
89   1   5   33.595000   -12.819000  2.758000
90   1   5   34.889000   -15.02000  2.767000
91   1   5   33.565000   -14.326000  0.668000
92   1   5   34.86000   -15.045000  1.184000
93   1   1   43.798000   -8.309000  2.51000
94   1   1   45.079000   -7.565000  3.026000
95   1   1   43.812000   -9.787000  3.044000
96   1   1   43.774000   -8.329000  0.94000
97   1   1   45.039000   -7.598000  0.372000
98   1   1   43.773000   -9.821000  0.441000
99   1   5   32.286000   -15.06000  1.25000
100   1   5   32.272000   -16.56000  0.79000
101   1   1   30.913000   -3.941000  2.676000
102   1   1   30.886000   -3.963000  1.093000
103   1   1   43.878000   -23.163000  3.268000
104   1   1   42.579000   -23.91000  2.763000
105   1   1   43.894000   -21.681000  2.706000
106   1   1   43.849000   -23.2000  0.624000
107   1   1   42.562000   -23.934000  1.18000
108   1   5   36.171000   -14.268000  3.274000
109   1   5   34.905000   -16.487000  3.319000
110   1   5   36.123000   -14.309000  0.607000
111   1   5   34.857000   -16.529000  0.677000
112   1   1   45.095000   -10.527000  2.519000
113   1   1   45.072000   -10.548000  0.949000
114   1   5   39.992000   -12.025000  3.159000
115   1   5   39.969000   -10.555000  2.602000
116   1   5   41.266000   -12.767000  2.61000
117   1   5   39.948000   -12.063000  0.506000
118   1   5   41.24000   -12.789000  1.031000
119   1   1   28.514000   -18.743000  3.495000
120   1   1   29.761000   -19.493000  2.922000
121   1   1   28.467000   -18.789000  0.798000
122   1   1   29.733000   -19.523000  1.347000
123   1   5   38.686000   -14.291000  0.559000
124   1   1   34.756000   -3.221000  0.459000
125   1   5   39.944000   -10.577000  1.023000
126   1   5   41.208000   -9.831000  0.467000
127   1   1   32.202000   -3.166000  3.172000
128   1   1   30.949000   -5.423000  3.223000
129   1   1   32.157000   -3.203000  0.532000
130   1   1   30.903000   -5.46000  0.586000
131   1   1   46.369000   -9.774000  3.035000
132   1   1   46.331000   -9.807000  0.381000
133   1   5   36.179000   -17.223000  2.775000
134   1   5   36.15000   -17.248000  1.194000
135   1   1   45.091000   -12.036000  0.451000
136   1   1   31.004000   -18.79000  0.804000
137   1   1   32.297000   -19.52000  1.314000
138   1   5   42.552000   -12.017000  3.102000
139   1   5   41.287000   -14.238000  3.158000
140   1   5   42.51000   -12.053000  0.476000
141   1   5   41.244000   -14.275000  0.525000
142   1   1   29.75000   -20.988000  0.81000
143   1   1   28.465000   -8.445000  2.771000
144   1   1   28.437000   -8.468000  1.214000
145   1   1   43.803000   -3.836000  2.469000
146   1   1   43.78000   -3.855000  0.887000
147   1   1   37.361000   -3.166000  3.109000
148   1   1   37.317000   -3.203000  0.414000
149   1   1   32.237000   -6.148000  2.675000
150   1   1   32.209000   -6.171000  1.108000
151   1   1   32.324000   -19.492000  2.865000
152   1   5   33.617000   -18.733000  3.335000
153   1   1   32.334000   -20.963000  3.416000
154   1   5   33.571000   -18.777000  0.775000
155   1   1   32.29000   -21.012000  0.811000
156   1   5   42.574000   -14.976000  2.603000
157   1   5   42.55000   -14.998000  1.059000
158   1   5   37.466000   -16.473000  3.277000
159   1   5   37.447000   -15.004000  2.721000
160   1   5   38.738000   -17.21000  2.724000
161   1   5   37.418000   -16.514000  0.62000
162   1   5   38.711000   -17.234000  1.145000
163   1   1   47.704000   -11.975000  3.039000
164   1   1   47.67000   -12.007000  0.401000
165   1   5   36.141000   -18.734000  0.691000
166   1   1   33.517000   -5.379000  3.159000
167   1   1   33.495000   -3.894000  2.625000
168   1   1   34.8000   -6.119000  2.62000
169   1   1   33.472000   -5.415000  0.557000
170   1   1   34.774000   -6.141000  1.069000
171   1   1   32.227000   -7.67000  0.61000
172   1   1   29.722000   -7.679000  3.286000
173   1   1   28.459000   -9.896000  3.342000
174   1   1   29.675000   -7.717000  0.632000
175   1   1   28.411000   -9.935000  0.688000
176   1   1   38.641000   -3.872000  2.538000
177   1   1   38.616000   -3.892000  0.963000
178   1   5   43.874000   -14.225000  3.078000
179   1   5   43.841000   -12.749000  2.558000
180   1   1   45.158000   -14.968000  2.567000
181   1   5   43.836000   -14.261000  0.523000
182   1   1   45.136000   -14.99000  1.017000
183   1   1   33.614000   -21.698000  2.887000
184   1   1   33.588000   -21.728000  1.319000
185   1   5   42.564000   -16.502000  0.602000
186   1   5   40.023000   -16.46000  3.215000
187   1   5   38.758000   -18.679000  3.271000
188   1   5   39.978000   -16.499000  0.581000
189   1   5   38.712000   -18.721000  0.642000
190   1   1   25.849000   -12.865000  2.898000
191   1   1   25.82000   -12.889000  1.316000
192   1   1   36.091000   -5.366000  3.107000
193   1   5   34.824000   -7.601000  3.143000
194   1   1   36.048000   -5.402000  0.517000
195   1   5   34.78000   -7.637000  0.587000
196   1   1   39.92000   -3.146000  3.068000
197   1   1   41.22000   -3.836000  2.499000
198   1   1   39.879000   -3.18000  0.377000
199   1   1   41.196000   -3.855000  0.926000
200   1   1   29.728000   -10.633000  2.788000
201   1   1   29.7000   -10.656000  1.218000
202   1   1   38.626000   -5.381000  0.473000
203   1   1   31.049000   -23.184000  3.495000
204   1   1   31.012000   -23.243000  0.851000
205   1   1   38.749000   -21.646000  2.789000
206   1   1   38.724000   -21.672000  1.219000
207   1   5   40.028000   -19.439000  2.722000
208   1   5   40.002000   -19.463000  1.166000
209   1   1   48.985000   -14.23000  0.411000
210   1   1   34.861000   -20.974000  0.764000
211   1   1   36.161000   -21.684000  1.269000
212   1   1   46.446000   -14.212000  3.066000
213   1   1   45.163000   -16.444000  3.11000
214   1   1   33.592000   -23.218000  0.811000
215   1   1   31.02000   -9.879000  3.272000
216   1   1   30.996000   -8.405000  2.732000
217   1   5   32.301000   -10.616000  2.742000
218   1   1   30.973000   -9.918000  0.665000
219   1   5   32.273000   -10.639000  1.17000
220   1   1   42.515000   -3.087000  3.008000
221   1   1   41.242000   -5.32000  3.03000
222   1   1   42.477000   -3.117000  0.368000
223   1   1   41.203000   -5.352000  0.428000
224   1   1   29.684000   -12.142000  0.724000
225   1   1   27.15000   -12.107000  3.39000
226   1   1   25.87000   -14.348000  3.45000
227   1   1   27.102000   -12.148000  0.753000
228   1   1   25.822000   -14.389000  0.809000
229   1   5   36.108000   -8.355000  2.625000
230   1   5   36.082000   -8.377000  1.079000
231   1   5   41.284000   -18.74000  0.635000
232   1   1   42.582000   -19.474000  1.126000
233   1   1   40.004000   -20.951000  0.667000
234   1   1   36.187000   -21.657000  2.839000
235   1   1   37.476000   -20.898000  3.319000
236   1   1   36.204000   -23.118000  3.408000
237   1   1   37.432000   -20.942000  0.714000
238   1   1   36.161000   -23.163000  0.752000
239   1   5   33.584000   -9.853000  3.238000
240   1   5   32.316000   -12.087000  3.296000
241   1   5   33.537000   -9.891000  0.605000
242   1   5   32.268000   -12.127000  0.662000
243   1   1   46.435000   -17.187000  2.594000
244   1   1   45.127000   -16.482000  0.518000
245   1   1   46.416000   -17.212000  1.019000
246   1   5   34.902000   -19.459000  2.822000
247   1   5   34.874000   -19.486000  1.263000
248   1   1   42.52000   -6.068000  2.502000
249   1   1   42.497000   -6.088000  0.935000
250   1   5   37.397000   -7.578000  3.071000
251   1   1   37.376000   -6.098000  2.569000
252   1   5   38.683000   -8.334000  2.578000
253   1   5   37.356000   -7.613000  0.564000
254   1   5   38.658000   -8.356000  1.033000
255   1   1   27.149000   -15.091000  2.903000
256   1   1   27.121000   -15.116000  1.33000
257   1   5   36.093000   -9.874000  0.553000
258   1   1   47.687000   -16.42000  3.127000
259   1   1   47.729000   -14.958000  2.545000
260   1   1   47.656000   -16.461000  0.431000
261   1   1   37.473000   -23.825000  2.844000
262   1   1   37.449000   -23.853000  1.287000
263   1   1   46.383000   -18.685000  0.479000
264   1   1   32.336000   -23.928000  2.962000
265   1   1   42.605000   -19.451000  2.674000
266   1   1   43.889000   -18.688000  3.162000
267   1   1   42.615000   -20.928000  3.226000
268   1   1   43.851000   -18.726000  0.573000
269   1   1   42.577000   -20.968000  0.624000
270   1   1   28.44000   -14.326000  3.383000
271   1   1   28.427000   -12.853000  2.843000
272   1   1   29.724000   -15.061000  2.844000
273   1   1   28.393000   -14.366000  0.78000
274   1   1   29.696000   -15.086000  1.294000
275   1   5   39.972000   -7.561000  3.05000
276   1   5   38.695000   -9.816000  3.143000
277   1   5   39.932000   -7.595000  0.498000
278   1   5   38.651000   -9.853000  0.507000
279   1   1   27.174000   -16.595000  0.79000
280   1   1   43.813000   -5.323000  3.011000
281   1   1   45.05000   -6.113000  2.459000
282   1   1   43.774000   -5.354000  0.374000
283   1   1   45.027000   -6.132000  0.906000
284   1   5   33.566000   -12.843000  1.175000
285   1   1   42.487000   -7.588000  0.434000
286   1   1   38.753000   -23.104000  3.357000
287   1   1   40.006000   -23.829000  2.792000
288   1   1   38.711000   -23.15000  0.701000
289   1   1   39.984000   -23.857000  1.24000
290   1   1   31.027000   -17.276000  2.85000
291   1   1   30.999000   -17.302000  1.309000
292   1   5   31.018000   -14.303000  3.312000
293   1   1   29.752000   -16.533000  3.387000
294   1   5   30.972000   -14.343000  0.759000
295   1   1   29.705000   -16.575000  0.795000
296   1   1   43.874000   -21.703000  1.131000
297   1   5   34.877000   -12.062000  3.263000
298   1   5   34.858000   -10.594000  2.7000
299   1   5   36.152000   -12.799000  2.713000
300   1   5   34.829000   -12.102000  0.6000
301   1   5   36.124000   -12.822000  1.122000
302   1   1   45.115000   -20.923000  0.539000
303   1   1   41.312000   -23.142000  3.301000
304   1   1   41.276000   -23.186000  0.662000
305   1   5   41.25000   -9.795000  3.094000
306   1   5   41.245000   -8.316000  2.541000
307   1   5   42.526000   -10.542000  2.555000
308   1   5   42.502000   -10.563000  0.985000
309   1   1   46.417000   -18.641000  3.18000
310   1   1   45.168000   -19.428000  2.648000
311   1   5   37.419000   -15.028000  1.131000
312   1   5   32.318000   -16.519000  3.301000
313   1   5   33.615000   -17.252000  2.806000
314   1   5   33.586000   -17.278000  1.259000
315   1   1   29.708000   -6.231000  2.714000
316   1   1   29.681000   -6.254000  1.161000
317   1   1   33.469000   -3.917000  1.051000
318   1   5   43.818000   -12.771000  1.001000
319   1   5   38.733000   -14.251000  3.221000
320   1   5   40.003000   -14.99000  2.666000
321   1   5   39.977000   -15.013000  1.086000
322   1   1   34.801000   -3.183000  3.151000
323   1   1   36.075000   -3.891000  2.58000
324   1   1   36.049000   -3.912000  1.005000
325   1   1   34.906000   -20.929000  3.369000
326   1   1   46.412000   -14.247000  0.462000
327   1   1   45.128000   -12.001000  3.054000
328   1   1   46.423000   -12.737000  2.529000
329   1   1   46.402000   -12.757000  0.961000
330   1   1   29.795000   -20.935000  3.505000
331   1   1   31.035000   -21.716000  2.934000
332   1   1   31.01000   -21.749000  1.361000
333   1   1   27.195000   -10.648000  2.825000
334   1   1   27.167000   -10.671000  1.272000
335   1   1   30.968000   -8.428000  1.161000
336   1   5   41.299000   -17.215000  2.657000
337   1   5   41.274000   -17.238000  1.115000
338   1   1   31.051000   -18.745000  3.398000
339   1   5   36.188000   -18.691000  3.323000
340   1   5   37.465000   -19.427000  2.778000
341   1   5   37.438000   -19.453000  1.208000
342   1   1   32.272000   -7.633000  3.214000
343   1   5   33.548000   -8.375000  2.679000
344   1   5   33.521000   -8.398000  1.12000
345   1   1   37.352000   -6.119000  1.029000
346   1   5   42.603000   -16.466000  3.103000
347   1   1   43.883000   -17.211000  2.613000
348   1   1   43.861000   -17.233000  1.074000
349   1   1   32.315000   -23.964000  1.379000
350   1   1   47.711000   -14.98000  0.97000
351   1   1   38.667000   -5.346000  3.064000
352   1   1   39.954000   -6.079000  2.532000
353   1   1   39.93000   -6.099000  0.982000
354   1   1   28.399000   -12.877000  1.276000
355   1   1   49.017000   -14.198000  3.054000
356   1   1   34.906000   -23.879000  1.341000
357   1   1   45.15000   -20.885000  3.232000
358   1   1   29.732000   -12.103000  3.327000
359   1   5   31.016000   -12.832000  2.792000
360   1   5   30.987000   -12.856000  1.234000
361   1   5   34.83000   -10.617000  1.118000
362   1   1   40.045000   -20.908000  3.269000
363   1   1   41.32000   -21.671000  2.741000
364   1   1   41.297000   -21.696000  1.174000
365   1   1   34.928000   -23.85000  2.894000
366   1   1   45.146000   -19.45000  1.073000
367   1   5   41.221000   -8.337000  0.985000
368   1   5   36.139000   -9.836000  3.194000
369   1   5   37.413000   -10.574000  2.651000
370   1   5   37.387000   -10.596000  1.069000
371   1   5   41.325000   -18.701000  3.183000
372   1   1   27.223000   -16.552000  3.484000
373   1   1   28.469000   -17.294000  2.912000
374   1   1   28.441000   -17.32000  1.338000
375   1   1   33.633000   -23.167000  3.451000
376   1   1   42.526000   -7.555000  3.035000
377   1   1   46.24000   -8.385000  -1.787000
378   1   1   47.543000   -10.584000  -1.771000
379   1   1   48.928000   -12.773000  -1.686000
380   1   1   23.203000   -12.983000  -1.27000
381   1   1   24.483000   -12.248000  -0.782000
382   1   1   23.226000   -14.451000  -0.749000
383   1   1   24.511000   -15.129000  -1.312000
384   1   1   20.66000   -13.035000  -1.31000
385   1   1   21.907000   -12.276000  -0.765000
386   1   1   20.68000   -14.478000  -0.728000
387   1   1   21.95000   -15.189000  -1.282000
388   1   1   29.537000   -1.789000  -1.549000
389   1   1   30.808000   -1.019000  -1.081000
390   1   1   29.595000   -3.241000  -1.007000
391   1   1   32.053000   -1.778000  -1.64000
392   1   1   28.26000   -1.047000  -1.046000
393   1   1   30.745000   0.433000  -1.667000
394   1   1   45.001000   -1.642000  -1.786000
395   1   1   42.484000   -1.685000  -1.801000
396   1   1   43.728000   -0.901000  -1.277000
397   1   1   44.989000   -3.099000  -1.248000
398   1   1   43.74000   0.554000  -1.86000
399   1   1   46.275000   -0.871000  -1.318000
400   1   1   50.239000   -12.056000  -1.209000
401   1   1   51.517000   -12.759000  -1.739000
402   1   1   50.247000   -14.934000  -1.751000
403   1   1   51.539000   -14.231000  -1.225000
404   1   1   52.813000   -12.027000  -1.267000
405   1   1   52.815000   -14.934000  -1.803000
406   1   1   45.112000   -25.456000  -0.96000
407   1   1   43.826000   -26.191000  -1.442000
408   1   1   45.068000   -24.002000  -1.529000
409   1   1   42.582000   -25.427000  -0.917000
410   1   1   46.359000   -26.221000  -1.524000
411   1   1   43.847000   -27.666000  -0.932000
412   1   1   29.719000   -25.51000  -0.692000
413   1   1   31.0000   -26.247000  -1.187000
414   1   1   29.751000   -24.063000  -1.275000
415   1   1   32.251000   -25.472000  -0.697000
416   1   1   28.47000   -26.289000  -1.231000
417   1   1   30.993000   -27.713000  -0.654000
418   1   5   37.36000   -12.094000  -1.04000
419   1   5   38.64000   -12.841000  -1.584000
420   1   5   33.518000   -14.365000  -0.914000
421   1   5   32.183000   -15.143000  -1.234000
422   1   5   33.508000   -12.899000  -1.488000
423   1   5   34.791000   -15.105000  -1.492000
424   1   1   43.718000   -8.369000  -1.651000
425   1   1   45.007000   -7.62000  -1.209000
426   1   1   43.749000   -9.841000  -1.119000
427   1   1   30.86000   -4.009000  -1.517000
428   1   1   43.835000   -23.209000  -0.958000
429   1   1   42.536000   -23.95000  -1.432000
430   1   1   43.819000   -21.725000  -1.479000
431   1   5   36.089000   -14.339000  -0.983000
432   1   5   34.81000   -16.565000  -0.905000
433   1   1   45.02000   -10.592000  -1.643000
434   1   5   39.925000   -12.083000  -1.079000
435   1   5   39.893000   -10.599000  -1.635000
436   1   5   41.207000   -12.836000  -1.624000
437   1   1   28.46000   -18.803000  -0.76000
438   1   1   29.722000   -19.547000  -1.271000
439   1   1   32.141000   -3.234000  -1.049000
440   1   1   30.885000   -5.486000  -0.988000
441   1   1   46.302000   -9.832000  -1.201000
442   1   5   36.095000   -17.296000  -1.464000
443   1   5   42.491000   -12.077000  -1.1000
444   1   5   41.238000   -14.311000  -1.055000
445   1   1   28.414000   -8.522000  -1.486000
446   1   1   43.725000   -3.894000  -1.722000
447   1   1   37.292000   -3.249000  -1.143000
448   1   1   32.178000   -6.216000  -1.481000
449   1   1   32.259000   -19.556000  -1.262000
450   1   5   33.535000   -18.807000  -0.764000
451   1   1   32.269000   -21.032000  -0.756000
452   1   5   42.567000   -15.083000  -1.424000
453   1   5   37.394000   -16.543000  -0.965000
454   1   5   37.376000   -15.073000  -1.527000
455   1   5   38.686000   -17.279000  -1.511000
456   1   1   47.64000   -12.032000  -1.173000
457   1   1   33.45000   -5.447000  -1.01000
458   1   1   33.428000   -3.981000  -1.559000
459   1   1   34.733000   -6.188000  -1.504000
460   1   1   29.655000   -7.743000  -0.95000
461   1   1   28.389000   -9.965000  -0.894000
462   1   1   38.575000   -3.968000  -1.651000
463   1   5   43.822000   -14.289000  -1.016000
464   1   5   43.788000   -12.827000  -1.574000
465   1   1   45.089000   -15.024000  -1.556000
466   1   1   33.545000   -21.759000  -1.271000
467   1   5   39.975000   -16.533000  -0.998000
468   1   5   38.693000   -18.75000  -0.933000
469   1   1   25.791000   -12.941000  -1.295000
470   1   1   36.023000   -5.436000  -1.046000
471   1   5   34.754000   -7.649000  -0.953000
472   1   1   39.851000   -3.221000  -1.178000
473   1   1   41.154000   -3.914000  -1.684000
474   1   1   29.667000   -10.706000  -1.375000
475   1   1   30.992000   -23.262000  -0.73000
476   1   1   38.684000   -21.697000  -1.374000
477   1   5   39.985000   -19.502000  -1.408000
478   1   1   46.381000   -14.269000  -1.104000
479   1   1   45.095000   -16.501000  -1.044000
480   1   1   30.945000   -9.941000  -0.894000
481   1   1   30.939000   -8.473000  -1.432000
482   1   5   32.208000   -10.669000  -1.418000
483   1   1   42.443000   -3.144000  -1.213000
484   1   1   41.175000   -5.381000  -1.138000
485   1   1   27.082000   -12.178000  -0.821000
486   1   1   25.807000   -14.419000  -0.772000
487   1   5   36.052000   -8.341000  -1.41000
488   1   1   36.115000   -21.71000  -1.325000
489   1   1   37.406000   -20.969000  -0.845000
490   1   1   36.134000   -23.183000  -0.83000
491   1   5   33.508000   -9.909000  -0.973000
492   1   5   32.233000   -12.155000  -0.916000
493   1   1   46.345000   -17.233000  -1.597000
494   1   5   34.807000   -19.527000  -1.315000
495   1   1   42.444000   -6.127000  -1.652000
496   1   5   37.331000   -7.613000  -0.952000
497   1   1   37.31000   -6.166000  -1.53000
498   1   5   38.607000   -8.318000  -1.452000
499   1   1   27.099000   -15.146000  -1.283000
500   1   1   47.617000   -16.478000  -1.124000
501   1   1   47.652000   -15.007000  -1.641000
502   1   1   37.405000   -23.875000  -1.413000
503   1   1   32.279000   -24.001000  -1.234000
504   1   1   42.534000   -19.506000  -1.445000
505   1   1   43.818000   -18.743000  -0.989000
506   1   1   42.549000   -20.984000  -0.942000
507   1   1   28.375000   -14.39000  -0.786000
508   1   1   28.366000   -12.925000  -1.313000
509   1   1   29.66000   -15.122000  -1.279000
510   1   5   39.908000   -7.605000  -1.04000
511   1   5   38.622000   -9.852000  -1.075000
512   1   1   43.741000   -5.376000  -1.2000
513   1   1   44.959000   -6.173000  -1.788000
514   1   1   38.689000   -23.17000  -0.881000
515   1   1   39.951000   -23.875000  -1.458000
516   1   1   30.963000   -17.337000  -1.253000
517   1   5   30.934000   -14.372000  -0.779000
518   1   1   29.688000   -16.594000  -0.767000
519   1   5   34.797000   -12.126000  -0.987000
520   1   5   34.786000   -10.645000  -1.545000
521   1   5   36.075000   -12.864000  -1.539000
522   1   1   41.257000   -23.202000  -0.912000
523   1   5   41.183000   -9.846000  -1.109000
524   1   5   41.167000   -8.351000  -1.59000
525   1   5   42.479000   -10.587000  -1.6000
526   1   1   46.342000   -18.7000  -1.077000
527   1   1   45.072000   -19.469000  -1.542000
528   1   5   32.226000   -16.594000  -0.725000
529   1   5   33.473000   -17.341000  -1.228000
530   1   1   29.662000   -6.301000  -1.535000
531   1   5   38.669000   -14.319000  -1.029000
532   1   5   39.96000   -15.065000  -1.584000
533   1   1   34.733000   -3.265000  -1.095000
534   1   1   36.006000   -3.99000  -1.609000
535   1   1   34.832000   -20.995000  -0.798000
536   1   1   45.065000   -12.062000  -1.111000
537   1   1   46.352000   -12.799000  -1.627000
538   1   1   29.74000   -21.003000  -0.745000
539   1   1   30.989000   -21.782000  -1.253000
540   1   1   27.14000   -10.732000  -1.424000
541   1   5   41.303000   -17.304000  -1.365000
542   1   1   30.986000   -18.809000  -0.759000
543   1   5   36.11000   -18.764000  -0.885000
544   1   5   37.396000   -19.516000  -1.378000
545   1   1   32.205000   -7.694000  -0.952000
546   1   5   33.488000   -8.416000  -1.458000
547   1   5   42.559000   -16.536000  -0.913000
548   1   1   43.812000   -17.266000  -1.483000
549   1   1   38.6000   -5.414000  -1.088000
550   1   1   39.887000   -6.143000  -1.589000
551   1   1   48.952000   -14.254000  -1.17000
552   1   1   45.079000   -20.931000  -1.016000
553   1   1   29.66000   -12.171000  -0.838000
554   1   5   30.93000   -12.917000  -1.343000
555   1   1   39.981000   -20.971000  -0.894000
556   1   1   41.258000   -21.721000  -1.415000
557   1   1   34.859000   -23.902000  -1.356000
558   1   5   36.067000   -9.874000  -1.03000
559   1   5   37.339000   -10.608000  -1.607000
560   1   5   41.269000   -18.77000  -0.901000
561   1   1   27.167000   -16.612000  -0.765000
562   1   1   28.43000   -17.342000  -1.281000
563   1   1   33.568000   -23.239000  -0.763000
564   1   1   42.457000   -7.608000  -1.127000
565   1   1   47.636000   -10.503000  5.179000
566   1   1   49.011000   -12.697000  5.12000
567   1   1   46.337000   -8.304000  5.173000
568   1   1   23.33000   -12.879000  5.582000
569   1   1   24.589000   -12.16000  5.024000
570   1   1   23.334000   -14.362000  5.105000
571   1   1   24.64000   -15.023000  5.639000
572   1   1   20.79000   -12.929000  5.719000
573   1   1   22.015000   -12.187000  5.105000
574   1   1   20.789000   -14.389000  5.18000
575   1   1   22.08000   -15.083000  5.708000
576   1   1   29.651000   -1.699000  5.304000
577   1   1   30.904000   -0.94000  4.774000
578   1   1   29.695000   -3.163000  4.799000
579   1   1   32.171000   -1.682000  5.308000
580   1   1   28.356000   -0.972000  4.824000
581   1   1   30.853000   0.525000  5.329000
582   1   1   45.091000   -1.568000  5.068000
583   1   1   42.578000   -1.607000  5.148000
584   1   1   43.807000   -0.836000  4.577000
585   1   1   45.067000   -3.034000  4.559000
586   1   1   43.836000   0.63000  5.132000
587   1   1   46.351000   -0.808000  4.553000
588   1   1   50.312000   -12.002000  4.602000
589   1   1   51.598000   -12.704000  5.121000
590   1   1   51.607000   -14.18000  4.633000
591   1   1   50.325000   -14.86000  5.205000
592   1   1   52.887000   -11.992000  4.613000
593   1   1   52.896000   -14.87000  5.198000
594   1   1   45.139000   -25.384000  4.905000
595   1   1   43.863000   -26.106000  5.419000
596   1   1   45.113000   -23.917000  5.438000
597   1   1   42.626000   -25.341000  4.894000
598   1   1   46.365000   -26.146000  5.498000
599   1   1   43.877000   -27.594000  4.943000
600   1   1   29.769000   -25.357000  5.165000
601   1   1   32.307000   -25.336000  5.117000
602   1   1   29.831000   -23.891000  5.68000
603   1   1   31.054000   -26.066000  5.676000
604   1   1   31.026000   -27.55000  5.228000
605   1   1   28.522000   -26.097000  5.761000
606   1   5   37.464000   -12.009000  4.803000
607   1   5   38.763000   -12.739000  5.319000
608   1   5   33.625000   -14.276000  4.896000
609   1   5   34.919000   -14.999000  5.45000
610   1   1   43.819000   -8.284000  5.101000
611   1   1   45.094000   -7.548000  4.608000
612   1   1   43.836000   -9.766000  4.602000
613   1   5   32.303000   -15.039000  5.288000
614   1   5   32.328000   -16.503000  4.82000
615   1   1   30.978000   -3.915000  5.286000
616   1   1   43.896000   -23.125000  4.849000
617   1   1   42.612000   -23.848000  5.375000
618   1   5   36.195000   -14.252000  4.866000
619   1   5   34.917000   -16.473000  4.904000
620   1   1   45.117000   -10.505000  5.111000
621   1   5   40.024000   -11.998000  4.742000
622   1   5   41.323000   -12.735000  5.26000
623   1   1   28.564000   -18.704000  5.052000
624   1   1   29.843000   -19.426000  5.541000
625   1   5   38.773000   -14.231000  4.809000
626   1   1   34.832000   -3.183000  4.706000
627   1   5   40.011000   -10.5000  5.255000
628   1   5   41.277000   -9.766000  4.668000
629   1   1   32.241000   -3.153000  4.753000
630   1   1   30.987000   -5.405000  4.797000
631   1   1   46.385000   -9.76000  4.618000
632   1   5   36.222000   -17.188000  5.439000
633   1   1   45.147000   -11.986000  4.615000
634   1   1   31.089000   -18.711000  4.96000
635   1   1   32.379000   -19.439000  5.442000
636   1   5   42.584000   -11.996000  4.676000
637   1   5   41.334000   -14.226000  4.737000
638   1   1   29.839000   -20.892000  5.059000
639   1   1   28.538000   -8.42000  5.471000
640   1   1   43.819000   -3.817000  5.08000
641   1   1   37.387000   -3.169000  4.667000
642   1   1   32.297000   -6.12000  5.264000
643   1   5   33.637000   -18.711000  4.877000
644   1   1   32.367000   -20.926000  4.982000
645   1   5   42.667000   -14.992000  5.083000
646   1   5   37.5000   -16.453000  4.864000
647   1   5   38.811000   -17.173000  5.382000
648   1   1   47.717000   -11.962000  4.614000
649   1   5   36.214000   -18.67000  4.9000
650   1   1   33.549000   -5.366000  4.725000
651   1   1   34.848000   -6.094000  5.193000
652   1   1   32.307000   -7.611000  4.776000
653   1   1   29.759000   -7.659000  4.868000
654   1   1   28.494000   -9.878000  4.923000
655   1   1   38.682000   -3.879000  5.154000
656   1   5   43.905000   -14.21000  4.616000
657   1   1   45.182000   -14.93000  5.142000
658   1   1   33.66000   -21.635000  5.478000
659   1   5   42.645000   -16.457000  4.616000
660   1   5   40.075000   -16.445000  4.794000
661   1   5   38.794000   -18.658000  4.847000
662   1   1   25.916000   -12.837000  5.508000
663   1   1   36.119000   -5.356000  4.67000
664   1   5   34.851000   -7.569000  4.682000
665   1   1   39.941000   -3.148000  4.624000
666   1   1   41.253000   -3.833000  5.111000
667   1   1   29.789000   -10.605000  5.381000
668   1   1   38.692000   -5.338000  4.626000
669   1   1   31.073000   -23.137000  5.076000
670   1   1   38.797000   -21.584000  5.382000
671   1   5   40.098000   -19.397000  5.296000
672   1   1   49.023000   -14.186000  4.636000
673   1   1   34.932000   -20.896000  4.93000
674   1   1   36.231000   -21.595000  5.432000
675   1   1   33.657000   -23.129000  5.025000
676   1   1   31.048000   -9.857000  4.832000
677   1   5   32.33000   -10.569000  5.333000
678   1   1   42.526000   -3.077000  4.589000
679   1   1   41.262000   -5.31000  4.596000
680   1   1   29.763000   -12.084000  4.888000
681   1   1   27.187000   -12.09000  4.964000
682   1   1   25.913000   -14.329000  5.031000
683   1   5   36.163000   -8.249000  5.11000
684   1   5   41.36000   -18.685000  4.718000
685   1   1   42.638000   -19.404000  5.246000
686   1   1   40.074000   -20.878000  4.829000
687   1   1   37.504000   -20.873000  4.878000
688   1   1   36.228000   -23.083000  4.99000
689   1   5   33.612000   -9.825000  4.817000
690   1   5   32.339000   -12.068000  4.876000
691   1   1   45.174000   -16.418000  4.672000
692   1   1   46.435000   -17.132000  5.214000
693   1   5   34.927000   -19.415000  5.402000
694   1   1   42.545000   -6.046000  5.09000
695   1   5   37.422000   -7.536000  4.586000
696   1   5   38.712000   -8.228000  5.059000
697   1   1   27.223000   -15.041000  5.515000
698   1   5   36.169000   -9.791000  4.776000
699   1   1   47.689000   -16.394000  4.683000
700   1   1   37.518000   -23.749000  5.551000
701   1   1   46.421000   -18.609000  4.739000
702   1   1   43.903000   -18.659000  4.724000
703   1   1   42.634000   -20.895000  4.791000
704   1   1   28.479000   -14.301000  4.949000
705   1   1   29.782000   -15.017000  5.418000
706   1   5   39.997000   -7.53000  4.587000
707   1   5   38.72000   -9.77000  4.723000
708   1   1   27.271000   -16.52000  5.038000
709   1   1   43.826000   -5.308000  4.585000
710   1   1   45.061000   -6.089000  5.156000
711   1   5   33.634000   -12.796000  5.427000
712   1   1   42.544000   -7.535000  4.596000
713   1   1   38.779000   -23.069000  4.939000
714   1   1   40.054000   -23.754000  5.494000
715   1   1   31.084000   -17.227000  5.412000
716   1   5   31.037000   -14.284000  4.851000
717   1   1   29.791000   -16.502000  4.949000
718   1   1   43.911000   -21.622000  5.318000
719   1   5   34.903000   -12.04000  4.852000
720   1   5   36.201000   -12.761000  5.377000
721   1   1   45.158000   -20.848000  4.788000
722   1   1   41.335000   -23.106000  4.874000
723   1   5   42.585000   -10.495000  5.137000
724   1   5   37.503000   -14.968000  5.382000
725   1   5   33.594000   -17.233000  5.301000
726   1   1   29.785000   -6.202000  5.411000
727   1   1   33.546000   -3.886000  5.236000
728   1   1   43.888000   -12.736000  5.134000
729   1   5   40.082000   -14.961000  5.336000
730   1   1   36.12000   -3.896000  5.196000
731   1   1   46.457000   -14.191000  4.633000
732   1   1   46.443000   -12.711000  5.119000
733   1   1   31.101000   -21.648000  5.549000
734   1   1   27.265000   -10.628000  5.521000
735   1   1   31.059000   -8.375000  5.325000
736   1   5   41.408000   -17.208000  5.134000
737   1   5   37.516000   -19.407000  5.365000
738   1   5   33.607000   -8.32000  5.257000
739   1   1   37.419000   -6.076000  5.128000
740   1   1   43.911000   -17.169000  5.172000
741   1   1   32.372000   -23.852000  5.576000
742   1   1   47.737000   -14.915000  5.159000
743   1   1   39.992000   -6.057000  5.104000
744   1   1   28.489000   -12.822000  5.432000
745   1   1   34.966000   -23.773000  5.594000
746   1   5   31.051000   -12.814000  5.371000
747   1   5   34.911000   -10.544000  5.365000
748   1   1   41.361000   -21.612000  5.33000
749   1   1   45.17000   -19.368000  5.265000
750   1   5   41.272000   -8.262000  5.115000
751   1   5   37.462000   -10.507000  5.325000
752   1   1   28.553000   -17.231000  5.53000
753   1   1   37.524000   -11.994000  7.464000
754   1   1   38.796000   -12.715000  6.906000
755   1   1   33.811000   -14.198000  7.695000
756   1   1   33.715000   -12.788000  7.027000
757   1   1   35.0000   -14.969000  7.065000
758   1   1   36.282000   -14.208000  7.53000
759   1   1   35.116000   -16.391000  7.698000
760   1   1   40.075000   -11.954000  7.404000
761   1   1   40.021000   -10.512000  6.844000
762   1   1   41.313000   -12.695000  6.847000
763   1   1   36.3000   -17.134000  7.033000
764   1   1   41.298000   -14.091000  7.508000
765   1   1   37.58000   -16.409000  7.536000
766   1   1   37.547000   -14.942000  6.971000
767   1   1   38.844000   -17.106000  6.974000
768   1   1   40.051000   -16.319000  7.575000
769   1   1   38.777000   -9.858000  7.503000
770   1   1   34.967000   -12.015000  7.529000
771   1   1   34.965000   -10.567000  6.961000
772   1   1   36.241000   -12.744000  6.967000
773   1   1   38.821000   -14.177000  7.468000
774   1   1   40.095000   -14.906000  6.942000
775   1   1   36.225000   -9.887000  7.566000
776   1   1   37.495000   -10.525000  6.934000
777   1   1   37.569000   -11.98000  9.056000
778   1   1   38.864000   -12.676000  9.567000
779   1   1   33.85000   -14.185000  9.234000
780   1   1   35.114000   -14.912000  9.743000
781   1   1   36.339000   -14.18000  9.125000
782   1   1   35.152000   -16.367000  9.236000
783   1   1   40.117000   -11.928000  8.998000
784   1   1   41.38000   -12.638000  9.55000
785   1   1   38.859000   -14.145000  9.059000
786   1   1   40.093000   -10.479000  9.552000
787   1   1   36.403000   -17.088000  9.76000
788   1   1   41.349000   -14.081000  9.036000
789   1   1   37.631000   -16.379000  9.137000
790   1   1   38.916000   -17.053000  9.694000
791   1   1   40.11000   -16.298000  9.106000
792   1   1   36.271000   -9.856000  9.099000
793   1   1   38.811000   -9.82000  9.034000
794   1   1   33.813000   -12.746000  9.761000
795   1   1   35.019000   -11.999000  9.132000
796   1   1   36.325000   -12.712000  9.634000
797   1   1   37.626000   -14.892000  9.637000
798   1   1   40.138000   -14.841000  9.607000
799   1   1   35.038000   -10.552000  9.687000
800   1   1   37.566000   -10.526000  9.604000
801   1   1   37.65000   -11.941000  11.707000
802   1   1   38.908000   -12.651000  11.146000
803   1   1   33.927000   -14.159000  11.906000
804   1   1   33.87000   -12.732000  11.31000
805   1   1   35.156000   -14.893000  11.314000
806   1   1   36.427000   -14.135000  11.78000
807   1   1   35.223000   -16.327000  11.899000
808   1   1   40.175000   -11.894000  11.652000
809   1   1   40.128000   -10.455000  11.093000
810   1   1   41.421000   -12.615000  11.089000
811   1   1   36.452000   -17.054000  11.307000
812   1   1   41.443000   -14.045000  11.677000
813   1   1   37.717000   -16.308000  11.799000
814   1   1   37.677000   -14.861000  11.218000
815   1   1   38.971000   -17.017000  11.24000
816   1   1   40.215000   -16.253000  11.759000
817   1   1   38.881000   -9.76000  11.684000
818   1   1   35.126000   -11.972000  11.797000
819   1   1   35.095000   -10.532000  11.231000
820   1   1   36.38000   -12.69000  11.216000
821   1   1   38.939000   -14.097000  11.708000
822   1   1   40.198000   -14.819000  11.17000
823   1   1   36.357000   -9.801000  11.748000
824   1   1   37.614000   -10.49000  11.168000
825   1   1   37.702000   -11.929000  13.283000
826   1   1   38.966000   -12.618000  13.801000
827   1   1   34.042000   -14.122000  13.452000
828   1   1   35.293000   -14.819000  13.969000
829   1   1   36.495000   -14.096000  13.357000
830   1   1   35.31000   -16.251000  13.441000
831   1   1   40.183000   -11.89000  13.229000
832   1   1   41.416000   -12.588000  13.773000
833   1   1   38.975000   -14.058000  13.283000
834   1   1   40.142000   -10.478000  13.792000
835   1   1   36.566000   -16.915000  14.0000
836   1   1   41.434000   -14.009000  13.217000
837   1   1   37.768000   -16.226000  13.377000
838   1   1   39.03000   -16.862000  13.937000
839   1   1   40.227000   -16.171000  13.304000
840   1   1   36.431000   -9.829000  13.288000
841   1   1   38.905000   -9.789000  13.231000
842   1   1   34.061000   -12.706000  14.013000
843   1   1   35.223000   -11.967000  13.375000
844   1   1   36.496000   -12.656000  13.874000
845   1   1   37.762000   -14.777000  13.874000
846   1   1   40.239000   -14.737000  13.818000
847   1   1   35.248000   -10.551000  13.919000
848   1   1   37.695000   -10.495000  13.818000
849   1   1   37.785000   -11.898000  15.955000
850   1   1   39.005000   -12.591000  15.382000
851   1   1   34.206000   -14.053000  16.183000
852   1   1   34.155000   -12.682000  15.559000
853   1   1   35.374000   -14.776000  15.559000
854   1   1   36.605000   -14.03000  16.029000
855   1   1   35.433000   -16.156000  16.176000
856   1   1   40.229000   -11.865000  15.912000
857   1   1   40.163000   -10.478000  15.341000
858   1   1   41.436000   -12.557000  15.324000
859   1   1   36.63000   -16.852000  15.552000
860   1   1   41.475000   -13.94000  15.946000
861   1   1   37.848000   -16.118000  16.06000
862   1   1   37.815000   -14.729000  15.455000
863   1   1   39.065000   -16.785000  15.482000
864   1   1   40.268000   -16.054000  16.029000
865   1   1   38.966000   -9.801000  15.962000
866   1   1   35.356000   -11.929000  16.059000
867   1   1   35.314000   -10.541000  15.47000
868   1   1   36.559000   -12.629000  15.455000
869   1   1   39.041000   -13.987000  15.954000
870   1   1   40.269000   -14.682000  15.407000
871   1   1   36.53000   -9.814000  16.017000
872   1   1   37.74000   -10.489000  15.409000
873   1   1   37.835000   -11.878000  17.53000
874   1   1   39.064000   -12.551000  18.051000
875   1   1   34.286000   -14.012000  17.735000
876   1   1   35.506000   -14.693000  18.225000
877   1   1   36.669000   -13.988000  17.604000
878   1   1   35.503000   -16.098000  17.734000
879   1   1   40.259000   -11.845000  17.509000
880   1   1   41.467000   -12.515000  18.084000
881   1   1   39.08000   -13.947000  17.529000
882   1   1   40.212000   -10.47000  18.092000
883   1   1   36.738000   -16.729000  18.314000
884   1   1   41.496000   -13.903000  17.505000
885   1   1   37.901000   -16.058000  17.656000
886   1   1   39.131000   -16.679000  18.224000
887   1   1   40.296000   -15.999000  17.581000
888   1   1   36.589000   -9.804000  17.575000
889   1   1   39.006000   -9.796000  17.517000
890   1   1   34.298000   -12.63000  18.306000
891   1   1   35.428000   -11.905000  17.654000
892   1   1   36.668000   -12.587000  18.124000
893   1   1   37.902000   -14.644000  18.124000
894   1   1   40.31000   -14.602000  18.073000
895   1   1   35.439000   -10.521000  18.228000
896   1   1   37.818000   -10.483000  18.075000
897   1   1   37.314000   -12.162000  -3.7000
898   1   1   38.61000   -12.867000  -3.172000
899   1   1   33.594000   -14.365000  -3.705000
900   1   1   34.807000   -15.12000  -3.103000
901   1   1   36.069000   -14.376000  -3.643000
902   1   1   34.895000   -16.561000  -3.691000
903   1   1   39.871000   -12.123000  -3.746000
904   1   1   41.133000   -12.851000  -3.213000
905   1   1   38.608000   -14.347000  -3.687000
906   1   1   39.838000   -10.66000  -3.227000
907   1   1   36.106000   -17.287000  -3.057000
908   1   1   41.082000   -14.272000  -3.832000
909   1   1   37.363000   -16.58000  -3.632000
910   1   1   38.65000   -17.261000  -3.102000
911   1   1   39.83000   -16.498000  -3.775000
912   1   1   36.01000   -10.057000  -3.814000
913   1   1   38.563000   -10.028000  -3.858000
914   1   1   33.527000   -12.936000  -3.083000
915   1   1   34.756000   -12.182000  -3.658000
916   1   1   36.052000   -12.895000  -3.127000
917   1   1   37.355000   -15.095000  -3.115000
918   1   1   39.903000   -15.062000  -3.191000
919   1   1   34.777000   -10.717000  -3.139000
920   1   1   37.306000   -10.677000  -3.216000
921   1   1   37.289000   -12.201000  -5.293000
922   1   1   38.56000   -12.917000  -5.835000
923   1   1   33.563000   -14.402000  -5.239000
924   1   1   33.501000   -12.98000  -5.806000
925   1   1   34.802000   -15.15000  -5.774000
926   1   1   36.054000   -14.4000  -5.237000
927   1   1   34.861000   -16.589000  -5.223000
928   1   1   39.84000   -12.153000  -5.345000
929   1   1   39.791000   -10.723000  -5.947000
930   1   1   41.078000   -12.885000  -5.931000
931   1   1   36.086000   -17.331000  -5.773000
932   1   1   41.067000   -14.31000  -5.364000
933   1   1   37.342000   -16.603000  -5.23000
934   1   1   37.317000   -15.133000  -5.778000
935   1   1   38.601000   -17.299000  -5.817000
936   1   1   39.822000   -16.526000  -5.307000
937   1   1   38.533000   -10.043000  -5.393000
938   1   1   34.737000   -12.215000  -5.259000
939   1   1   34.731000   -10.785000  -5.86000
940   1   1   36.019000   -12.948000  -5.792000
941   1   1   38.577000   -14.369000  -5.28000
942   1   1   39.831000   -15.087000  -5.859000
943   1   1   35.99000   -10.074000  -5.349000
944   1   1   37.261000   -10.763000  -5.887000
945   1   1   37.247000   -12.251000  -7.943000
946   1   1   38.533000   -12.947000  -7.415000
947   1   1   33.511000   -14.469000  -7.892000
948   1   1   34.768000   -15.188000  -7.339000
949   1   1   36.017000   -14.448000  -7.886000
950   1   1   34.801000   -16.647000  -7.874000
951   1   1   39.78000   -12.213000  -8.003000
952   1   1   41.053000   -12.918000  -7.475000
953   1   1   38.535000   -14.415000  -7.928000
954   1   1   39.758000   -10.75000  -7.492000
955   1   1   36.06000   -17.355000  -7.317000
956   1   1   41.048000   -14.369000  -8.016000
957   1   1   37.302000   -16.628000  -7.886000
958   1   1   38.584000   -17.32000  -7.361000
959   1   1   39.806000   -16.576000  -7.958000
960   1   1   35.95000   -10.101000  -8.004000
961   1   1   38.481000   -10.072000  -8.048000
962   1   1   33.482000   -13.017000  -7.351000
963   1   1   34.717000   -12.275000  -7.918000
964   1   1   35.999000   -12.98000  -7.372000
965   1   1   37.294000   -15.158000  -7.357000
966   1   1   39.822000   -15.12000  -7.424000
967   1   1   34.713000   -10.813000  -7.406000
968   1   1   37.235000   -10.778000  -7.454000
969   1   1   37.221000   -12.297000  -9.517000
970   1   1   38.463000   -13.012000  -10.066000
971   1   1   33.554000   -14.488000  -9.435000
972   1   1   33.549000   -13.091000  -10.037000
973   1   1   34.775000   -15.216000  -9.987000
974   1   1   36.008000   -14.468000  -9.46000
975   1   1   34.807000   -16.634000  -9.418000
976   1   1   39.715000   -12.271000  -9.578000
977   1   1   39.639000   -10.879000  -10.173000
978   1   1   40.93000   -12.987000  -10.166000
979   1   1   36.039000   -17.323000  -10.009000
980   1   1   40.974000   -14.392000  -9.559000
981   1   1   37.271000   -16.606000  -9.462000
982   1   1   37.25000   -15.173000  -10.008000
983   1   1   38.51000   -17.261000  -10.043000
984   1   1   39.741000   -16.551000  -9.5000
985   1   1   38.431000   -10.162000  -9.588000
986   1   1   34.739000   -12.323000  -9.494000
987   1   1   34.729000   -10.921000  -10.097000
988   1   1   35.985000   -13.042000  -10.024000
989   1   1   38.497000   -14.434000  -9.502000
990   1   1   39.739000   -15.135000  -10.07000
991   1   1   35.946000   -10.175000  -9.547000
992   1   1   37.185000   -10.878000  -10.101000
993   1   1   37.176000   -12.37000  -12.184000
994   1   1   38.422000   -13.049000  -11.645000
995   1   1   33.578000   -14.521000  -12.149000
996   1   1   34.777000   -15.229000  -11.577000
997   1   1   35.986000   -14.501000  -12.128000
998   1   1   34.803000   -16.63000  -12.159000
999   1   1   39.623000   -12.348000  -12.256000
1000   1   1   40.861000   -13.023000  -11.722000
1001   1   1   38.426000   -14.467000  -12.168000
1002   1   1   39.585000   -10.942000  -11.713000
1003   1   1   36.025000   -17.312000  -11.566000
1004   1   1   40.858000   -14.429000  -12.299000
1005   1   1   37.223000   -16.599000  -12.142000
1006   1   1   38.465000   -17.246000  -11.584000
1007   1   1   39.647000   -16.544000  -12.209000
1008   1   1   35.922000   -10.284000  -12.286000
1009   1   1   38.362000   -10.277000  -12.298000
1010   1   1   33.567000   -13.123000  -11.579000
1011   1   1   34.741000   -12.394000  -12.175000
1012   1   1   35.972000   -13.077000  -11.605000
1013   1   1   37.222000   -15.185000  -11.589000
1014   1   1   39.682000   -15.144000  -11.658000
1015   1   1   34.728000   -10.978000  -11.653000
1016   1   1   37.155000   -10.939000  -11.688000
1017   1   1   37.147000   -12.412000  -13.759000
1018   1   1   38.346000   -13.105000  -14.312000
1019   1   1   33.573000   -14.541000  -13.699000
1020   1   1   33.546000   -13.175000  -14.312000
1021   1   1   34.77000   -15.233000  -14.243000
1022   1   1   35.972000   -14.521000  -13.704000
1023   1   1   34.8000   -16.626000  -13.723000
1024   1   1   39.565000   -12.38000  -13.852000
1025   1   1   39.519000   -11.01000  -14.444000
1026   1   1   40.715000   -13.088000  -14.495000
1027   1   1   36.009000   -17.271000  -14.342000
1028   1   1   40.788000   -14.449000  -13.862000
1029   1   1   37.205000   -16.6000  -13.739000
1030   1   1   37.181000   -15.201000  -14.257000
1031   1   1   38.409000   -17.268000  -14.315000
1032   1   1   39.601000   -16.554000  -13.757000
1033   1   1   38.329000   -10.327000  -13.846000
1034   1   1   34.731000   -12.442000  -13.772000
1035   1   1   34.739000   -11.095000  -14.425000
1036   1   1   35.949000   -13.142000  -14.273000
1037   1   1   38.385000   -14.486000  -13.744000
1038   1   1   39.578000   -15.179000  -14.322000
1039   1   1   35.909000   -10.347000  -13.849000
1040   1   1   37.126000   -11.038000  -14.352000
1041   1   1   45.085000   1.369000  4.566000
1042   1   1   45.075000   1.363000  2.988000
1043   1   1   45.037000   1.333000  0.234000
1044   1   1   46.347000   0.644000  5.117000
1045   1   1   46.327000   0.635000  2.391000
1046   1   1   46.305000   0.618000  0.813000
1047   1   1   46.252000   0.569000  -1.912000
1048   1   1   45.004000   1.305000  -1.343000
1049   1   1   28.343000   0.48000  5.385000
1050   1   1   29.571000   1.232000  4.797000
1051   1   1   29.535000   1.224000  3.218000
1052   1   1   28.284000   0.467000  2.66000
1053   1   1   28.26000   0.447000  1.082000
1054   1   1   29.493000   1.188000  0.464000
1055   1   1   29.479000   1.156000  -1.115000
1056   1   1   28.232000   0.391000  -1.644000
1057   1   1   28.513000   -27.572000  5.259000
1058   1   1   28.501000   -27.632000  3.681000
1059   1   1   28.484000   -27.709000  0.928000
1060   1   1   28.477000   -27.736000  -0.651000
1061   1   1   29.782000   -28.264000  5.832000
1062   1   1   29.761000   -28.36000  3.104000
1063   1   1   29.752000   -28.406000  1.525000
1064   1   1   29.741000   -28.457000  -1.202000
1065   1   1   46.366000   -27.675000  -0.963000
1066   1   1   45.13000   -28.319000  5.519000
1067   1   1   46.39000   -27.605000  4.952000
1068   1   1   45.129000   -28.365000  2.797000
1069   1   1   46.387000   -27.633000  3.372000
1070   1   1   45.12000   -28.385000  1.218000
1071   1   1   46.374000   -27.669000  0.615000
1072   1   1   45.098000   -28.393000  -1.509000
1073   1   1   54.159000   -14.157000  4.63000
1074   1   1   54.156000   -14.164000  3.051000
1075   1   1   54.123000   -14.183000  0.294000
1076   1   1   54.088000   -14.198000  -1.284000
1077   1   1   54.149000   -12.704000  5.179000
1078   1   1   54.14000   -12.72000  2.451000
1079   1   1   54.12000   -12.729000  0.872000
1080   1   1   54.06000   -12.751000  -1.856000
1081   1   2   24.452000   -11.172000  1.058000
1082   1   2   24.541000   -16.093000  3.273000
1083   1   2   24.501000   -16.126000  1.088000
1084   1   2   24.489000   -11.14000  3.155000
1085   1   2   21.895000   -11.203000  1.095000
1086   1   2   22.021000   -16.147000  3.326000
1087   1   2   21.98000   -16.18000  1.131000
1088   1   2   21.933000   -11.171000  3.216000
1089   1   2   32.947000   -1.157000  0.719000
1090   1   2   28.735000   -3.679000  2.966000
1091   1   2   28.7000   -3.707000  0.87000
1092   1   2   32.982000   -1.125000  2.904000
1093   1   2   31.645000   1.024000  0.708000
1094   1   2   27.416000   -1.51000  2.971000
1095   1   2   27.381000   -1.537000  0.851000
1096   1   2   31.677000   1.057000  2.908000
1097   1   2   45.98000   -3.529000  2.696000
1098   1   2   45.952000   -3.553000  0.599000
1099   1   2   41.682000   -1.063000  2.771000
1100   1   2   41.652000   -1.088000  0.587000
1101   1   2   47.249000   -1.322000  2.672000
1102   1   2   47.222000   -1.343000  0.55000
1103   1   2   42.928000   1.144000  2.742000
1104   1   2   42.896000   1.12000  0.545000
1105   1   2   50.346000   -15.941000  0.64000
1106   1   2   50.329000   -10.972000  2.732000
1107   1   2   50.306000   -10.989000  0.634000
1108   1   2   50.365000   -15.917000  2.83000
1109   1   2   52.886000   -15.938000  0.6000
1110   1   2   52.895000   -10.964000  2.723000
1111   1   2   52.868000   -10.969000  0.593000
1112   1   2   52.913000   -15.918000  2.807000
1113   1   2   46.016000   -23.485000  3.033000
1114   1   2   46.002000   -23.514000  0.833000
1115   1   2   41.724000   -25.931000  3.052000
1116   1   2   41.708000   -25.967000  0.951000
1117   1   2   47.248000   -25.656000  3.078000
1118   1   2   54.116000   -12.712000  6.26000
1119   1   2   55.057000   -12.173000  4.925000
1120   1   2   39.927000   -24.893000  0.935000
1121   1   2   37.49000   -24.852000  3.184000
1122   1   2   37.449000   -24.891000  0.982000
1123   1   2   34.981000   -24.876000  3.234000
1124   1   2   48.568000   -16.968000  2.82000
1125   1   2   46.061000   -21.381000  2.925000
1126   1   2   54.974000   -12.215000  -1.634000
1127   1   2   46.041000   -21.404000  0.825000
1128   1   2   47.325000   -19.14000  2.869000
1129   1   2   47.301000   -19.186000  0.758000
1130   1   2   45.939000   -5.659000  0.567000
1131   1   2   45.971000   -5.631000  2.759000
1132   1   2   34.832000   -2.147000  2.841000
1133   1   2   34.795000   -2.177000  0.739000
1134   1   2   37.348000   -2.128000  2.804000
1135   1   2   37.314000   -2.158000  0.693000
1136   1   2   39.829000   -2.136000  0.658000
1137   1   2   39.861000   -2.11000  2.761000
1138   1   2   28.866000   -21.419000  3.233000
1139   1   2   28.833000   -21.465000  1.131000
1140   1   2   26.347000   -17.126000  3.212000
1141   1   2   27.611000   -19.275000  3.227000
1142   1   2   27.575000   -19.313000  1.114000
1143   1   2   26.309000   -17.161000  1.111000
1144   1   2   28.75000   -5.798000  0.852000
1145   1   2   26.328000   -10.089000  3.151000
1146   1   2   27.572000   -7.929000  3.098000
1147   1   2   27.533000   -7.961000  0.904000
1148   1   2   26.289000   -10.122000  0.96000
1149   1   2   28.788000   -5.766000  3.045000
1150   1   2   42.961000   -28.175000  -1.288000
1151   1   2   33.112000   -26.015000  -1.064000
1152   1   2   28.811000   -23.573000  -1.057000
1153   1   2   31.878000   -28.223000  -1.011000
1154   1   2   27.547000   -25.776000  -0.997000
1155   1   2   47.159000   -7.847000  -1.597000
1156   1   2   48.432000   -9.997000  -1.583000
1157   1   2   24.485000   -16.184000  -1.074000
1158   1   2   24.427000   -11.239000  -1.17000
1159   1   2   21.958000   -16.24000  -1.024000
1160   1   2   21.885000   -11.264000  -1.147000
1161   1   2   28.698000   -3.735000  -1.357000
1162   1   2   32.943000   -1.196000  -1.442000
1163   1   2   27.383000   -1.578000  -1.391000
1164   1   2   31.645000   0.992000  -1.447000
1165   1   2   45.884000   -3.574000  -1.627000
1166   1   2   41.588000   -1.121000  -1.575000
1167   1   2   47.154000   -1.381000  -1.69000
1168   1   2   42.835000   1.092000  -1.61000
1169   1   2   50.263000   -11.043000  -1.59000
1170   1   2   50.301000   -15.99000  -1.521000
1171   1   2   52.8000   -11.011000  -1.639000
1172   1   2   52.84000   -15.986000  -1.553000
1173   1   2   46.01000   -23.511000  -1.321000
1174   1   2   41.718000   -25.969000  -1.277000
1175   1   2   47.283000   -25.707000  -1.294000
1176   1   2   39.902000   -24.932000  -1.232000
1177   1   2   37.415000   -24.932000  -1.184000
1178   1   2   34.926000   -24.958000  -1.13000
1179   1   2   48.467000   -17.026000  -1.509000
1180   1   2   45.974000   -21.399000  -1.404000
1181   1   2   47.217000   -19.207000  -1.462000
1182   1   2   45.905000   -5.682000  -1.601000
1183   1   2   34.764000   -2.26000  -1.494000
1184   1   2   37.277000   -2.242000  -1.539000
1185   1   2   39.79000   -2.216000  -1.574000
1186   1   2   28.837000   -21.477000  -1.106000
1187   1   2   26.316000   -17.174000  -1.126000
1188   1   2   27.58000   -19.32000  -1.12000
1189   1   2   26.248000   -10.159000  -1.209000
1190   1   2   27.495000   -7.995000  -1.268000
1191   1   2   28.714000   -5.826000  -1.319000
1192   1   2   47.47000   -10.644000  -2.849000
1193   1   2   48.913000   -12.774000  -2.768000
1194   1   2   46.162000   -8.435000  -2.865000
1195   1   2   23.199000   -12.98000  -2.352000
1196   1   2   24.504000   -15.087000  -2.393000
1197   1   2   20.691000   -13.07000  -2.391000
1198   1   2   21.937000   -15.167000  -2.364000
1199   1   2   29.51000   -1.828000  -2.63000
1200   1   2   31.992000   -1.834000  -2.719000
1201   1   2   30.698000   0.391000  -2.747000
1202   1   2   44.997000   -1.677000  -2.867000
1203   1   2   42.515000   -1.737000  -2.881000
1204   1   2   43.755000   0.518000  -2.941000
1205   1   2   51.489000   -12.749000  -2.821000
1206   1   2   50.222000   -14.887000  -2.832000
1207   1   2   52.794000   -14.902000  -2.884000
1208   1   2   43.794000   -26.199000  -2.523000
1209   1   2   45.002000   -24.035000  -2.608000
1210   1   2   46.316000   -26.249000  -2.605000
1211   1   2   29.8000   -24.106000  -2.355000
1212   1   2   31.014000   -26.272000  -2.269000
1213   1   2   28.502000   -26.332000  -2.312000
1214   1   2   43.68000   -8.393000  -2.732000
1215   1   6   31.932000   -15.307000  -2.274000
1216   1   2   30.835000   -4.033000  -2.598000
1217   1   2   42.511000   -23.964000  -2.514000
1218   1   2   44.984000   -10.619000  -2.724000
1219   1   2   29.714000   -19.56000  -2.353000
1220   1   2   32.252000   -19.566000  -2.344000
1221   1   2   28.459000   -8.575000  -2.566000
1222   1   2   43.717000   -3.914000  -2.804000
1223   1   2   32.172000   -6.237000  -2.563000
1224   1   6   42.768000   -15.277000  -2.469000
1225   1   2   34.715000   -6.216000  -2.585000
1226   1   2   38.56000   -3.994000  -2.733000
1227   1   2   45.061000   -15.032000  -2.638000
1228   1   2   33.524000   -21.765000  -2.353000
1229   1   2   25.776000   -12.947000  -2.377000
1230   1   2   41.136000   -3.936000  -2.766000
1231   1   2   29.668000   -10.737000  -2.457000
1232   1   2   38.666000   -21.69000  -2.456000
1233   1   2   40.021000   -19.541000  -2.489000
1234   1   2   36.094000   -21.704000  -2.407000
1235   1   6   32.123000   -10.652000  -2.497000
1236   1   6   36.072000   -8.083000  -2.461000
1237   1   2   42.505000   -19.517000  -2.527000
1238   1   2   46.32000   -17.241000  -2.679000
1239   1   6   34.735000   -19.565000  -2.394000
1240   1   2   42.415000   -6.145000  -2.733000
1241   1   6   38.568000   -8.057000  -2.501000
1242   1   2   27.091000   -15.16000  -2.365000
1243   1   2   37.384000   -23.821000  -2.493000
1244   1   2   29.652000   -15.132000  -2.361000
1245   1   2   44.874000   -6.213000  -2.866000
1246   1   2   39.941000   -23.818000  -2.538000
1247   1   2   30.96000   -17.343000  -2.335000
1248   1   2   43.797000   -21.735000  -2.561000
1249   1   6   42.525000   -10.562000  -2.681000
1250   1   6   33.193000   -17.45000  -2.267000
1251   1   2   29.712000   -6.346000  -2.615000
1252   1   2   33.411000   -4.006000  -2.641000
1253   1   6   43.816000   -12.877000  -2.654000
1254   1   2   35.986000   -4.016000  -2.69000
1255   1   2   46.327000   -12.823000  -2.708000
1256   1   2   30.976000   -21.793000  -2.335000
1257   1   2   27.18000   -10.795000  -2.503000
1258   1   2   30.942000   -8.501000  -2.514000
1259   1   6   41.539000   -17.445000  -2.412000
1260   1   2   37.381000   -19.608000  -2.456000
1261   1   6   33.478000   -8.377000  -2.539000
1262   1   2   37.293000   -6.199000  -2.611000
1263   1   2   43.777000   -17.273000  -2.564000
1264   1   2   32.275000   -24.029000  -2.316000
1265   1   2   47.63000   -15.018000  -2.723000
1266   1   2   39.872000   -6.169000  -2.671000
1267   1   2   28.359000   -12.952000  -2.395000
1268   1   2   34.828000   -23.849000  -2.436000
1269   1   6   30.864000   -12.97000  -2.422000
1270   1   2   41.241000   -21.722000  -2.497000
1271   1   2   45.044000   -19.482000  -2.624000
1272   1   6   41.142000   -8.308000  -2.671000
1273   1   2   28.42000   -17.35000  -2.363000
1274   1   2   42.997000   -28.092000  5.328000
1275   1   2   33.17000   -25.86000  5.505000
1276   1   2   28.891000   -23.406000  5.453000
1277   1   2   31.913000   -28.026000  5.624000
1278   1   2   27.6000   -25.59000  5.51000
1279   1   2   48.526000   -9.928000  4.96000
1280   1   2   47.254000   -7.773000  4.954000
1281   1   2   24.547000   -11.14000  5.382000
1282   1   2   24.604000   -16.085000  5.436000
1283   1   2   22.007000   -11.164000  5.456000
1284   1   2   22.079000   -16.141000  5.481000
1285   1   2   33.052000   -1.103000  5.064000
1286   1   2   28.812000   -3.649000  5.192000
1287   1   2   31.744000   1.083000  5.072000
1288   1   2   27.492000   -1.497000  5.211000
1289   1   2   45.97000   -3.502000  4.927000
1290   1   2   41.678000   -1.046000  4.932000
1291   1   2   47.236000   -1.311000  4.918000
1292   1   2   42.925000   1.165000  4.898000
1293   1   2   50.365000   -15.922000  5.0000
1294   1   2   50.343000   -10.986000  4.973000
1295   1   2   52.914000   -15.929000  4.979000
1296   1   2   52.884000   -10.978000  4.991000
1297   1   2   46.056000   -23.431000  5.228000
1298   1   2   41.762000   -25.863000  5.285000
1299   1   2   47.286000   -25.614000  5.298000
1300   1   2   35.012000   -24.838000  5.411000
1301   1   2   39.993000   -24.818000  5.31000
1302   1   2   37.522000   -24.816000  5.37000
1303   1   2   48.547000   -16.926000  5.072000
1304   1   2   46.057000   -21.312000  5.171000
1305   1   2   47.305000   -19.093000  5.132000
1306   1   2   46.0000   -5.601000  4.93000
1307   1   2   34.877000   -2.167000  5.075000
1308   1   2   37.386000   -2.152000  5.035000
1309   1   2   39.889000   -2.133000  4.996000
1310   1   2   28.947000   -21.345000  5.47000
1311   1   2   27.699000   -19.21000  5.459000
1312   1   2   26.436000   -17.072000  5.448000
1313   1   2   28.83000   -5.733000  5.214000
1314   1   2   27.612000   -7.898000  5.27000
1315   1   2   26.366000   -10.061000  5.32000
1316   1   2   43.812000   -8.283000  6.183000
1317   1   2   30.991000   -3.909000  6.368000
1318   1   2   42.613000   -23.835000  6.457000
1319   1   2   43.919000   -21.594000  6.4000
1320   1   2   45.109000   -10.506000  6.193000
1321   1   2   29.874000   -19.406000  6.622000
1322   1   2   28.622000   -8.441000  6.55000
1323   1   2   43.84000   -3.816000  6.162000
1324   1   2   32.33000   -6.11000  6.345000
1325   1   2   32.41000   -19.415000  6.523000
1326   1   6   42.892000   -15.178000  6.125000
1327   1   2   33.568000   -3.88000  6.318000
1328   1   2   34.868000   -6.093000  6.275000
1329   1   2   38.7000   -3.878000  6.236000
1330   1   6   43.951000   -12.757000  6.214000
1331   1   2   45.185000   -14.908000  6.224000
1332   1   2   33.678000   -21.6000  6.559000
1333   1   2   25.94000   -12.811000  6.589000
1334   1   2   41.266000   -3.832000  6.193000
1335   1   2   29.829000   -10.604000  6.462000
1336   1   2   38.819000   -21.539000  6.463000
1337   1   6   40.175000   -19.403000  6.375000
1338   1   2   31.101000   -8.369000  6.406000
1339   1   6   32.287000   -10.52000  6.413000
1340   1   6   36.215000   -7.96000  6.152000
1341   1   2   36.251000   -21.55000  6.513000
1342   1   2   46.439000   -17.107000  6.296000
1343   1   6   34.896000   -19.418000  6.484000
1344   1   2   42.546000   -6.04000  6.172000
1345   1   2   37.439000   -6.08000  6.21000
1346   1   6   38.694000   -7.935000  6.1000
1347   1   2   27.254000   -15.023000  6.596000
1348   1   2   47.74000   -14.897000  6.241000
1349   1   2   37.539000   -23.65000  6.628000
1350   1   2   32.401000   -23.826000  6.657000
1351   1   2   42.644000   -19.38000  6.328000
1352   1   2   28.52000   -12.815000  6.514000
1353   1   2   29.811000   -14.995000  6.499000
1354   1   2   45.008000   -6.107000  6.237000
1355   1   2   40.085000   -23.656000  6.571000
1356   1   2   31.119000   -17.2000  6.493000
1357   1   2   41.28000   -8.191000  6.195000
1358   1   2   42.669000   -10.439000  6.214000
1359   1   2   45.173000   -19.346000  6.347000
1360   1   6   33.358000   -17.301000  6.355000
1361   1   2   29.874000   -6.215000  6.489000
1362   1   2   36.137000   -3.895000  6.278000
1363   1   2   46.443000   -12.707000  6.201000
1364   1   2   31.128000   -21.623000  6.63000
1365   1   2   27.345000   -10.657000  6.6000
1366   1   6   41.674000   -17.331000  6.176000
1367   1   6   37.544000   -19.466000  6.445000
1368   1   2   33.636000   -8.247000  6.336000
1369   1   2   43.91000   -17.144000  6.254000
1370   1   2   40.009000   -6.058000  6.186000
1371   1   6   31.027000   -12.835000  6.453000
1372   1   2   41.382000   -21.58000  6.411000
1373   1   2   34.979000   -23.677000  6.672000
1374   1   2   28.581000   -17.207000  6.611000
1375   1   2   46.284000   -8.329000  6.253000
1376   1   2   47.586000   -10.536000  6.259000
1377   1   2   49.018000   -12.673000  6.202000
1378   1   2   23.366000   -12.844000  6.663000
1379   1   2   24.672000   -14.949000  6.718000
1380   1   2   20.863000   -12.932000  6.799000
1381   1   2   22.108000   -15.029000  6.788000
1382   1   2   29.661000   -1.71000  6.386000
1383   1   2   32.147000   -1.708000  6.389000
1384   1   2   30.836000   0.507000  6.411000
1385   1   2   45.113000   -1.582000  6.15000
1386   1   2   42.637000   -1.636000  6.228000
1387   1   2   43.882000   0.613000  6.213000
1388   1   2   51.592000   -12.675000  6.203000
1389   1   2   50.325000   -14.786000  6.284000
1390   1   2   52.9000   -14.81000  6.278000
1391   1   2   43.841000   -26.089000  6.501000
1392   1   2   45.048000   -23.924000  6.518000
1393   1   2   46.297000   -26.167000  6.578000
1394   1   2   31.089000   -26.031000  6.757000
1395   1   2   29.897000   -23.884000  6.76000
1396   1   2   28.567000   -26.08000  6.842000
1397   1   6   32.094000   -15.16000  6.343000
1398   1   2   19.815000   -12.458000  3.319000
1399   1   2   19.774000   -12.492000  1.109000
1400   1   2   19.74000   -12.521000  -1.066000
1401   1   2   19.861000   -12.421000  5.494000
1402   1   2   19.849000   -14.947000  3.322000
1403   1   2   19.803000   -15.009000  -1.073000
1404   1   2   19.926000   -14.909000  5.575000
1405   1   2   45.082000   2.389000  4.926000
1406   1   2   45.036000   2.374000  0.529000
1407   1   2   47.257000   1.173000  4.864000
1408   1   2   46.321000   0.619000  6.198000
1409   1   2   47.226000   1.158000  2.69000
1410   1   2   47.194000   1.137000  0.48000
1411   1   2   46.198000   0.523000  -2.992000
1412   1   2   47.166000   1.106000  -1.694000
1413   1   2   44.991000   2.318000  -1.724000
1414   1   2   28.402000   0.459000  6.465000
1415   1   2   27.416000   0.989000  5.158000
1416   1   2   29.561000   2.254000  5.152000
1417   1   2   29.513000   2.258000  2.9000
1418   1   2   27.383000   0.971000  2.984000
1419   1   2   27.349000   0.943000  0.773000
1420   1   2   29.479000   2.23000  0.756000
1421   1   2   29.458000   2.168000  -1.497000
1422   1   2   27.313000   0.907000  -1.4000
1423   1   2   28.256000   0.341000  -2.725000
1424   1   2   27.635000   -28.071000  5.648000
1425   1   2   27.592000   -28.227000  1.255000
1426   1   2   27.596000   -28.259000  -0.999000
1427   1   2   29.797000   -28.183000  6.911000
1428   1   2   29.789000   -29.326000  5.623000
1429   1   2   29.779000   -29.385000  3.449000
1430   1   2   29.762000   -29.449000  1.239000
1431   1   2   29.751000   -29.506000  -0.936000
1432   1   2   29.741000   -28.436000  -2.284000
1433   1   2   47.245000   -28.189000  -1.329000
1434   1   2   45.126000   -29.375000  5.283000
1435   1   2   45.123000   -28.266000  6.6000
1436   1   2   47.275000   -28.106000  5.321000
1437   1   2   45.126000   -29.396000  3.124000
1438   1   2   47.288000   -28.149000  3.067000
1439   1   2   45.116000   -29.423000  0.914000
1440   1   2   47.275000   -28.18000  0.926000
1441   1   2   45.084000   -28.353000  -2.59000
1442   1   2   45.098000   -29.447000  -1.262000
1443   1   2   55.043000   -14.665000  4.993000
1444   1   2   55.051000   -14.684000  2.737000
1445   1   2   55.028000   -14.695000  0.594000
1446   1   2   54.966000   -14.706000  -1.661000
1447   1   2   47.252000   -25.696000  0.851000
1448   1   2   34.955000   -24.916000  1.034000
1449   1   2   39.963000   -24.855000  3.133000
1450   1   2   55.035000   -12.192000  2.753000
1451   1   2   55.008000   -12.207000  0.541000
1452   1   2   48.545000   -17.007000  0.718000
1453   1   2   53.996000   -12.778000  -2.936000
1454   1   2   32.885000   -14.756000  7.639000
1455   1   2   32.83000   -12.298000  7.412000
1456   1   2   38.954000   -18.096000  9.408000
1457   1   2   34.214000   -16.986000  7.639000
1458   1   2   36.182000   -8.811000  7.464000
1459   1   2   40.897000   -9.977000  7.186000
1460   1   2   42.202000   -12.179000  7.186000
1461   1   2   42.256000   -14.581000  9.348000
1462   1   2   41.019000   -16.796000  9.418000
1463   1   2   36.306000   -18.146000  7.415000
1464   1   2   42.267000   -14.562000  7.409000
1465   1   2   34.138000   -10.025000  9.4000
1466   1   2   36.382000   -18.131000  9.471000
1467   1   2   38.785000   -8.781000  7.404000
1468   1   2   36.264000   -8.82000  9.413000
1469   1   2   38.803000   -8.784000  9.347000
1470   1   2   38.876000   -18.116000  7.362000
1471   1   2   32.883000   -12.271000  9.477000
1472   1   2   34.095000   -10.05000  7.343000
1473   1   2   40.992000   -16.845000  7.48000
1474   1   2   32.975000   -14.707000  9.599000
1475   1   2   34.277000   -16.888000  9.6000
1476   1   2   42.278000   -12.137000  9.213000
1477   1   2   40.962000   -9.928000  9.216000
1478   1   2   33.021000   -14.697000  11.661000
1479   1   2   32.974000   -12.226000  11.644000
1480   1   2   39.008000   -17.903000  13.641000
1481   1   2   34.32000   -16.871000  11.656000
1482   1   2   36.333000   -8.762000  11.448000
1483   1   2   41.024000   -9.916000  11.372000
1484   1   2   42.322000   -12.081000  11.361000
1485   1   2   42.318000   -14.543000  13.538000
1486   1   2   41.145000   -16.626000  13.653000
1487   1   2   36.472000   -18.085000  11.634000
1488   1   2   42.348000   -14.558000  11.379000
1489   1   2   34.322000   -10.099000  13.589000
1490   1   2   36.618000   -17.945000  13.672000
1491   1   2   38.859000   -8.721000  11.381000
1492   1   2   36.471000   -8.796000  13.606000
1493   1   2   38.853000   -8.769000  13.588000
1494   1   2   39.002000   -18.046000  11.573000
1495   1   2   33.166000   -12.177000  13.713000
1496   1   2   34.2000   -10.02000  11.56000
1497   1   2   41.117000   -16.77000  11.459000
1498   1   2   33.206000   -14.672000  13.864000
1499   1   2   34.416000   -16.732000  13.816000
1500   1   2   42.26000   -12.033000  13.386000
1501   1   2   41.038000   -9.985000  13.438000
1502   1   2   40.223000   -10.457000  19.174000
1503   1   2   41.474000   -12.522000  19.166000
1504   1   2   37.935000   -14.599000  19.205000
1505   1   2   39.171000   -16.654000  19.305000
1506   1   2   36.722000   -12.577000  19.205000
1507   1   2   35.545000   -14.668000  19.306000
1508   1   2   34.343000   -12.62000  19.387000
1509   1   2   35.51000   -10.508000  19.308000
1510   1   2   37.847000   -10.468000  19.156000
1511   1   2   36.763000   -16.662000  19.394000
1512   1   2   39.075000   -12.545000  19.133000
1513   1   2   40.338000   -14.581000  19.154000
1514   1   2   33.341000   -14.628000  15.88000
1515   1   2   33.315000   -12.134000  15.965000
1516   1   2   39.071000   -17.703000  17.881000
1517   1   2   34.507000   -16.623000  15.868000
1518   1   2   36.579000   -8.8000  15.643000
1519   1   2   41.068000   -10.004000  15.697000
1520   1   2   42.274000   -11.953000  15.645000
1521   1   2   42.32000   -14.463000  17.927000
1522   1   2   41.206000   -16.402000  18.006000
1523   1   2   36.749000   -17.857000  15.936000
1524   1   2   42.321000   -14.509000  15.585000
1525   1   2   34.478000   -10.112000  17.944000
1526   1   2   36.849000   -17.767000  18.03000
1527   1   2   38.891000   -8.781000  15.609000
1528   1   2   36.691000   -8.806000  17.981000
1529   1   2   38.932000   -8.809000  17.955000
1530   1   2   39.037000   -17.789000  15.885000
1531   1   2   33.424000   -12.084000  17.976000
1532   1   2   34.394000   -10.117000  15.849000
1533   1   2   41.176000   -16.518000  15.667000
1534   1   2   33.499000   -14.573000  18.222000
1535   1   2   34.618000   -16.499000  18.209000
1536   1   2   42.289000   -11.901000  17.74000
1537   1   2   41.114000   -9.999000  17.724000
1538   1   2   38.513000   -9.019000  -5.741000
1539   1   2   32.667000   -14.913000  -3.595000
1540   1   2   33.891000   -10.212000  -3.5000
1541   1   2   33.992000   -17.147000  -3.578000
1542   1   2   42.009000   -12.35000  -3.604000
1543   1   2   32.672000   -14.934000  -5.546000
1544   1   2   32.586000   -12.493000  -5.495000
1545   1   2   40.7000   -10.136000  -3.619000
1546   1   2   35.965000   -8.978000  -3.743000
1547   1   2   35.972000   -9.049000  -5.696000
1548   1   2   33.969000   -17.119000  -5.53000
1549   1   2   36.096000   -18.311000  -3.407000
1550   1   2   40.673000   -10.163000  -5.666000
1551   1   2   41.99000   -12.376000  -5.648000
1552   1   2   33.844000   -10.248000  -5.55000
1553   1   2   42.042000   -14.764000  -3.753000
1554   1   2   36.075000   -18.363000  -5.448000
1555   1   2   41.96000   -14.822000  -5.697000
1556   1   2   38.562000   -8.948000  -3.79000
1557   1   2   38.65000   -18.331000  -5.495000
1558   1   2   32.628000   -12.456000  -3.447000
1559   1   2   38.667000   -18.283000  -3.456000
1560   1   2   40.716000   -17.036000  -5.641000
1561   1   2   40.768000   -17.032000  -3.698000
1562   1   2   38.388000   -9.149000  -9.966000
1563   1   2   32.613000   -14.993000  -7.594000
1564   1   2   33.806000   -10.308000  -7.712000
1565   1   2   33.911000   -17.181000  -7.57000
1566   1   2   41.941000   -12.399000  -7.811000
1567   1   2   32.686000   -15.037000  -9.774000
1568   1   2   32.664000   -12.561000  -9.71000
1569   1   2   40.638000   -10.217000  -7.828000
1570   1   2   35.936000   -9.052000  -7.741000
1571   1   2   35.978000   -9.153000  -9.902000
1572   1   2   33.894000   -17.124000  -9.731000
1573   1   2   36.063000   -18.397000  -7.61000
1574   1   2   40.542000   -10.363000  -9.874000
1575   1   2   41.797000   -12.417000  -9.859000
1576   1   2   33.815000   -10.455000  -9.754000
1577   1   2   41.967000   -14.87000  -7.741000
1578   1   2   36.106000   -18.345000  -9.659000
1579   1   2   41.842000   -14.941000  -9.899000
1580   1   2   38.478000   -9.021000  -7.793000
1581   1   2   38.509000   -18.288000  -9.703000
1582   1   2   32.57000   -12.523000  -7.659000
1583   1   2   38.602000   -18.361000  -7.655000
1584   1   2   40.637000   -17.038000  -9.863000
1585   1   2   40.72000   -17.089000  -7.69000
1586   1   2   38.306000   -13.134000  -15.393000
1587   1   2   34.748000   -15.233000  -15.325000
1588   1   2   40.633000   -13.144000  -15.572000
1589   1   2   39.508000   -11.009000  -15.526000
1590   1   2   35.991000   -17.217000  -15.422000
1591   1   2   38.406000   -17.303000  -15.396000
1592   1   2   33.511000   -13.199000  -15.393000
1593   1   2   35.952000   -13.174000  -15.355000
1594   1   2   37.166000   -15.195000  -15.339000
1595   1   2   39.545000   -15.215000  -15.403000
1596   1   2   34.782000   -11.147000  -15.505000
1597   1   2   37.127000   -11.062000  -15.434000
1598   1   2   38.222000   -9.341000  -14.278000
1599   1   2   32.731000   -15.076000  -11.768000
1600   1   2   33.798000   -10.574000  -12.03000
1601   1   2   33.887000   -17.086000  -11.806000
1602   1   2   41.672000   -12.438000  -12.135000
1603   1   2   32.754000   -15.128000  -14.094000
1604   1   2   32.708000   -12.61000  -13.926000
1605   1   2   40.484000   -10.472000  -12.09000
1606   1   2   35.989000   -9.25000  -11.975000
1607   1   2   35.986000   -9.381000  -14.33000
1608   1   2   33.905000   -17.046000  -14.162000
1609   1   2   36.124000   -18.323000  -11.938000
1610   1   2   40.431000   -10.557000  -14.079000
1611   1   2   41.572000   -12.471000  -14.261000
1612   1   2   33.786000   -10.659000  -14.156000
1613   1   2   41.725000   -14.991000  -11.978000
1614   1   2   36.116000   -18.312000  -14.067000
1615   1   2   41.579000   -15.018000  -14.333000
1616   1   2   38.309000   -9.252000  -11.956000
1617   1   2   38.349000   -18.269000  -13.908000
1618   1   2   32.697000   -12.586000  -11.933000
1619   1   2   38.422000   -18.274000  -11.918000
1620   1   2   40.507000   -16.969000  -14.179000
1621   1   2   40.565000   -16.997000  -11.858000
1622   1   2   19.81000   -14.98000  1.181000
1623   1   2   45.065000   2.398000  2.671000
1624   1   2   27.604000   -28.165000  3.394000
1625   1   2   42.981000   -28.166000  3.076000
1626   1   2   42.965000   -28.191000  0.952000
1627   1   2   33.173000   -25.932000  3.257000
1628   1   2   33.156000   -25.987000  1.158000
1629   1   2   28.873000   -23.493000  3.294000
1630   1   2   28.848000   -23.552000  1.107000
1631   1   2   31.916000   -28.115000  3.349000
1632   1   2   31.907000   -28.192000  1.218000
1633   1   2   27.596000   -25.681000  3.355000
1634   1   2   27.579000   -25.746000  1.16000
1635   1   2   48.462000   -9.973000  0.582000
1636   1   2   47.191000   -7.823000  0.572000
1637   1   2   47.224000   -7.801000  2.769000
1638   1   2   48.495000   -9.952000  2.78000
1639   2   1   31.314000   -16.91000  -21.338000
1640   2   1   30.796000   -15.58000  -21.348000
1641   2   1   30.805000   -14.804000  -20.145000
1642   2   1   30.773000   -13.363000  -20.168000
1643   2   1   30.978000   -12.651000  -18.947000
1644   2   1   31.436000   -11.302000  -18.981000
1645   2   3   31.825000   -10.674000  -17.763000
1646   2   3   32.713000   -9.569000  -17.804000
1647   2   3   33.269000   -9.08000  -16.588000
1648   2   3   34.484000   -8.346000  -16.631000
1649   2   3   35.163000   -8.042000  -15.415000
1650   2   3   36.562000   -7.765000  -15.456000
1651   2   3   37.305000   -7.669000  -14.242000
1652   2   3   38.73000   -7.88000  -14.277000
1653   2   1   39.481000   -7.991000  -13.066000
1654   2   1   40.764000   -8.695000  -13.087000
1655   2   1   41.442000   -9.045000  -11.871000
1656   2   1   42.41000   -10.181000  -11.873000
1657   2   1   42.893000   -10.765000  -10.641000
1658   2   1   43.458000   -12.166000  -10.633000
1659   2   1   43.694000   -12.879000  -9.399000
1660   2   1   43.724000   -14.4000  -9.377000
1661   2   1   43.713000   -15.143000  -8.13000
1662   2   1   43.194000   -16.614000  -8.096000
1663   2   1   42.956000   -17.386000  -6.882000
1664   2   1   42.057000   -18.569000  -6.849000
1665   2   1   30.73000   -12.625000  -21.391000
1666   2   1   31.189000   -11.274000  -21.423000
1667   2   1   31.689000   -10.663000  -20.228000
1668   2   1   32.591000   -9.54000  -20.268000
1669   2   1   33.201000   -9.105000  -19.053000
1670   2   1   34.42000   -8.367000  -19.095000
1671   2   3   35.116000   -8.114000  -17.878000
1672   2   3   36.507000   -7.838000  -17.919000
1673   2   3   37.243000   -7.798000  -16.7000
1674   2   3   38.646000   -8.012000  -16.734000
1675   2   3   39.358000   -8.189000  -15.513000
1676   2   3   40.61000   -8.874000  -15.535000
1677   2   3   41.236000   -9.251000  -14.311000
1678   2   3   42.183000   -10.339000  -14.317000
1679   2   1   42.668000   -10.891000  -13.09000
1680   2   1   43.205000   -12.254000  -13.085000
1681   2   1   43.497000   -12.938000  -11.853000
1682   2   1   43.522000   -14.421000  -11.832000
1683   2   1   43.513000   -15.157000  -10.588000
1684   2   1   43.012000   -16.582000  -10.557000
1685   2   1   42.733000   -17.26000  -9.312000
1686   2   1   41.802000   -18.472000  -9.278000
1687   2   1   41.317000   -19.018000  -8.023000
1688   2   1   39.99000   -19.821000  -7.98000
1689   2   1   39.307000   -20.234000  -6.76000
1690   2   1   37.843000   -20.489000  -6.716000
1691   2   1   33.039000   -8.97000  -21.5000
1692   2   1   34.259000   -8.23000  -21.54000
1693   2   1   35.029000   -8.063000  -20.345000
1694   2   1   36.443000   -7.782000  -20.385000
1695   2   1   37.184000   -7.818000  -19.165000
1696   2   1   38.593000   -8.035000  -19.198000
1697   2   3   39.285000   -8.264000  -17.974000
1698   2   3   40.528000   -8.945000  -17.996000
1699   2   3   41.114000   -9.362000  -16.767000
1700   2   3   42.049000   -10.43000  -16.775000
1701   2   3   42.472000   -11.001000  -15.54000
1702   2   3   42.989000   -12.332000  -15.535000
1703   2   3   43.22000   -13.002000  -14.297000
1704   2   3   43.247000   -14.442000  -14.279000
1705   2   1   43.26000   -15.153000  -13.038000
1706   2   1   42.784000   -16.538000  -13.009000
1707   2   1   42.559000   -17.225000  -11.767000
1708   2   1   41.648000   -18.405000  -11.735000
1709   2   1   41.166000   -18.946000  -10.484000
1710   2   1   39.88000   -19.725000  -10.444000
1711   2   1   39.225000   -20.037000  -9.193000
1712   2   1   37.719000   -20.307000  -9.15000
1713   2   1   36.991000   -20.379000  -7.895000
1714   2   1   35.448000   -20.161000  -7.864000
1715   2   1   34.647000   -20.029000  -6.651000
1716   2   1   33.349000   -19.315000  -6.632000
1717   2   1   37.157000   -7.656000  -21.616000
1718   2   1   38.567000   -7.873000  -21.647000
1719   2   1   39.26000   -8.216000  -20.442000
1720   2   1   40.525000   -8.909000  -20.463000
1721   2   1   41.065000   -9.389000  -19.232000
1722   2   1   42.006000   -10.46000  -19.24000
1723   2   3   42.382000   -11.057000  -18.003000
1724   2   3   42.895000   -12.379000  -17.998000
1725   2   3   43.067000   -13.053000  -16.754000
1726   2   3   43.097000   -14.472000  -16.737000
1727   2   3   43.047000   -15.158000  -15.489000
1728   2   3   42.588000   -16.509000  -15.462000
1729   2   1   42.326000   -17.148000  -14.213000
1730   2   1   41.43000   -18.277000  -14.181000
1731   2   1   40.985000   -18.819000  -12.935000
1732   2   1   39.735000   -19.578000  -12.897000
1733   2   1   39.119000   -19.938000  -11.651000
1734   2   1   37.652000   -20.206000  -11.61000
1735   2   1   36.931000   -20.279000  -10.359000
1736   2   1   35.436000   -20.066000  -10.328000
1737   2   1   34.726000   -19.863000  -9.086000
1738   2   1   33.395000   -19.128000  -9.067000
1739   2   1   32.78000   -18.697000  -7.825000
1740   2   1   31.765000   -17.512000  -7.819000
1741   2   1   31.235000   -16.869000  -6.62000
1742   2   1   30.658000   -15.499000  -6.634000
1743   2   1   41.159000   -9.294000  -21.685000
1744   2   1   42.1000   -10.366000  -21.69000
1745   2   1   42.405000   -11.051000  -20.472000
1746   2   1   42.928000   -12.395000  -20.465000
1747   2   1   43.027000   -13.087000  -19.22000
1748   2   1   43.057000   -14.512000  -19.201000
1749   2   3   42.955000   -15.189000  -17.952000
1750   2   3   42.499000   -16.531000  -17.925000
1751   2   3   42.192000   -17.135000  -16.672000
1752   2   3   41.305000   -18.244000  -16.64000
1753   2   3   40.823000   -18.719000  -15.386000
1754   2   3   39.604000   -19.46000  -15.351000
1755   2   1   38.991000   -19.761000  -14.098000
1756   2   1   37.576000   -20.036000  -14.063000
1757   2   1   36.882000   -20.127000  -12.815000
1758   2   1   35.434000   -19.91000  -12.788000
1759   2   1   34.723000   -19.767000  -11.546000
1760   2   1   33.426000   -19.047000  -11.528000
1761   2   1   32.82000   -18.618000  -10.288000
1762   2   1   31.836000   -17.472000  -10.284000
1763   2   1   31.412000   -16.84000  -9.056000
1764   2   1   30.827000   -15.427000  -9.07000
1765   2   1   30.619000   -14.682000  -7.842000
1766   2   1   30.587000   -13.13000  -7.865000
1767   2   1   30.591000   -12.277000  -6.681000
1768   2   1   31.104000   -10.881000  -6.708000
1769   2   1   43.172000   -13.12000  -21.672000
1770   2   1   43.203000   -14.546000  -21.651000
1771   2   1   42.989000   -15.245000  -20.42000
1772   2   1   42.526000   -16.61000  -20.391000
1773   2   1   42.151000   -17.181000  -19.137000
1774   2   1   41.259000   -18.293000  -19.103000
1775   2   3   40.741000   -18.724000  -17.848000
1776   2   3   39.53000   -19.46000  -17.813000
1777   2   3   38.903000   -19.705000  -16.558000
1778   2   3   37.51000   -19.981000  -16.525000
1779   2   3   36.831000   -20.008000  -15.272000
1780   2   3   35.421000   -19.79000  -15.246000
1781   2   1   34.752000   -19.602000  -14.0000
1782   2   1   33.491000   -18.905000  -13.985000
1783   2   1   32.896000   -18.508000  -12.747000
1784   2   1   31.935000   -17.403000  -12.744000
1785   2   1   31.48000   -16.812000  -11.516000
1786   2   1   30.913000   -15.432000  -11.531000
1787   2   1   30.713000   -14.692000  -10.306000
1788   2   1   30.68000   -13.189000  -10.33000
1789   2   1   30.76000   -12.412000  -9.113000
1790   2   1   31.279000   -10.972000  -9.144000
1791   2   1   31.604000   -10.251000  -7.926000
1792   2   1   32.565000   -9.022000  -7.969000
1793   2   1   33.104000   -8.342000  -6.796000
1794   2   1   34.372000   -7.575000  -6.837000
1795   2   1   42.252000   -17.344000  -21.586000
1796   2   1   41.359000   -18.456000  -21.55000
1797   2   1   40.742000   -18.833000  -20.315000
1798   2   1   39.509000   -19.581000  -20.277000
1799   2   1   38.85000   -19.755000  -19.023000
1800   2   1   37.453000   -20.034000  -18.988000
1801   2   3   36.774000   -20.008000  -17.736000
1802   2   3   35.373000   -19.791000  -17.71000
1803   2   3   34.731000   -19.55000  -16.462000
1804   2   3   33.487000   -18.866000  -16.447000
1805   2   3   32.944000   -18.427000  -15.205000
1806   2   3   32.003000   -17.353000  -15.203000
1807   2   1   31.608000   -16.754000  -13.97000
1808   2   1   31.078000   -15.414000  -13.984000
1809   2   1   30.858000   -14.704000  -12.762000
1810   2   1   30.825000   -13.242000  -12.787000
1811   2   1   30.849000   -12.476000  -11.573000
1812   2   1   31.349000   -11.071000  -11.603000
1813   2   1   31.673000   -10.357000  -10.389000
1814   2   1   32.604000   -9.169000  -10.43000
1815   2   1   33.159000   -8.601000  -9.222000
1816   2   1   34.461000   -7.816000  -9.266000
1817   2   1   35.167000   -7.445000  -8.053000
1818   2   1   36.701000   -7.16000  -8.093000
1819   2   1   37.547000   -6.973000  -6.918000
1820   2   1   39.021000   -7.162000  -6.955000
1821   2   1   38.833000   -19.989000  -21.468000
1822   2   1   37.434000   -20.267000  -21.431000
1823   2   1   36.714000   -20.137000  -20.201000
1824   2   1   35.289000   -19.918000  -20.173000
1825   2   1   34.667000   -19.604000  -18.926000
1826   2   1   33.418000   -18.917000  -18.91000
1827   2   3   32.91000   -18.437000  -17.669000
1828   2   3   31.975000   -17.372000  -17.668000
1829   2   3   31.632000   -16.751000  -16.432000
1830   2   3   31.115000   -15.428000  -16.446000
1831   2   3   30.971000   -14.72000  -15.218000
1832   2   3   30.938000   -13.293000  -15.243000
1833   2   1   31.011000   -12.559000  -14.023000
1834   2   1   31.48000   -11.196000  -14.056000
1835   2   1   31.775000   -10.496000  -12.844000
1836   2   1   32.687000   -9.351000  -12.886000
1837   2   1   33.193000   -8.753000  -11.679000
1838   2   1   34.464000   -7.99000  -11.722000
1839   2   1   35.164000   -7.626000  -10.511000
1840   2   1   36.648000   -7.347000  -10.552000
1841   2   1   37.433000   -7.243000  -9.344000
1842   2   1   38.949000   -7.444000  -9.381000
1843   2   1   39.723000   -7.586000  -8.162000
1844   2   1   41.082000   -8.335000  -8.181000
1845   2   1   41.839000   -8.717000  -6.994000
1846   2   1   42.791000   -9.859000  -6.992000
1847   2   1   34.513000   -19.818000  -21.369000
1848   2   1   33.262000   -19.132000  -21.35000
1849   2   1   32.79000   -18.545000  -20.133000
1850   2   1   31.839000   -17.461000  -20.129000
1851   2   1   31.559000   -16.798000  -18.897000
1852   2   1   31.041000   -15.47000  -18.908000
1853   2   3   30.954000   -14.752000  -17.681000
1854   2   3   30.921000   -13.335000  -17.706000
1855   2   3   31.05000   -12.616000  -16.483000
1856   2   3   31.507000   -11.272000  -16.518000
1857   2   3   31.85000   -10.617000  -15.299000
1858   2   3   32.743000   -9.505000  -15.341000
1859   2   1   33.268000   -8.967000  -14.128000
1860   2   1   34.501000   -8.224000  -14.172000
1861   2   1   35.17000   -7.854000  -12.963000
1862   2   1   36.606000   -7.574000  -13.003000
1863   2   1   37.372000   -7.422000  -11.797000
1864   2   1   38.85000   -7.62000  -11.836000
1865   2   1   39.618000   -7.764000  -10.619000
1866   2   1   40.936000   -8.488000  -10.64000
1867   2   1   41.593000   -8.895000  -9.418000
1868   2   1   42.581000   -10.064000  -9.419000
1869   2   1   43.065000   -10.656000  -8.183000
1870   2   1   43.647000   -12.102000  -8.175000
1871   2   1   43.986000   -12.858000  -6.974000
1872   2   1   44.017000   -14.339000  -6.953000
1873   2   2   32.77000   -19.0000  -22.234000
1874   2   2   31.375000   -17.41000  -22.225000
1875   2   2   41.875000   -19.01000  -5.947000
1876   2   2   39.823000   -20.246000  -5.88000
1877   2   2   30.506000   -15.179000  -22.24000
1878   2   2   30.46000   -13.063000  -22.272000
1879   2   2   37.413000   -20.663000  -5.808000
1880   2   2   35.03000   -20.355000  -5.763000
1881   2   2   31.228000   -10.797000  -22.324000
1882   2   2   32.552000   -9.148000  -22.379000
1883   2   2   32.891000   -19.176000  -5.731000
1884   2   2   31.336000   -17.338000  -5.72000
1885   2   2   34.599000   -7.908000  -22.446000
1886   2   2   36.673000   -7.497000  -22.5000
1887   2   2   30.382000   -15.084000  -5.744000
1888   2   2   30.335000   -12.678000  -5.779000
1889   2   2   39.039000   -7.861000  -22.551000
1890   2   2   40.894000   -8.879000  -22.578000
1891   2   2   31.184000   -10.382000  -5.822000
1892   2   2   32.65000   -8.47000  -5.892000
1893   2   2   42.473000   -10.677000  -22.587000
1894   2   2   43.239000   -12.648000  -22.574000
1895   2   2   34.739000   -7.207000  -5.959000
1896   2   2   37.109000   -6.788000  -6.015000
1897   2   2   43.292000   -15.041000  -22.538000
1898   2   2   42.61000   -17.042000  -22.492000
1899   2   2   39.537000   -7.095000  -6.077000
1900   2   2   41.635000   -8.259000  -6.106000
1901   2   2   41.113000   -18.908000  -22.43000
1902   2   2   39.305000   -20.005000  -22.372000
1903   2   2   43.198000   -10.142000  -6.101000
1904   2   2   44.115000   -12.362000  -6.092000
1905   2   2   36.959000   -20.473000  -22.31000
1906   2   2   34.867000   -20.152000  -22.265000
1907   2   2   44.165000   -14.802000  -6.056000
1908   2   2   43.351000   -17.06000  -6.0000
1909   3   1   31.742000   -16.511000  13.575000
1910   3   1   31.163000   -15.142000  13.556000
1911   3   1   31.173000   -14.275000  14.729000
1912   3   1   31.137000   -12.722000  14.683000
1913   3   1   31.368000   -11.947000  15.887000
1914   3   1   31.883000   -10.505000  15.825000
1915   3   1   32.334000   -9.83000  17.022000
1916   3   1   33.266000   -8.638000  16.959000
1917   3   1   33.914000   -8.154000  18.156000
1918   3   1   35.188000   -7.386000  18.092000
1919   3   1   35.961000   -7.186000  19.289000
1920   3   1   37.405000   -6.906000  19.232000
1921   3   1   38.174000   -6.952000  20.435000
1922   3   1   39.605000   -7.16000  20.397000
1923   3   1   40.299000   -7.419000  21.613000
1924   3   1   41.555000   -8.101000  21.595000
1925   3   1   42.124000   -8.538000  22.823000
1926   3   1   43.062000   -9.604000  22.826000
1927   3   3   43.46000   -10.176000  24.065000
1928   3   3   43.975000   -11.497000  24.09000
1929   3   3   44.173000   -12.149000  25.338000
1930   3   3   44.206000   -13.574000  25.38000
1931   3   1   44.207000   -14.249000  26.636000
1932   3   1   43.748000   -15.615000  26.692000
1933   3   1   43.542000   -16.293000  27.934000
1934   3   1   42.653000   -17.407000  27.996000
1935   3   1   31.083000   -11.926000  13.461000
1936   3   1   31.59000   -10.528000  13.4000
1937   3   1   32.145000   -9.841000  14.563000
1938   3   1   33.1000   -8.609000  14.5000
1939   3   1   33.758000   -8.129000  15.699000
1940   3   1   35.058000   -7.34000  15.635000
1941   3   1   35.827000   -7.089000  16.832000
1942   3   1   37.313000   -6.808000  16.775000
1943   3   1   38.106000   -6.816000  17.979000
1944   3   1   39.589000   -7.012000  17.941000
1945   3   1   40.295000   -7.32000  19.155000
1946   3   1   41.585000   -8.021000  19.136000
1947   3   1   42.123000   -8.528000  20.36000
1948   3   1   43.074000   -9.617000  20.363000
1949   3   1   43.425000   -10.229000  21.601000
1950   3   1   43.946000   -11.561000  21.626000
1951   3   1   44.085000   -12.227000  22.875000
1952   3   1   44.118000   -13.647000  22.917000
1953   3   3   44.04000   -14.307000  24.174000
1954   3   3   43.588000   -15.65000  24.229000
1955   3   3   43.308000   -16.243000  25.49000
1956   3   3   42.421000   -17.357000  25.552000
1957   3   1   41.972000   -17.841000  26.816000
1958   3   1   40.743000   -18.592000  26.877000
1959   3   1   40.134000   -18.945000  28.122000
1960   3   1   38.736000   -19.225000  28.174000
1961   3   1   33.575000   -7.984000  13.27000
1962   3   1   34.84000   -7.215000  13.207000
1963   3   1   35.697000   -7.025000  14.372000
1964   3   1   37.231000   -6.74000  14.311000
1965   3   1   38.031000   -6.763000  15.521000
1966   3   1   39.549000   -6.963000  15.48000
1967   3   1   40.287000   -7.224000  16.695000
1968   3   1   41.61000   -7.946000  16.675000
1969   3   1   42.197000   -8.431000  17.902000
1970   3   1   43.17000   -9.57000  17.904000
1971   3   1   43.502000   -10.224000  19.142000
1972   3   1   44.046000   -11.591000  19.169000
1973   3   1   44.121000   -12.287000  20.414000
1974   3   1   44.152000   -13.732000  20.457000
1975   3   1   44.01000   -14.393000  21.711000
1976   3   1   43.553000   -15.747000  21.766000
1977   3   1   43.22000   -16.314000  23.027000
1978   3   1   42.336000   -17.425000  23.088000
1979   3   3   41.839000   -17.848000  24.351000
1980   3   3   40.63000   -18.586000  24.411000
1981   3   3   40.018000   -18.825000  25.672000
1982   3   3   38.621000   -19.105000  25.724000
1983   3   1   37.951000   -19.152000  26.981000
1984   3   1   36.526000   -18.934000  27.018000
1985   3   1   35.817000   -18.78000  28.25000
1986   3   1   34.565000   -18.095000  28.268000
1987   3   1   38.01000   -6.613000  13.082000
1988   3   1   39.485000   -6.8000  13.044000
1989   3   1   40.256000   -7.163000  14.23000
1990   3   1   41.617000   -7.911000  14.209000
1991   3   1   42.196000   -8.413000  15.44000
1992   3   1   43.188000   -9.58000  15.442000
1993   3   1   43.575000   -10.22000  16.681000
1994   3   1   44.144000   -11.622000  16.708000
1995   3   1   44.267000   -12.335000  17.958000
1996   3   1   44.296000   -13.824000  18.003000
1997   3   1   44.108000   -14.504000  19.256000
1998   3   1   43.633000   -15.896000  19.311000
1999   3   1   43.234000   -16.449000  20.567000
2000   3   1   42.339000   -17.584000  20.631000
2001   3   1   41.793000   -17.965000  21.89000
2002   3   1   40.575000   -18.71000  21.95000
2003   3   1   39.937000   -18.893000  23.208000
2004   3   1   38.545000   -19.171000  23.26000
2005   3   3   37.876000   -19.139000  24.514000
2006   3   3   36.475000   -18.924000  24.551000
2007   3   3   35.836000   -18.679000  25.797000
2008   3   3   34.586000   -17.995000  25.815000
2009   3   1   34.025000   -17.567000  27.054000
2010   3   1   33.072000   -16.486000  27.05000
2011   3   1   32.611000   -15.88000  28.261000
2012   3   1   32.089000   -14.552000  28.237000
2013   3   1   42.31000   -8.347000  13.001000
2014   3   1   43.264000   -9.489000  13.002000
2015   3   1   43.606000   -10.228000  14.214000
2016   3   1   44.193000   -11.671000  14.244000
2017   3   1   44.311000   -12.392000  15.497000
2018   3   1   44.345000   -13.912000  15.543000
2019   3   1   44.209000   -14.615000  16.798000
2020   3   1   43.713000   -16.045000  16.855000
2021   3   1   43.338000   -16.641000  18.116000
2022   3   1   42.43000   -17.83000  18.183000
2023   3   1   41.833000   -18.194000  19.44000
2024   3   1   40.581000   -18.96000  19.503000
2025   3   1   39.897000   -19.08000  20.753000
2026   3   1   38.478000   -19.358000  20.804000
2027   3   1   37.798000   -19.264000  22.053000
2028   3   1   36.385000   -19.048000  22.091000
2029   3   1   35.763000   -18.744000  23.333000
2030   3   1   34.517000   -18.061000  23.351000
2031   3   3   34.009000   -17.574000  24.586000
2032   3   3   33.071000   -16.51000  24.582000
2033   3   3   32.722000   -15.88000  25.808000
2034   3   3   32.201000   -14.554000  25.784000
2035   3   1   32.03000   -13.833000  27.002000
2036   3   1   31.994000   -12.393000  26.96000
2037   3   1   32.016000   -11.6000  28.15000
2038   3   1   32.471000   -10.249000  28.095000
2039   3   1   44.466000   -12.481000  13.062000
2040   3   1   44.5000   -13.961000  13.106000
2041   3   1   44.266000   -14.711000  14.335000
2042   3   1   43.75000   -16.181000  14.393000
2043   3   1   43.364000   -16.777000  15.658000
2044   3   1   42.435000   -17.992000  15.726000
2045   3   1   41.871000   -18.417000  16.988000
2046   3   1   40.584000   -19.202000  17.051000
2047   3   1   39.895000   -19.378000  18.31000
2048   3   1   38.421000   -19.65000  18.361000
2049   3   1   37.714000   -19.517000  19.606000
2050   3   1   36.258000   -19.302000  19.647000
2051   3   1   35.643000   -18.927000  20.881000
2052   3   1   34.376000   -18.23000  20.899000
2053   3   1   33.9000   -17.685000  22.126000
2054   3   1   32.956000   -16.611000  22.122000
2055   3   1   32.656000   -15.949000  23.344000
2056   3   1   32.134000   -14.627000  23.32000
2057   3   3   32.042000   -13.895000  24.535000
2058   3   3   32.006000   -12.478000  24.493000
2059   3   3   32.129000   -11.738000  25.701000
2060   3   3   32.584000   -10.388000  25.646000
2061   3   1   32.903000   -9.694000  26.849000
2062   3   1   33.803000   -8.569000  26.787000
2063   3   1   34.315000   -7.943000  27.966000
2064   3   1   35.533000   -7.202000  27.905000
2065   3   1   43.442000   -17.0000  13.226000
2066   3   1   42.544000   -18.182000  13.292000
2067   3   1   41.878000   -18.586000  14.526000
2068   3   1   40.553000   -19.39000  14.591000
2069   3   1   39.859000   -19.561000  15.853000
2070   3   1   38.352000   -19.836000  15.906000
2071   3   1   37.63000   -19.765000  17.157000
2072   3   1   36.13000   -19.555000  17.199000
2073   3   1   35.476000   -19.213000  18.442000
2074   3   1   34.171000   -18.493000  18.46000
2075   3   1   33.703000   -17.897000  19.684000
2076   3   1   32.736000   -16.787000  19.678000
2077   3   1   32.482000   -16.074000  20.89000
2078   3   1   31.946000   -14.73000  20.867000
2079   3   1   31.914000   -13.976000  22.075000
2080   3   1   31.876000   -12.548000  22.034000
2081   3   1   32.061000   -11.815000  23.238000
2082   3   1   32.515000   -10.469000  23.183000
2083   3   3   32.902000   -9.816000  24.384000
2084   3   3   33.788000   -8.71000  24.323000
2085   3   3   34.344000   -8.19000  25.524000
2086   3   3   35.561000   -7.45000  25.463000
2087   3   1   36.236000   -7.088000  26.665000
2088   3   1   37.648000   -6.803000  26.612000
2089   3   1   38.428000   -6.618000  27.797000
2090   3   1   39.838000   -6.831000  27.759000
2091   3   1   39.803000   -19.849000  13.427000
2092   3   1   38.34000   -20.107000  13.477000
2093   3   1   37.556000   -19.956000  14.698000
2094   3   1   36.014000   -19.742000  14.743000
2095   3   1   35.354000   -19.4000  15.988000
2096   3   1   34.02000   -18.667000  16.008000
2097   3   1   33.503000   -18.109000  17.237000
2098   3   1   32.513000   -16.961000  17.232000
2099   3   1   32.211000   -16.248000  18.45000
2100   3   1   31.637000   -14.864000  18.429000
2101   3   1   31.645000   -14.076000  19.632000
2102   3   1   31.606000   -12.607000  19.589000
2103   3   1   31.869000   -11.866000  20.783000
2104   3   1   32.337000   -10.499000  20.726000
2105   3   1   32.783000   -9.866000  21.923000
2106   3   1   33.675000   -8.751000  21.862000
2107   3   1   34.274000   -8.274000  23.061000
2108   3   1   35.487000   -7.537000  23.0000
2109   3   3   36.188000   -7.251000  24.203000
2110   3   3   37.578000   -6.971000  24.151000
2111   3   3   38.322000   -6.894000  25.359000
2112   3   3   39.731000   -7.106000  25.322000
2113   3   1   40.466000   -7.228000  26.537000
2114   3   1   41.732000   -7.918000  26.519000
2115   3   1   42.432000   -8.246000  27.722000
2116   3   1   43.375000   -9.317000  27.725000
2117   3   1   35.154000   -19.656000  13.568000
2118   3   1   33.855000   -18.945000  13.587000
2119   3   1   33.343000   -18.285000  14.783000
2120   3   1   32.325000   -17.103000  14.776000
2121   3   1   32.028000   -16.381000  15.999000
2122   3   1   31.439000   -14.966000  15.977000
2123   3   1   31.382000   -14.175000  17.186000
2124   3   1   31.345000   -12.668000  17.141000
2125   3   1   31.562000   -11.894000  18.342000
2126   3   1   32.064000   -10.483000  18.281000
2127   3   1   32.557000   -9.847000  19.474000
2128   3   1   33.47000   -8.695000  19.413000
2129   3   1   34.126000   -8.259000  20.605000
2130   3   1   35.361000   -7.511000  20.543000
2131   3   1   36.096000   -7.282000  21.741000
2132   3   1   37.497000   -7.002000  21.688000
2133   3   1   38.246000   -6.983000  22.896000
2134   3   1   39.651000   -7.193000  22.859000
2135   3   3   40.357000   -7.389000  24.077000
2136   3   3   41.602000   -8.067000  24.059000
2137   3   3   42.206000   -8.454000  25.286000
2138   3   3   43.148000   -9.524000  25.289000
2139   3   1   43.615000   -10.058000  26.526000
2140   3   1   44.14000   -11.4000  26.551000
2141   3   1   44.45000   -12.069000  27.776000
2142   3   1   44.483000   -13.495000  27.819000
2143   3   2   33.351000   -18.843000  12.706000
2144   3   2   31.804000   -17.018000  12.692000
2145   3   2   42.458000   -17.819000  28.908000
2146   3   2   40.655000   -18.919000  28.999000
2147   3   2   30.845000   -14.766000  12.663000
2148   3   2   30.785000   -12.369000  12.592000
2149   3   2   38.31000   -19.389000  29.086000
2150   3   2   36.221000   -19.071000  29.14000
2151   3   2   31.625000   -10.07000  12.489000
2152   3   2   33.071000   -8.154000  12.4000
2153   3   2   34.122000   -17.924000  29.171000
2154   3   2   32.723000   -16.338000  29.165000
2155   3   2   35.157000   -6.885000  12.295000
2156   3   2   37.522000   -6.471000  12.198000
2157   3   2   31.848000   -14.111000  29.125000
2158   3   2   31.795000   -11.999000  29.062000
2159   3   2   39.953000   -6.773000  12.138000
2160   3   2   42.06000   -7.928000  12.105000
2161   3   2   32.559000   -9.732000  28.97000
2162   3   2   33.879000   -8.082000  28.878000
2163   3   2   43.625000   -9.812000  12.105000
2164   3   2   44.547000   -12.026000  12.153000
2165   3   2   35.921000   -6.838000  28.775000
2166   3   2   37.992000   -6.42000  28.698000
2167   3   2   44.602000   -14.465000  12.225000
2168   3   2   43.783000   -16.709000  12.31000
2169   3   2   40.358000   -6.777000  28.635000
2170   3   2   42.215000   -7.791000  28.609000
2171   3   2   42.309000   -18.658000  12.421000
2172   3   2   40.269000   -19.896000  12.521000
2173   3   2   43.797000   -9.586000  28.614000
2174   3   2   44.565000   -11.557000  28.651000
2175   3   2   37.861000   -20.316000  12.601000
2176   3   2   35.492000   -20.014000  12.675000
2177   3   2   44.622000   -13.948000  28.722000
2178   3   2   43.949000   -15.95000  28.804000
2179   4   1   50.463000   -1.71000  0.962000
2180   4   1   50.469000   -3.166000  0.414000
2181   4   1   53.038000   -6.149000  0.892000
2182   4   1   53.035000   -7.619000  0.344000
2183   4   1   51.766000   -5.385000  0.385000
2184   4   1   54.299000   -8.373000  0.86000
2185   4   1   53.054000   -3.173000  0.471000
2186   4   1   52.987000   -1.722000  1.03000
2187   4   1   54.296000   -3.954000  1.005000
2188   4   1   51.752000   -3.92000  0.926000
2189   4   1   51.733000   -0.986000  0.444000
2190   4   1   54.343000   -5.402000  0.441000
2191   4   1   55.575000   -6.202000  0.969000
2192   4   1   55.567000   -7.639000  0.348000
2193   4   1   58.112000   -6.218000  0.401000
2194   4   1   56.94000   -5.423000  1.022000
2195   4   1   59.457000   -5.405000  0.33000
2196   4   1   60.602000   -6.216000  1.039000
2197   4   1   59.362000   -4.011000  1.048000
2198   4   1   54.35000   -0.948000  1.077000
2199   4   1   56.781000   0.435000  1.099000
2200   4   1   55.658000   -3.177000  1.049000
2201   4   1   58.083000   -1.781000  1.074000
2202   4   1   55.612000   1.22000  0.405000
2203   4   1   54.239000   0.467000  0.479000
2204   4   1   55.532000   -1.754000  0.455000
2205   4   1   56.923000   -0.964000  0.383000
2206   4   1   56.827000   -3.988000  0.429000
2207   4   1   58.21000   -3.182000  0.358000
2208   4   1   62.02000   -4.076000  0.525000
2209   4   1   62.018000   -5.541000  1.076000
2210   4   1   60.764000   -3.258000  1.093000
2211   4   1   58.129000   1.279000  1.147000
2212   4   1   59.455000   -0.984000  1.121000
2213   4   1   58.033000   2.781000  0.604000
2214   4   1   59.389000   0.509000  0.587000
2215   4   1   60.715000   -1.773000  0.561000
2216   4   1   53.003000   -6.193000  2.468000
2217   4   1   51.707000   -5.458000  2.956000
2218   4   1   52.976000   -7.694000  2.924000
2219   4   1   50.431000   -1.752000  2.53000
2220   4   1   50.412000   -3.238000  2.993000
2221   4   1   55.544000   -6.241000  2.517000
2222   4   1   55.508000   -7.712000  3.048000
2223   4   1   54.267000   -8.416000  2.428000
2224   4   1   52.999000   -3.241000  3.058000
2225   4   1   54.266000   -3.993000  2.541000
2226   4   1   52.958000   -1.761000  2.577000
2227   4   1   51.718000   -3.963000  2.501000
2228   4   1   54.286000   -5.472000  3.026000
2229   4   1   51.677000   -1.058000  3.145000
2230   4   1   56.911000   -5.458000  2.567000
2231   4   1   59.341000   -4.041000  2.664000
2232   4   1   60.586000   -6.242000  2.633000
2233   4   1   55.63000   -3.213000  2.588000
2234   4   1   58.061000   -1.812000  2.686000
2235   4   1   54.324000   -0.985000  2.621000
2236   4   1   56.759000   0.403000  2.715000
2237   4   1   58.168000   -3.24000  3.353000
2238   4   1   59.419000   -5.459000  3.34000
2239   4   1   56.782000   -4.045000  3.213000
2240   4   1   58.067000   -6.267000  3.209000
2241   4   1   55.49000   -1.815000  3.24000
2242   4   1   56.881000   -1.024000  3.378000
2243   4   1   54.2000   0.403000  3.285000
2244   4   1   55.572000   1.161000  3.415000
2245   4   1   62.001000   -5.561000  2.642000
2246   4   1   60.744000   -3.284000  2.673000
2247   4   1   59.434000   -1.013000  2.698000
2248   4   1   58.109000   1.248000  2.728000
2249   4   1   60.68000   -1.818000  3.256000
2250   4   1   61.988000   -4.113000  3.238000
2251   4   1   59.356000   0.458000  3.285000
2252   4   1   58.004000   2.728000  3.324000
2253   4   1   59.731000   -3.771000  -1.758000
2254   4   1   60.836000   -6.064000  -1.774000
2255   4   1   58.482000   -1.522000  -1.73000
2256   4   1   57.142000   0.674000  -1.708000
2257   4   1   58.518000   -2.98000  -1.208000
2258   4   1   59.695000   -5.221000  -1.226000
2259   4   1   57.237000   -0.778000  -1.183000
2260   4   1   55.869000   1.352000  -1.151000
2261   4   1   62.248000   -5.431000  -1.677000
2262   4   1   61.102000   -3.062000  -1.653000
2263   4   1   59.814000   -0.748000  -1.624000
2264   4   1   58.437000   1.513000  -1.603000
2265   4   1   60.94000   -1.642000  -0.976000
2266   4   1   62.204000   -4.0000  -1.011000
2267   4   1   59.598000   0.661000  -0.95000
2268   4   1   58.172000   2.923000  -0.933000
2269   4   1   63.034000   -6.633000  0.49000
2270   4   1   63.013000   -6.658000  3.21000
2271   4   1   60.874000   -7.597000  0.398000
2272   4   1   60.858000   -7.639000  3.244000
2273   4   1   62.263000   -7.879000  1.028000
2274   4   1   62.256000   -7.896000  2.627000
2275   4   1   59.801000   0.824000  -3.73000
2276   4   1   58.532000   1.599000  -3.17000
2277   4   1   59.929000   -0.664000  -3.184000
2278   4   1   58.319000   3.081000  -3.731000
2279   4   1   61.159000   -1.499000  -3.754000
2280   4   1   61.213000   -2.995000  -3.22000
2281   4   1   62.347000   -5.381000  -3.236000
2282   4   1   62.396000   -3.902000  -3.805000
2283   4   1   60.92000   -6.006000  -3.331000
2284   4   1   59.826000   -3.705000  -3.33000
2285   4   1   59.887000   -5.096000  -4.027000
2286   4   1   57.458000   -0.623000  -3.974000
2287   4   1   58.586000   -1.445000  -3.298000
2288   4   1   57.228000   0.745000  -3.28000
2289   4   1   58.743000   -2.82000  -4.0000
2290   4   1   56.037000   1.495000  -3.95000
2291   4   1   59.631000   -5.33000  4.907000
2292   4   1   60.775000   -6.174000  5.454000
2293   4   1   59.646000   -3.897000  5.485000
2294   4   1   57.055000   0.539000  5.537000
2295   4   1   58.39000   -1.656000  5.506000
2296   4   1   55.796000   1.241000  4.981000
2297   4   1   57.157000   -0.894000  4.959000
2298   4   1   58.439000   -3.095000  4.934000
2299   4   1   62.139000   -4.077000  4.778000
2300   4   1   62.182000   -5.521000  5.398000
2301   4   1   61.016000   -3.175000  5.43000
2302   4   1   58.354000   1.379000  5.488000
2303   4   1   59.723000   -0.876000  5.455000
2304   4   1   58.113000   2.812000  4.867000
2305   4   1   59.527000   0.554000  4.83000
2306   4   1   60.865000   -1.738000  4.8000
2307   4   1   62.255000   -5.511000  6.959000
2308   4   1   61.097000   -3.155000  6.999000
2309   4   1   62.278000   -4.057000  7.575000
2310   4   1   59.672000   0.618000  7.616000
2311   4   1   59.806000   -0.845000  7.018000
2312   4   1   58.419000   1.409000  7.058000
2313   4   1   61.026000   -1.686000  7.585000
2314   4   1   58.208000   2.866000  7.669000
2315   4   1   57.322000   -0.837000  7.761000
2316   4   1   57.111000   0.555000  7.112000
2317   4   1   58.464000   -1.632000  7.079000
2318   4   1   55.913000   1.284000  7.788000
2319   4   1   58.61000   -3.028000  7.737000
2320   4   1   59.713000   -3.88000  7.06000
2321   4   1   60.837000   -6.161000  7.014000
2322   4   1   59.778000   -5.289000  7.718000
2323   4   1   63.089000   -6.667000  4.77000
2324   4   1   60.911000   -7.602000  4.839000
2325   4   1   63.226000   -6.641000  7.497000
2326   4   1   61.019000   -7.578000  7.587000
2327   4   1   62.334000   -7.894000  5.39000
2328   4   1   62.407000   -7.871000  6.981000
2329   4   1   60.941000   -7.512000  -1.195000
2330   4   1   63.128000   -6.61000  -1.069000
2331   4   1   61.08000   -7.411000  -3.937000
2332   4   1   63.303000   -6.527000  -3.792000
2333   4   1   62.363000   -7.817000  -1.732000
2334   4   1   62.452000   -7.761000  -3.322000
2335   4   1   49.225000   -5.359000  0.261000
2336   4   1   49.193000   -3.932000  0.869000
2337   4   1   50.459000   -6.133000  0.823000
2338   4   1   50.5000   -7.571000  0.224000
2339   4   1   51.726000   -8.332000  0.798000
2340   4   1   51.691000   -8.376000  2.363000
2341   4   1   49.164000   -5.435000  2.958000
2342   4   1   50.424000   -6.178000  2.41000
2343   4   1   49.159000   -3.975000  2.434000
2344   4   1   50.439000   -7.648000  2.922000
2345   4   1   55.459000   2.572000  2.733000
2346   4   1   56.748000   3.465000  2.749000
2347   4   1   55.477000   2.602000  1.14000
2348   4   1   56.764000   3.496000  1.182000
2349   4   1   55.618000   2.638000  5.554000
2350   4   1   56.877000   3.544000  5.511000
2351   4   1   56.292000   4.872000  3.351000
2352   4   1   56.313000   4.924000  0.623000
2353   4   1   54.376000   3.482000  3.366000
2354   4   1   54.403000   3.531000  0.525000
2355   4   1   54.841000   4.837000  2.774000
2356   4   1   54.852000   4.865000  1.175000
2357   4   1   56.925000   3.569000  7.073000
2358   4   1   55.664000   2.649000  7.114000
2359   4   1   55.691000   2.767000  -1.674000
2360   4   1   56.943000   3.676000  -1.575000
2361   4   1   57.018000   3.759000  -3.134000
2362   4   1   55.765000   2.833000  -3.23000
2363   4   1   56.366000   5.015000  -0.937000
2364   4   1   54.493000   3.571000  -1.067000
2365   4   1   56.495000   5.163000  -3.662000
2366   4   1   54.616000   3.681000  -3.807000
2367   4   1   54.933000   4.962000  -1.586000
2368   4   1   55.009000   5.034000  -3.175000
2369   4   1   54.437000   3.471000  4.959000
2370   4   1   56.321000   4.908000  4.914000
2371   4   1   54.515000   3.485000  7.706000
2372   4   1   56.411000   4.954000  7.645000
2373   4   1   54.88000   4.84000  5.538000
2374   4   1   54.935000   4.854000  7.129000
2375   4   1   33.314000   4.448000  1.259000
2376   4   1   34.583000   3.707000  0.734000
2377   4   1   38.448000   4.427000  1.229000
2378   4   1   39.729000   3.673000  0.707000
2379   4   1   37.155000   3.705000  0.725000
2380   4   1   41.009000   4.395000  1.221000
2381   4   1   35.869000   5.952000  0.764000
2382   4   1   34.571000   6.648000  1.297000
2383   4   1   37.165000   6.636000  1.293000
2384   4   1   35.872000   4.449000  1.242000
2385   4   1   33.317000   5.91000  0.717000
2386   4   1   38.45000   5.926000  0.752000
2387   4   1   39.756000   6.592000  1.278000
2388   4   1   41.006000   5.852000  0.683000
2389   4   1   41.042000   8.759000  0.685000
2390   4   1   39.762000   8.162000  1.308000
2391   4   1   41.032000   10.328000  0.61000
2392   4   1   42.31000   10.89000  1.326000
2393   4   1   39.786000   10.964000  1.32000
2394   4   1   34.575000   8.232000  1.32000
2395   4   1   34.634000   11.052000  1.322000
2396   4   1   37.173000   8.208000  1.317000
2397   4   1   37.214000   11.014000  1.325000
2398   4   1   33.345000   10.465000  0.619000
2399   4   1   33.297000   8.882000  0.703000
2400   4   1   35.882000   8.832000  0.71000
2401   4   1   35.914000   10.437000  0.626000
2402   4   1   38.471000   8.796000  0.702000
2403   4   1   38.486000   10.398000  0.622000
2404   4   1   41.222000   13.207000  0.803000
2405   4   1   42.472000   12.45000  1.364000
2406   4   1   39.87000   12.553000  1.363000
2407   4   1   34.638000   12.646000  1.363000
2408   4   1   37.252000   12.601000  1.366000
2409   4   1   33.333000   13.367000  0.804000
2410   4   1   35.954000   13.318000  0.817000
2411   4   1   38.579000   13.274000  0.817000
2412   4   1   38.456000   4.399000  2.805000
2413   4   1   37.168000   3.66000  3.294000
2414   4   1   39.741000   3.626000  3.286000
2415   4   1   33.323000   4.422000  2.828000
2416   4   1   34.597000   3.663000  3.313000
2417   4   1   39.762000   6.564000  2.826000
2418   4   1   41.016000   5.803000  3.382000
2419   4   1   41.016000   4.367000  2.789000
2420   4   1   35.88000   5.909000  3.346000
2421   4   1   37.171000   6.61000  2.83000
2422   4   1   34.577000   6.623000  2.846000
2423   4   1   35.88000   4.422000  2.818000
2424   4   1   38.46000   5.881000  3.337000
2425   4   1   33.331000   5.866000  3.416000
2426   4   1   39.766000   8.136000  2.853000
2427   4   1   39.788000   10.938000  2.936000
2428   4   1   42.314000   10.864000  2.92000
2429   4   1   37.176000   8.183000  2.858000
2430   4   1   37.215000   10.988000  2.937000
2431   4   1   34.577000   8.208000  2.868000
2432   4   1   34.633000   11.029000  2.94000
2433   4   1   38.489000   10.348000  3.618000
2434   4   1   41.037000   10.278000  3.622000
2435   4   1   38.477000   8.749000  3.486000
2436   4   1   41.046000   8.712000  3.493000
2437   4   1   35.887000   8.79000  3.489000
2438   4   1   35.915000   10.392000  3.619000
2439   4   1   33.301000   8.842000  3.507000
2440   4   1   33.342000   10.425000  3.625000
2441   4   1   42.474000   12.424000  2.931000
2442   4   1   39.873000   12.528000  2.943000
2443   4   1   37.254000   12.576000  2.943000
2444   4   1   34.641000   12.623000  2.941000
2445   4   1   38.583000   13.229000  3.514000
2446   4   1   41.225000   13.162000  3.521000
2447   4   1   35.958000   13.277000  3.511000
2448   4   1   33.338000   13.332000  3.511000
2449   4   1   39.788000   11.393000  -1.489000
2450   4   1   42.317000   11.162000  -1.49000
2451   4   1   37.218000   11.479000  -1.48000
2452   4   1   34.64000   11.483000  -1.482000
2453   4   1   38.482000   10.76000  -0.946000
2454   4   1   41.006000   10.619000  -0.947000
2455   4   1   35.926000   10.8000  -0.943000
2456   4   1   33.371000   10.766000  -0.939000
2457   4   1   42.508000   12.698000  -1.391000
2458   4   1   39.893000   12.934000  -1.385000
2459   4   1   37.257000   13.02000  -1.378000
2460   4   1   34.625000   13.03000  -1.383000
2461   4   1   38.594000   13.528000  -0.719000
2462   4   1   41.258000   13.399000  -0.733000
2463   4   1   35.947000   13.574000  -0.719000
2464   4   1   33.301000   13.568000  -0.73000
2465   4   1   43.935000   12.747000  0.785000
2466   4   1   43.939000   12.704000  3.512000
2467   4   1   43.631000   10.402000  0.689000
2468   4   1   43.638000   10.357000  3.534000
2469   4   1   44.592000   11.436000  1.325000
2470   4   1   44.596000   11.412000  2.925000
2471   4   1   35.94000   13.83000  -3.497000
2472   4   1   34.618000   13.159000  -2.947000
2473   4   1   37.259000   13.161000  -2.936000
2474   4   1   33.276000   13.781000  -3.523000
2475   4   1   38.606000   13.784000  -3.498000
2476   4   1   39.904000   13.061000  -2.952000
2477   4   1   42.524000   12.807000  -2.95000
2478   4   1   41.289000   13.61000  -3.528000
2479   4   1   42.32000   11.263000  -3.046000
2480   4   1   39.791000   11.506000  -3.061000
2481   4   1   41.015000   10.844000  -3.751000
2482   4   1   35.931000   11.072000  -3.736000
2483   4   1   37.219000   11.608000  -3.05000
2484   4   1   34.64000   11.599000  -3.056000
2485   4   1   38.48000   11.03000  -3.74000
2486   4   1   33.368000   10.998000  -3.739000
2487   4   1   41.016000   10.517000  5.188000
2488   4   1   42.33000   11.044000  5.742000
2489   4   1   39.796000   11.272000  5.758000
2490   4   1   34.636000   11.381000  5.754000
2491   4   1   37.22000   11.362000  5.755000
2492   4   1   33.361000   10.689000  5.19000
2493   4   1   35.923000   10.707000  5.198000
2494   4   1   38.485000   10.658000  5.198000
2495   4   1   41.264000   13.302000  5.063000
2496   4   1   42.518000   12.582000  5.692000
2497   4   1   39.901000   12.815000  5.703000
2498   4   1   34.631000   12.93000  5.697000
2499   4   1   37.263000   12.906000  5.7000
2500   4   1   33.313000   13.494000  5.05000
2501   4   1   35.955000   13.485000  5.054000
2502   4   1   38.601000   13.431000  5.059000
2503   4   1   42.538000   12.642000  7.254000
2504   4   1   39.915000   12.891000  7.273000
2505   4   1   41.303000   13.421000  7.863000
2506   4   1   35.95000   13.657000  7.84000
2507   4   1   37.266000   12.997000  7.262000
2508   4   1   34.624000   13.015000  7.264000
2509   4   1   38.617000   13.596000  7.845000
2510   4   1   33.286000   13.636000  7.849000
2511   4   1   35.923000   10.895000  7.997000
2512   4   1   34.632000   11.453000  7.332000
2513   4   1   37.221000   11.442000  7.329000
2514   4   1   33.347000   10.849000  7.995000
2515   4   1   38.485000   10.838000  7.998000
2516   4   1   39.802000   11.333000  7.334000
2517   4   1   42.34000   11.094000  7.302000
2518   4   1   41.034000   10.65000  7.997000
2519   4   1   43.977000   12.75000  5.072000
2520   4   1   43.618000   10.41000  5.129000
2521   4   1   44.016000   12.86000  7.802000
2522   4   1   43.635000   10.494000  7.876000
2523   4   1   44.618000   11.453000  5.689000
2524   4   1   44.631000   11.513000  7.281000
2525   4   1   43.603000   10.503000  -0.903000
2526   4   1   43.97000   12.841000  -0.774000
2527   4   1   43.604000   10.675000  -3.647000
2528   4   1   43.998000   13.036000  -3.5000
2529   4   1   44.602000   11.56000  -1.436000
2530   4   1   44.605000   11.669000  -3.026000
2531   4   1   35.869000   1.517000  0.629000
2532   4   1   34.612000   2.222000  1.215000
2533   4   1   37.155000   2.202000  1.189000
2534   4   1   38.429000   1.502000  0.613000
2535   4   1   39.699000   2.19000  1.186000
2536   4   1   39.707000   2.161000  2.751000
2537   4   1   35.885000   1.47000  3.326000
2538   4   1   37.164000   2.174000  2.776000
2539   4   1   34.622000   2.195000  2.78000
2540   4   1   38.444000   1.453000  3.311000
2541   4   1   32.081000   11.091000  2.926000
2542   4   1   32.052000   12.665000  2.927000
2543   4   1   32.083000   11.11000  1.33000
2544   4   1   32.049000   12.683000  1.364000
2545   4   1   32.074000   11.317000  5.738000
2546   4   1   32.025000   12.868000  5.68000
2547   4   1   30.633000   13.095000  3.499000
2548   4   1   30.628000   13.117000  0.791000
2549   4   1   30.693000   10.725000  3.544000
2550   4   1   30.701000   10.751000  0.7000
2551   4   1   29.839000   11.877000  2.928000
2552   4   1   29.84000   11.888000  1.333000
2553   4   1   32.012000   12.944000  7.238000
2554   4   1   32.067000   11.385000  7.301000
2555   4   1   32.083000   11.396000  -1.477000
2556   4   1   32.018000   12.945000  -1.384000
2557   4   1   32.006000   13.057000  -2.94000
2558   4   1   32.084000   11.5000  -3.037000
2559   4   1   30.59000   13.218000  -0.767000
2560   4   1   30.727000   10.853000  -0.892000
2561   4   1   30.569000   13.416000  -3.483000
2562   4   1   30.737000   11.027000  -3.633000
2563   4   1   29.829000   12.011000  -1.423000
2564   4   1   29.836000   12.119000  -3.01000
2565   4   1   30.713000   10.802000  5.137000
2566   4   1   30.603000   13.171000  5.058000
2567   4   1   30.705000   10.924000  7.879000
2568   4   1   30.581000   13.319000  7.777000
2569   4   1   29.827000   11.965000  5.684000
2570   4   1   29.827000   12.047000  7.272000
2571   4   1   52.674000   8.213000  1.241000
2572   4   1   50.842000   9.934000  1.277000
2573   4   1   49.995000   11.13000  0.689000
2574   4   1   52.261000   9.619000  0.656000
2575   4   1   52.675000   8.192000  2.824000
2576   4   1   50.847000   9.916000  2.86000
2577   4   1   52.269000   9.582000  3.456000
2578   4   1   50.005000   11.098000  3.489000
2579   4   1   52.68000   8.263000  -1.553000
2580   4   1   50.837000   9.976000  -1.517000
2581   4   1   52.257000   9.644000  -0.915000
2582   4   1   49.993000   11.153000  -0.88000
2583   4   1   53.904000   7.441000  0.619000
2584   4   1   53.901000   7.395000  3.417000
2585   4   1   53.758000   5.99000  1.209000
2586   4   1   53.751000   5.965000  2.775000
2587   4   1   52.285000   9.731000  -3.694000
2588   4   1   50.854000   10.036000  -3.097000
2589   4   1   50.008000   11.247000  -3.661000
2590   4   1   52.722000   8.322000  -3.133000
2591   4   1   52.687000   8.168000  5.62000
2592   4   1   50.863000   9.895000  5.654000
2593   4   1   50.014000   11.086000  5.058000
2594   4   1   52.276000   9.568000  5.026000
2595   4   1   52.733000   8.18000  7.2000
2596   4   1   52.328000   9.581000  7.806000
2597   4   1   50.895000   9.916000  7.234000
2598   4   1   50.057000   11.114000  7.84000
2599   4   1   53.905000   7.384000  4.988000
2600   4   1   53.98000   7.397000  7.763000
2601   4   1   53.769000   5.944000  5.6000
2602   4   1   53.826000   5.952000  7.168000
2603   4   1   53.911000   7.478000  -0.951000
2604   4   1   53.99000   7.586000  -3.723000
2605   4   1   53.807000   6.056000  -1.615000
2606   4   1   53.877000   6.117000  -3.181000
2607   4   1   48.557000   10.937000  2.887000
2608   4   1   48.552000   10.956000  1.305000
2609   4   1   48.574000   10.921000  5.684000
2610   4   1   47.333000   11.719000  3.513000
2611   4   1   47.325000   11.756000  0.715000
2612   4   1   46.1000   10.965000  2.893000
2613   4   1   46.094000   10.987000  1.328000
2614   4   1   48.596000   10.962000  7.263000
2615   4   1   48.549000   11.007000  -1.491000
2616   4   1   48.555000   11.086000  -3.069000
2617   4   1   47.331000   11.789000  -0.854000
2618   4   1   47.342000   11.932000  -3.627000
2619   4   1   46.091000   11.073000  -1.499000
2620   4   1   46.087000   11.174000  -3.064000
2621   4   1   47.346000   11.712000  5.082000
2622   4   1   47.38000   11.783000  7.857000
2623   4   1   46.112000   10.973000  5.722000
2624   4   1   46.122000   11.03000  7.29000
2625   4   1   54.209000   -18.836000  0.936000
2626   4   1   52.897000   -19.506000  0.43000
2627   4   1   51.376000   -23.112000  1.046000
2628   4   1   50.053000   -23.781000  0.54000
2629   4   1   51.486000   -21.653000  0.492000
2630   4   1   49.949000   -25.229000  1.099000
2631   4   1   54.035000   -21.82000  0.541000
2632   4   1   55.313000   -21.102000  1.059000
2633   4   1   53.889000   -23.262000  1.12000
2634   4   1   52.799000   -20.972000  0.99000
2635   4   1   55.412000   -19.67000  0.426000
2636   4   1   52.608000   -23.963000  0.595000
2637   4   1   52.44000   -25.407000  1.168000
2638   4   1   51.148000   -26.052000  0.582000
2639   4   1   53.514000   -27.719000  0.652000
2640   4   1   53.729000   -26.293000  1.226000
2641   4   1   54.833000   -28.573000  0.586000
2642   4   1   54.643000   -29.947000  1.341000
2643   4   1   56.049000   -27.836000  1.264000
2644   4   1   56.604000   -21.986000  1.116000
2645   4   1   58.905000   -23.565000  1.151000
2646   4   1   55.178000   -24.143000  1.171000
2647   4   1   57.484000   -25.701000  1.207000
2648   4   1   59.089000   -22.193000  0.416000
2649   4   1   57.816000   -21.282000  0.484000
2650   4   1   56.387000   -23.418000  0.538000
2651   4   1   57.699000   -24.323000  0.473000
2652   4   1   54.95000   -25.568000  0.595000
2653   4   1   56.273000   -26.455000  0.53000
2654   4   1   57.196000   -30.234000  0.797000
2655   4   1   55.91000   -30.877000  1.391000
2656   4   1   57.355000   -28.742000  1.32000
2657   4   1   60.255000   -24.405000  1.201000
2658   4   1   58.805000   -26.577000  1.26000
2659   4   1   61.555000   -23.682000  0.613000
2660   4   1   60.106000   -25.884000  0.681000
2661   4   1   58.65000   -28.06000  0.742000
2662   4   1   51.35000   -23.054000  2.621000
2663   4   1   51.443000   -21.555000  3.065000
2664   4   1   50.011000   -23.688000  3.125000
2665   4   1   54.184000   -18.777000  2.504000
2666   4   1   52.853000   -19.406000  3.01000
2667   4   1   52.417000   -25.351000  2.715000
2668   4   1   51.103000   -25.954000  3.291000
2669   4   1   49.925000   -25.173000  2.667000
2670   4   1   53.992000   -21.723000  3.128000
2671   4   1   53.866000   -23.207000  2.655000
2672   4   1   55.29000   -21.046000  2.605000
2673   4   1   52.774000   -20.912000  2.565000
2674   4   1   52.565000   -23.868000  3.183000
2675   4   1   55.368000   -19.569000  3.124000
2676   4   1   53.709000   -26.237000  2.767000
2677   4   1   56.036000   -27.782000  2.882000
2678   4   1   54.633000   -29.895000  2.935000
2679   4   1   55.157000   -24.089000  2.707000
2680   4   1   57.47000   -25.649000  2.82000
2681   4   1   56.584000   -21.933000  2.658000
2682   4   1   58.892000   -23.515000  2.768000
2683   4   1   56.245000   -26.354000  3.525000
2684   4   1   54.808000   -28.471000  3.593000
2685   4   1   54.919000   -25.472000  3.374000
2686   4   1   53.489000   -27.618000  3.448000
2687   4   1   56.354000   -23.326000  3.32000
2688   4   1   57.672000   -24.225000  3.469000
2689   4   1   57.785000   -21.198000  3.287000
2690   4   1   59.066000   -22.1000  3.427000
2691   4   1   55.904000   -30.822000  2.956000
2692   4   1   57.344000   -28.688000  2.9000
2693   4   1   58.791000   -26.526000  2.838000
2694   4   1   60.241000   -24.359000  2.783000
2695   4   1   58.629000   -27.971000  3.449000
2696   4   1   57.182000   -30.14000  3.519000
2697   4   1   60.084000   -25.803000  3.389000
2698   4   1   61.535000   -23.611000  3.339000
2699   4   1   56.373000   -28.136000  -1.539000
2700   4   1   54.841000   -30.175000  -1.466000
2701   4   1   57.836000   -26.019000  -1.597000
2702   4   1   59.226000   -23.858000  -1.657000
2703   4   1   56.555000   -26.684000  -1.034000
2704   4   1   55.072000   -28.753000  -0.967000
2705   4   1   57.971000   -24.563000  -1.091000
2706   4   1   59.29000   -22.408000  -1.138000
2707   4   1   56.073000   -31.115000  -1.364000
2708   4   1   57.632000   -29.03000  -1.433000
2709   4   1   59.122000   -26.864000  -1.492000
2710   4   1   60.55000   -24.649000  -1.555000
2711   4   1   58.837000   -28.242000  -0.797000
2712   4   1   57.323000   -30.407000  -0.74000
2713   4   1   60.305000   -26.043000  -0.859000
2714   4   1   61.715000   -23.782000  -0.927000
2715   4   1   55.445000   -32.298000  0.857000
2716   4   1   55.444000   -32.204000  3.58000
2717   4   1   53.548000   -30.877000  0.746000
2718   4   1   53.538000   -30.789000  3.585000
2719   4   1   53.999000   -32.208000  1.415000
2720   4   1   53.999000   -32.157000  3.01000
2721   4   1   60.483000   -26.223000  -3.647000
2722   4   1   60.638000   -24.736000  -3.123000
2723   4   1   59.214000   -26.97000  -3.053000
2724   4   1   61.868000   -23.914000  -3.729000
2725   4   1   59.002000   -28.445000  -3.585000
2726   4   1   57.709000   -29.14000  -2.999000
2727   4   1   56.134000   -31.223000  -2.921000
2728   4   1   57.441000   -30.607000  -3.542000
2729   4   1   54.901000   -30.268000  -3.024000
2730   4   1   56.44000   -28.233000  -3.112000
2731   4   1   55.209000   -28.944000  -3.761000
2732   4   1   58.147000   -24.761000  -3.881000
2733   4   1   57.916000   -26.118000  -3.166000
2734   4   1   59.296000   -23.943000  -3.229000
2735   4   1   56.73000   -26.883000  -3.821000
2736   4   1   59.438000   -22.565000  -3.937000
2737   4   1   55.026000   -28.551000  5.16000
2738   4   1   54.804000   -29.939000  5.753000
2739   4   1   56.318000   -27.895000  5.704000
2740   4   1   59.177000   -23.637000  5.592000
2741   4   1   57.778000   -25.783000  5.644000
2742   4   1   59.257000   -22.22000  4.994000
2743   4   1   57.922000   -24.364000  5.051000
2744   4   1   56.501000   -26.478000  5.106000
2745   4   1   57.294000   -30.207000  5.064000
2746   4   1   56.045000   -30.873000  5.723000
2747   4   1   57.582000   -28.79000  5.669000
2748   4   1   60.497000   -24.443000  5.549000
2749   4   1   59.064000   -26.637000  5.606000
2750   4   1   61.677000   -23.633000  4.884000
2751   4   1   60.257000   -25.869000  4.938000
2752   4   1   58.792000   -28.052000  4.998000
2753   4   1   56.097000   -30.875000  7.283000
2754   4   1   57.644000   -28.798000  7.239000
2755   4   1   57.388000   -30.22000  7.875000
2756   4   1   60.402000   -25.885000  7.732000
2757   4   1   59.138000   -26.647000  7.17000
2758   4   1   60.569000   -24.443000  7.12000
2759   4   1   58.925000   -28.076000  7.795000
2760   4   1   61.803000   -23.618000  7.69000
2761   4   1   58.071000   -24.394000  7.851000
2762   4   1   59.234000   -23.632000  7.167000
2763   4   1   57.842000   -25.786000  7.217000
2764   4   1   59.386000   -22.224000  7.803000
2765   4   1   56.647000   -26.5000  7.905000
2766   4   1   56.37000   -27.89000  7.281000
2767   4   1   54.852000   -29.931000  7.315000
2768   4   1   55.138000   -28.56000  7.965000
2769   4   1   55.483000   -32.224000  5.143000
2770   4   1   53.606000   -30.767000  5.177000
2771   4   1   55.587000   -32.234000  7.876000
2772   4   1   53.695000   -30.749000  7.925000
2773   4   1   54.059000   -32.13000  5.774000
2774   4   1   54.124000   -32.122000  7.364000
2775   4   1   53.629000   -30.951000  -0.843000
2776   4   1   55.487000   -32.422000  -0.702000
2777   4   1   53.733000   -31.109000  -3.582000
2778   4   1   55.596000   -32.617000  -3.426000
2779   4   1   54.061000   -32.357000  -1.344000
2780   4   1   54.126000   -32.454000  -2.932000
2781   4   1   50.374000   -19.383000  0.321000
2782   4   1   51.648000   -18.697000  0.883000
2783   4   1   50.241000   -20.812000  0.932000
2784   4   1   48.963000   -21.512000  0.38000
2785   4   1   48.842000   -22.929000  0.999000
2786   4   1   48.82000   -22.871000  2.564000
2787   4   1   50.331000   -19.28000  3.019000
2788   4   1   50.217000   -20.752000  2.518000
2789   4   1   51.622000   -18.637000  2.447000
2790   4   1   48.925000   -21.414000  3.082000
2791   4   1   60.275000   -21.41000  2.708000
2792   4   1   61.643000   -22.178000  2.722000
2793   4   1   60.284000   -21.455000  1.114000
2794   4   1   61.653000   -22.217000  1.153000
2795   4   1   60.45000   -21.448000  5.531000
2796   4   1   61.812000   -22.189000  5.487000
2797   4   1   62.718000   -21.141000  3.281000
2798   4   1   62.727000   -21.198000  0.547000
2799   4   1   60.629000   -20.028000  3.301000
2800   4   1   60.631000   -20.103000  0.459000
2801   4   1   62.036000   -19.87000  2.681000
2802   4   1   62.036000   -19.903000  1.081000
2803   4   1   61.878000   -22.181000  7.049000
2804   4   1   60.503000   -21.441000  7.091000
2805   4   1   60.474000   -21.646000  -1.701000
2806   4   1   61.844000   -22.365000  -1.608000
2807   4   1   61.922000   -22.433000  -3.169000
2808   4   1   60.536000   -21.72000  -3.257000
2809   4   1   62.802000   -21.24000  -1.014000
2810   4   1   60.675000   -20.206000  -1.132000
2811   4   1   62.942000   -21.355000  -3.744000
2812   4   1   60.777000   -20.333000  -3.874000
2813   4   1   62.105000   -19.996000  -1.682000
2814   4   1   62.174000   -20.067000  -3.273000
2815   4   1   60.674000   -20.044000  4.896000
2816   4   1   62.79000   -21.115000  4.842000
2817   4   1   60.77000   -20.035000  7.644000
2818   4   1   62.916000   -21.11000  7.576000
2819   4   1   62.108000   -19.837000  5.446000
2820   4   1   62.174000   -19.842000  7.038000
2821   4   1   63.935000   -16.405000  1.037000
2822   4   1   64.411000   -13.948000  1.019000
2823   4   1   64.927000   -12.593000  0.395000
2824   4   1   64.891000   -15.323000  0.404000
2825   4   1   63.961000   -16.391000  2.619000
2826   4   1   64.444000   -13.94000  2.601000
2827   4   1   64.948000   -15.309000  3.206000
2828   4   1   64.978000   -12.578000  3.195000
2829   4   1   63.902000   -16.431000  -1.761000
2830   4   1   64.363000   -13.961000  -1.776000
2831   4   1   64.864000   -15.331000  -1.165000
2832   4   1   64.905000   -12.603000  -1.174000
2833   4   1   63.863000   -17.866000  0.439000
2834   4   1   63.89000   -17.838000  3.241000
2835   4   1   62.535000   -18.419000  1.073000
2836   4   1   62.545000   -18.392000  2.639000
2837   4   1   64.88000   -15.354000  -3.945000
2838   4   1   64.384000   -13.968000  -3.357000
2839   4   1   64.931000   -12.607000  -3.953000
2840   4   1   63.935000   -16.466000  -3.34000
2841   4   1   64.027000   -16.37000  5.417000
2842   4   1   64.52000   -13.927000  5.397000
2843   4   1   65.017000   -12.57000  4.764000
2844   4   1   64.987000   -15.301000  4.775000
2845   4   1   64.101000   -16.377000  6.995000
2846   4   1   65.1000   -15.297000  7.561000
2847   4   1   64.596000   -13.92000  6.976000
2848   4   1   65.132000   -12.551000  7.548000
2849   4   1   63.92000   -17.821000  4.81000
2850   4   1   64.032000   -17.834000  7.589000
2851   4   1   62.598000   -18.354000  5.466000
2852   4   1   62.666000   -18.367000  7.034000
2853   4   1   63.861000   -17.88000  -1.13000
2854   4   1   63.934000   -17.948000  -3.904000
2855   4   1   62.554000   -18.494000  -1.755000
2856   4   1   62.608000   -18.561000  -3.321000
2857   4   1   64.021000   -11.474000  2.599000
2858   4   1   64.0000   -11.476000  1.017000
2859   4   1   64.085000   -11.467000  5.396000
2860   4   1   64.005000   -10.017000  3.207000
2861   4   1   63.988000   -10.017000  0.41000
2862   4   1   62.687000   -9.404000  2.6000
2863   4   1   62.683000   -9.392000  1.033000
2864   4   1   64.163000   -11.446000  6.974000
2865   4   1   63.982000   -11.475000  -1.779000
2866   4   1   64.026000   -11.454000  -3.359000
2867   4   1   63.999000   -10.019000  -1.159000
2868   4   1   64.096000   -9.978000  -3.93000
2869   4   1   62.728000   -9.345000  -1.794000
2870   4   1   62.8000   -9.291000  -3.359000
2871   4   1   64.035000   -10.017000  4.776000
2872   4   1   64.155000   -9.979000  7.552000
2873   4   1   62.742000   -9.407000  5.427000
2874   4   1   62.816000   -9.377000  6.995000
2875   4   1   41.101000   -30.832000  1.602000
2876   4   1   39.849000   -30.057000  1.095000
2877   4   1   35.978000   -30.567000  1.786000
2878   4   1   34.719000   -29.783000  1.28000
2879   4   1   37.283000   -29.933000  1.194000
2880   4   1   33.429000   -30.418000  1.88000
2881   4   1   38.442000   -32.216000  1.285000
2882   4   1   39.722000   -32.941000  1.8000
2883   4   1   37.134000   -32.81000  1.9000
2884   4   1   38.547000   -30.705000  1.693000
2885   4   1   40.992000   -32.308000  1.132000
2886   4   1   35.868000   -32.076000  1.379000
2887   4   1   34.549000   -32.654000  1.988000
2888   4   1   33.325000   -31.884000  1.405000
2889   4   1   33.093000   -34.774000  1.546000
2890   4   1   34.442000   -34.215000  2.086000
2891   4   1   33.024000   -36.347000  1.515000
2892   4   1   31.753000   -36.872000  2.3000
2893   4   1   34.293000   -36.998000  2.187000
2894   4   1   39.624000   -34.506000  1.895000
2895   4   1   39.424000   -37.295000  1.993000
2896   4   1   37.035000   -34.368000  1.991000
2897   4   1   36.863000   -37.145000  2.09000
2898   4   1   40.694000   -36.785000  1.225000
2899   4   1   40.839000   -35.22000  1.259000
2900   4   1   38.267000   -35.057000  1.354000
2901   4   1   38.151000   -36.649000  1.323000
2902   4   1   35.68000   -34.911000  1.451000
2903   4   1   35.586000   -36.502000  1.42000
2904   4   1   32.819000   -39.224000  1.797000
2905   4   1   31.615000   -38.436000  2.391000
2906   4   1   34.185000   -38.582000  2.282000
2907   4   1   39.369000   -38.883000  2.081000
2908   4   1   36.777000   -38.725000  2.182000
2909   4   1   40.622000   -39.67000  1.49000
2910   4   1   38.016000   -39.511000  1.599000
2911   4   1   35.419000   -39.359000  1.701000
2912   4   1   36.041000   -30.473000  3.359000
2913   4   1   37.386000   -29.775000  3.76000
2914   4   1   34.822000   -29.625000  3.858000
2915   4   1   41.163000   -30.739000  3.167000
2916   4   1   39.952000   -29.897000  3.668000
2917   4   1   34.611000   -32.566000  3.533000
2918   4   1   33.433000   -31.723000  4.108000
2919   4   1   33.491000   -30.325000  3.446000
2920   4   1   38.544000   -32.063000  3.864000
2921   4   1   37.195000   -32.723000  3.433000
2922   4   1   39.782000   -32.854000  3.344000
2923   4   1   38.61000   -30.611000  3.264000
2924   4   1   35.971000   -31.923000  3.959000
2925   4   1   41.098000   -32.149000  3.825000
2926   4   1   34.505000   -34.131000  3.625000
2927   4   1   34.358000   -36.921000  3.804000
2928   4   1   31.817000   -36.798000  3.893000
2929   4   1   37.096000   -34.285000  3.525000
2930   4   1   36.926000   -37.069000  3.702000
2931   4   1   39.684000   -34.424000  3.435000
2932   4   1   39.487000   -37.222000  3.609000
2933   4   1   35.706000   -36.358000  4.411000
2934   4   1   33.145000   -36.203000  4.517000
2935   4   1   35.792000   -34.77000  4.224000
2936   4   1   33.212000   -34.634000  4.338000
2937   4   1   38.375000   -34.918000  4.129000
2938   4   1   38.27000   -36.507000  4.316000
2939   4   1   40.941000   -35.085000  4.055000
2940   4   1   40.813000   -36.65000  4.232000
2941   4   1   31.679000   -38.364000  3.952000
2942   4   1   34.247000   -38.508000  3.859000
2943   4   1   36.838000   -38.652000  3.757000
2944   4   1   39.428000   -38.813000  3.66000
2945   4   1   35.525000   -39.235000  4.403000
2946   4   1   32.928000   -39.1000  4.511000
2947   4   1   38.118000   -39.39000  4.303000
2948   4   1   40.719000   -39.555000  4.211000
2949   4   1   34.157000   -37.493000  -0.604000
2950   4   1   31.619000   -37.233000  -0.496000
2951   4   1   36.723000   -37.671000  -0.701000
2952   4   1   39.288000   -37.785000  -0.802000
2953   4   1   35.507000   -36.894000  -0.135000
2954   4   1   32.965000   -36.682000  -0.031000
2955   4   1   38.057000   -37.04000  -0.232000
2956   4   1   40.588000   -37.108000  -0.321000
2957   4   1   31.461000   -38.771000  -0.353000
2958   4   1   34.039000   -39.03000  -0.46000
2959   4   1   36.647000   -39.205000  -0.56000
2960   4   1   39.262000   -39.326000  -0.665000
2961   4   1   35.336000   -39.648000  0.169000
2962   4   1   32.717000   -39.46000  0.268000
2963   4   1   37.954000   -39.798000  0.066000
2964   4   1   40.589000   -39.899000  -0.044000
2965   4   1   30.155000   -38.791000  1.89000
2966   4   1   30.265000   -38.671000  4.601000
2967   4   1   30.375000   -36.436000  1.715000
2968   4   1   30.487000   -36.31000  4.551000
2969   4   1   29.477000   -37.495000  2.424000
2970   4   1   29.541000   -37.426000  4.016000
2971   4   1   37.843000   -40.107000  -2.716000
2972   4   1   39.205000   -39.483000  -2.228000
2973   4   1   36.579000   -39.375000  -2.115000
2974   4   1   40.503000   -40.164000  -2.842000
2975   4   1   35.203000   -39.959000  -2.612000
2976   4   1   33.961000   -39.191000  -2.02000
2977   4   1   31.379000   -38.92000  -1.904000
2978   4   1   32.566000   -39.736000  -2.526000
2979   4   1   31.546000   -37.373000  -2.051000
2980   4   1   34.083000   -37.639000  -2.173000
2981   4   1   32.827000   -36.969000  -2.819000
2982   4   1   37.93000   -37.355000  -3.013000
2983   4   1   36.654000   -37.826000  -2.267000
2984   4   1   39.224000   -37.926000  -2.371000
2985   4   1   35.38000   -37.211000  -2.914000
2986   4   1   40.479000   -37.385000  -3.113000
2987   4   1   33.207000   -36.401000  6.088000
2988   4   1   31.905000   -36.91000  6.711000
2989   4   1   34.445000   -37.162000  6.629000
2990   4   1   39.572000   -37.469000  6.438000
2991   4   1   37.01000   -37.34000  6.531000
2992   4   1   40.835000   -36.848000  5.804000
2993   4   1   38.303000   -36.76000  5.904000
2994   4   1   35.751000   -36.608000  5.999000
2995   4   1   32.949000   -39.199000  6.057000
2996   4   1   31.744000   -38.455000  6.717000
2997   4   1   34.321000   -38.706000  6.63000
2998   4   1   39.529000   -39.018000  6.431000
2999   4   1   36.923000   -38.883000  6.529000
3000   4   1   40.797000   -39.659000  5.756000
3001   4   1   38.172000   -39.54000  5.854000
3002   4   1   35.562000   -39.383000  5.954000
3003   4   1   31.79000   -38.47000  8.276000
3004   4   1   34.37000   -38.731000  8.2000
3005   4   1   33.027000   -39.229000  8.865000
3006   4   1   38.279000   -39.612000  8.65000
3007   4   1   36.979000   -38.919000  8.093000
3008   4   1   39.593000   -39.046000  8.001000
3009   4   1   35.653000   -39.451000  8.751000
3010   4   1   40.921000   -39.699000  8.564000
3011   4   1   38.399000   -36.842000  8.704000
3012   4   1   39.632000   -37.483000  8.014000
3013   4   1   37.066000   -37.363000  8.105000
3014   4   1   40.945000   -36.903000  8.612000
3015   4   1   35.851000   -36.686000  8.798000
3016   4   1   34.499000   -37.172000  8.207000
3017   4   1   31.959000   -36.916000  8.274000
3018   4   1   33.297000   -36.447000  8.894000
3019   4   1   30.287000   -38.682000  6.165000
3020   4   1   30.563000   -36.323000  6.143000
3021   4   1   30.368000   -38.719000  8.891000
3022   4   1   30.664000   -36.335000  8.889000
3023   4   1   29.629000   -37.399000  6.775000
3024   4   1   29.692000   -37.417000  8.364000
3025   4   1   30.329000   -36.588000  0.13000
3026   4   1   30.054000   -38.938000  0.336000
3027   4   1   30.205000   -36.835000  -2.602000
3028   4   1   29.91000   -39.209000  -2.375000
3029   4   1   29.35000   -37.708000  -0.326000
3030   4   1   29.281000   -37.861000  -1.906000
3031   4   1   38.67000   -27.822000  0.938000
3032   4   1   39.916000   -28.555000  1.503000
3033   4   1   37.382000   -28.419000  1.586000
3034   4   1   36.12000   -27.69000  1.033000
3035   4   1   34.848000   -28.29000  1.691000
3036   4   1   34.912000   -28.196000  3.253000
3037   4   1   38.778000   -27.654000  3.63000
3038   4   1   37.446000   -28.322000  3.17000
3039   4   1   39.979000   -28.459000  3.064000
3040   4   1   36.229000   -27.524000  3.726000
3041   4   1   42.001000   -37.384000  3.508000
3042   4   1   41.998000   -38.956000  3.557000
3043   4   1   41.939000   -37.451000  1.916000
3044   4   1   41.943000   -39.02000  1.992000
3045   4   1   42.104000   -37.501000  6.332000
3046   4   1   42.121000   -39.054000  6.323000
3047   4   1   43.427000   -39.389000  4.1000
3048   4   1   43.334000   -39.489000  1.373000
3049   4   1   43.394000   -37.017000  4.069000
3050   4   1   43.281000   -37.123000  1.227000
3051   4   1   44.193000   -38.196000  3.46000
3052   4   1   44.135000   -38.251000  1.862000
3053   4   1   42.188000   -39.074000  7.885000
3054   4   1   42.164000   -37.512000  7.893000
3055   4   1   41.823000   -37.786000  -0.89000
3056   4   1   41.864000   -39.332000  -0.761000
3057   4   1   41.816000   -39.473000  -2.318000
3058   4   1   41.763000   -37.917000  -2.444000
3059   4   1   43.311000   -39.618000  -0.185000
3060   4   1   43.19000   -37.255000  -0.36000
3061   4   1   43.231000   -39.867000  -2.909000
3062   4   1   43.081000   -37.478000  -3.099000
3063   4   1   44.044000   -38.43000  -0.898000
3064   4   1   43.985000   -38.567000  -2.485000
3065   4   1   43.43000   -37.034000  5.664000
3066   4   1   43.513000   -39.408000  5.661000
3067   4   1   43.534000   -37.055000  8.413000
3068   4   1   43.629000   -39.457000  8.396000
3069   4   1   44.305000   -38.186000  6.225000
3070   4   1   44.362000   -38.211000  7.817000
3071   4   1   48.074000   -38.34000  1.74000
3072   4   1   50.378000   -37.461000  1.647000
3073   4   1   51.757000   -37.105000  0.982000
3074   4   1   49.476000   -38.625000  1.082000
3075   4   1   48.128000   -38.311000  3.318000
3076   4   1   50.428000   -37.435000  3.226000
3077   4   1   49.57000   -38.58000  3.89000
3078   4   1   51.841000   -37.045000  3.787000
3079   4   1   47.985000   -38.404000  -1.062000
3080   4   1   50.289000   -37.516000  -1.152000
3081   4   1   49.427000   -38.653000  -0.484000
3082   4   1   51.709000   -37.146000  -0.585000
3083   4   1   46.747000   -38.968000  1.183000
3084   4   1   46.838000   -38.904000  3.987000
3085   4   1   45.671000   -38.01000  1.815000
3086   4   1   45.728000   -37.966000  3.382000
3087   4   1   49.359000   -38.761000  -3.272000
3088   4   1   50.263000   -37.584000  -2.73000
3089   4   1   51.664000   -37.259000  -3.369000
3090   4   1   47.941000   -38.492000  -2.637000
3091   4   1   48.23000   -38.28000  6.121000
3092   4   1   50.523000   -37.402000  6.027000
3093   4   1   51.89000   -37.019000  5.355000
3094   4   1   49.626000   -38.562000  5.455000
3095   4   1   48.29000   -38.301000  7.698000
3096   4   1   49.739000   -38.562000  8.254000
3097   4   1   50.592000   -37.406000  7.605000
3098   4   1   52.004000   -36.996000  8.148000
3099   4   1   46.898000   -38.883000  5.554000
3100   4   1   46.998000   -38.912000  8.343000
3101   4   1   45.836000   -37.931000  6.21000
3102   4   1   45.886000   -37.957000  7.781000
3103   4   1   46.707000   -39.018000  -0.383000
3104   4   1   46.63000   -39.188000  -3.161000
3105   4   1   45.569000   -38.138000  -1.011000
3106   4   1   45.506000   -38.26000  -2.575000
3107   4   1   52.12000   -35.634000  3.133000
3108   4   1   52.086000   -35.671000  1.552000
3109   4   1   52.189000   -35.586000  5.933000
3110   4   1   53.263000   -34.725000  3.696000
3111   4   1   53.22000   -34.809000  0.896000
3112   4   1   52.966000   -33.323000  3.04000
3113   4   1   52.955000   -33.367000  1.47000
3114   4   1   52.261000   -35.577000  7.512000
3115   4   1   52.032000   -35.753000  -1.246000
3116   4   1   52.042000   -35.826000  -2.825000
3117   4   1   53.202000   -34.876000  -0.673000
3118   4   1   53.235000   -35.02000  -3.45000
3119   4   1   52.975000   -33.478000  -1.351000
3120   4   1   53.029000   -33.558000  -2.919000
3121   4   1   53.293000   -34.696000  5.267000
3122   4   1   53.403000   -34.661000  8.052000
3123   4   1   53.009000   -33.275000  5.863000
3124   4   1   53.08000   -33.258000  7.433000
3125   4   1   -59.965000   -0.746000  4.975000
3126   4   1   -60.013000   -2.206000  5.515000
3127   4   1   -62.645000   -5.117000  5.017000
3128   4   1   -62.688000   -6.591000  5.559000
3129   4   1   -61.362000   -4.391000  5.53000
3130   4   1   -63.966000   -7.307000  5.039000
3131   4   1   -62.58000   -2.133000  5.451000
3132   4   1   -62.474000   -0.681000  4.897000
3133   4   1   -63.832000   -2.88000  4.911000
3134   4   1   -61.308000   -2.922000  4.996000
3135   4   1   -61.207000   0.016000  5.494000
3136   4   1   -63.917000   -4.33000  5.472000
3137   4   1   -65.159000   -5.097000  4.938000
3138   4   1   -65.202000   -6.535000  5.556000
3139   4   1   -67.661000   -5.053000  5.504000
3140   4   1   -66.489000   -4.278000  4.886000
3141   4   1   -68.979000   -4.217000  5.577000
3142   4   1   -70.123000   -5.021000  4.865000
3143   4   1   -68.865000   -2.825000  4.861000
3144   4   1   -63.808000   0.137000  4.847000
3145   4   1   -66.199000   1.579000  4.82000
3146   4   1   -65.164000   -2.063000  4.867000
3147   4   1   -67.548000   -0.614000  4.84000
3148   4   1   -65.014000   2.341000  5.516000
3149   4   1   -63.66000   1.552000  5.445000
3150   4   1   -65.006000   -0.642000  5.464000
3151   4   1   -66.373000   0.181000  5.534000
3152   4   1   -66.344000   -2.848000  5.485000
3153   4   1   -67.702000   -2.013000  5.555000
3154   4   1   -71.518000   -2.873000  5.386000
3155   4   1   -71.533000   -4.342000  4.829000
3156   4   1   -70.256000   -2.058000  4.816000
3157   4   1   -67.532000   2.447000  4.773000
3158   4   1   -68.906000   0.204000  4.794000
3159   4   1   -67.404000   3.948000  5.319000
3160   4   1   -68.809000   1.697000  5.331000
3161   4   1   -70.18000   -0.571000  5.354000
3162   4   1   -62.611000   -5.155000  3.441000
3163   4   1   -61.304000   -4.453000  2.956000
3164   4   1   -62.63000   -6.655000  2.976000
3165   4   1   -59.931000   -0.781000  3.406000
3166   4   1   -59.955000   -2.265000  2.932000
3167   4   1   -65.127000   -5.131000  3.391000
3168   4   1   -65.142000   -6.6000  2.852000
3169   4   1   -63.933000   -7.345000  3.47000
3170   4   1   -62.522000   -2.192000  2.862000
3171   4   1   -63.8000   -2.914000  3.375000
3172   4   1   -62.442000   -0.715000  3.35000
3173   4   1   -61.273000   -2.958000  3.42000
3174   4   1   -63.859000   -4.391000  2.883000
3175   4   1   -61.147000   -0.044000  2.79000
3176   4   1   -66.459000   -4.309000  3.344000
3177   4   1   -68.842000   -2.853000  3.245000
3178   4   1   -70.105000   -5.045000  3.272000
3179   4   1   -65.135000   -2.095000  3.329000
3180   4   1   -67.525000   -0.643000  3.229000
3181   4   1   -63.78000   0.104000  3.304000
3182   4   1   -66.177000   1.549000  3.204000
3183   4   1   -67.657000   -2.067000  2.559000
3184   4   1   -68.939000   -4.268000  2.567000
3185   4   1   -66.296000   -2.9000  2.699000
3186   4   1   -67.613000   -5.098000  2.698000
3187   4   1   -64.96000   -0.698000  2.68000
3188   4   1   -66.328000   0.125000  2.54000
3189   4   1   -63.619000   1.492000  2.641000
3190   4   1   -64.972000   2.286000  2.508000
3191   4   1   -71.514000   -4.36000  3.262000
3192   4   1   -70.234000   -2.081000  3.235000
3193   4   1   -68.884000   0.176000  3.215000
3194   4   1   -67.512000   2.418000  3.192000
3195   4   1   -70.143000   -0.613000  2.652000
3196   4   1   -71.483000   -2.907000  2.664000
3197   4   1   -68.774000   1.649000  2.63000
3198   4   1   -67.375000   3.897000  2.599000
3199   4   1   -69.217000   -2.587000  7.67000
3200   4   1   -70.335000   -4.879000  7.681000
3201   4   1   -67.936000   -0.352000  7.645000
3202   4   1   -66.555000   1.824000  7.627000
3203   4   1   -67.999000   -1.807000  7.12000
3204   4   1   -69.198000   -4.035000  7.133000
3205   4   1   -66.68000   0.374000  7.1000
3206   4   1   -65.269000   2.48000  7.072000
3207   4   1   -71.743000   -4.242000  7.588000
3208   4   1   -70.58000   -1.866000  7.569000
3209   4   1   -69.256000   0.44000  7.542000
3210   4   1   -67.835000   2.685000  7.524000
3211   4   1   -70.397000   -0.442000  6.893000
3212   4   1   -71.691000   -2.802000  6.926000
3213   4   1   -69.013000   1.85000  6.87000
3214   4   1   -67.542000   4.092000  6.857000
3215   4   1   -72.544000   -5.443000  5.417000
3216   4   1   -72.52000   -5.465000  2.687000
3217   4   1   -70.388000   -6.406000  5.502000
3218   4   1   -70.369000   -6.445000  2.662000
3219   4   1   -71.776000   -6.694000  4.873000
3220   4   1   -71.767000   -6.709000  3.273000
3221   4   1   -69.209000   2.01000  9.653000
3222   4   1   -67.927000   2.77000  9.092000
3223   4   1   -69.365000   0.521000  9.103000
3224   4   1   -67.686000   4.249000  9.654000
3225   4   1   -70.605000   -0.306000  9.675000
3226   4   1   -70.682000   -1.804000  9.137000
3227   4   1   -71.833000   -4.197000  9.149000
3228   4   1   -71.868000   -2.713000  9.724000
3229   4   1   -70.409000   -4.828000  9.237000
3230   4   1   -69.301000   -2.527000  9.241000
3231   4   1   -69.369000   -3.922000  9.932000
3232   4   1   -66.89000   0.528000  9.89000
3233   4   1   -68.033000   -0.278000  9.213000
3234   4   1   -66.637000   1.894000  9.199000
3235   4   1   -68.205000   -1.654000  9.911000
3236   4   1   -65.432000   2.624000  9.87000
3237   4   1   -69.129000   -4.136000  1.001000
3238   4   1   -70.267000   -4.981000  0.45000
3239   4   1   -69.125000   -2.705000  0.423000
3240   4   1   -66.462000   1.696000  0.383000
3241   4   1   -67.837000   -0.478000  0.407000
3242   4   1   -65.191000   2.378000  0.942000
3243   4   1   -66.593000   0.264000  0.959000
3244   4   1   -67.914000   -1.916000  0.979000
3245   4   1   -71.621000   -2.873000  1.12000
3246   4   1   -71.671000   -4.324000  0.499000
3247   4   1   -70.487000   -1.972000  0.473000
3248   4   1   -67.748000   2.556000  0.43000
3249   4   1   -69.159000   0.318000  0.455000
3250   4   1   -67.483000   3.984000  1.055000
3251   4   1   -68.938000   1.747000  1.083000
3252   4   1   -70.318000   -0.533000  1.105000
3253   4   1   -71.731000   -4.315000  -1.063000
3254   4   1   -70.556000   -1.954000  -1.098000
3255   4   1   -71.739000   -2.856000  -1.681000
3256   4   1   -69.071000   1.813000  -1.705000
3257   4   1   -69.233000   0.35000  -1.109000
3258   4   1   -67.808000   2.588000  -1.141000
3259   4   1   -70.461000   -0.482000  -1.683000
3260   4   1   -67.572000   4.044000  -1.748000
3261   4   1   -66.742000   0.327000  -1.841000
3262   4   1   -66.512000   1.716000  -1.192000
3263   4   1   -67.901000   -0.454000  -1.165000
3264   4   1   -65.299000   2.43000  -1.864000
3265   4   1   -68.061000   -1.849000  -1.823000
3266   4   1   -69.178000   -2.691000  -1.152000
3267   4   1   -70.315000   -4.97000  -1.109000
3268   4   1   -69.248000   -4.102000  -1.807000
3269   4   1   -72.582000   -5.475000  1.125000
3270   4   1   -70.407000   -6.409000  1.067000
3271   4   1   -72.698000   -5.452000  -1.605000
3272   4   1   -70.493000   -6.39000  -1.678000
3273   4   1   -71.824000   -6.709000  0.511000
3274   4   1   -71.885000   -6.689000  -1.081000
3275   4   1   -70.445000   -6.326000  7.095000
3276   4   1   -72.628000   -5.424000  6.978000
3277   4   1   -70.568000   -6.238000  9.834000
3278   4   1   -72.788000   -5.35000  9.704000
3279   4   1   -71.863000   -6.64000  7.634000
3280   4   1   -71.943000   -6.591000  9.225000
3281   4   1   -58.838000   -4.442000  5.655000
3282   4   1   -58.767000   -3.012000  5.054000
3283   4   1   -60.086000   -5.181000  5.087000
3284   4   1   -60.168000   -6.623000  5.678000
3285   4   1   -61.412000   -7.347000  5.099000
3286   4   1   -61.378000   -7.385000  3.535000
3287   4   1   -58.782000   -4.505000  2.954000
3288   4   1   -60.053000   -5.218000  3.5000
3289   4   1   -58.734000   -3.048000  3.489000
3290   4   1   -60.111000   -6.687000  2.978000
3291   4   1   -64.831000   3.696000  3.191000
3292   4   1   -66.106000   4.612000  3.177000
3293   4   1   -64.85000   3.723000  4.785000
3294   4   1   -66.121000   4.641000  4.743000
3295   4   1   -64.989000   3.775000  0.371000
3296   4   1   -66.234000   4.699000  0.415000
3297   4   1   -65.626000   6.013000  2.578000
3298   4   1   -65.643000   6.063000  5.305000
3299   4   1   -63.734000   4.592000  2.561000
3300   4   1   -63.759000   4.634000  5.402000
3301   4   1   -64.175000   5.954000  3.155000
3302   4   1   -64.184000   5.98000  4.754000
3303   4   1   -66.281000   4.728000  -1.147000
3304   4   1   -65.032000   3.791000  -1.189000
3305   4   1   -65.064000   3.893000  7.597000
3306   4   1   -66.298000   4.826000  7.499000
3307   4   1   -66.371000   4.908000  9.059000
3308   4   1   -65.135000   3.96000  9.154000
3309   4   1   -65.694000   6.156000  6.864000
3310   4   1   -63.85000   4.675000  6.993000
3311   4   1   -65.821000   6.304000  9.589000
3312   4   1   -63.971000   4.787000  9.733000
3313   4   1   -64.261000   6.077000  7.514000
3314   4   1   -64.336000   6.15000  9.103000
3315   4   1   -63.795000   4.589000  0.967000
3316   4   1   -65.658000   6.054000  1.016000
3317   4   1   -63.872000   4.616000  -1.778000
3318   4   1   -65.749000   6.109000  -1.714000
3319   4   1   -64.219000   5.968000  0.393000
3320   4   1   -64.276000   5.989000  -1.199000
3321   4   1   -42.863000   4.096000  4.527000
3322   4   1   -44.169000   3.446000  5.085000
3323   4   1   -47.987000   4.391000  4.634000
3324   4   1   -49.303000   3.728000  5.191000
3325   4   1   -46.734000   3.604000  5.132000
3326   4   1   -50.544000   4.517000  4.684000
3327   4   1   -45.303000   5.755000  5.031000
3328   4   1   -43.971000   6.354000  4.462000
3329   4   1   -46.561000   6.502000  4.509000
3330   4   1   -45.414000   4.254000  4.581000
3331   4   1   -42.76000   5.557000  5.041000
3332   4   1   -47.88000   5.889000  5.085000
3333   4   1   -49.151000   6.622000  4.568000
3334   4   1   -50.435000   5.976000  5.198000
3335   4   1   -50.282000   8.865000  5.148000
3336   4   1   -49.053000   8.184000  4.513000
3337   4   1   -50.162000   10.427000  5.212000
3338   4   1   -51.413000   11.074000  4.514000
3339   4   1   -48.888000   10.97000  4.474000
3340   4   1   -43.864000   7.926000  4.405000
3341   4   1   -43.738000   10.729000  4.361000
3342   4   1   -46.463000   8.065000  4.458000
3343   4   1   -46.318000   10.85000  4.417000
3344   4   1   -42.467000   10.077000  5.041000
3345   4   1   -42.528000   8.496000  4.981000
3346   4   1   -45.119000   8.608000  5.032000
3347   4   1   -45.041000   10.204000  5.095000
3348   4   1   -47.71000   8.733000  5.088000
3349   4   1   -47.614000   10.326000  5.152000
3350   4   1   -50.149000   13.307000  5.002000
3351   4   1   -51.457000   12.64000  4.468000
3352   4   1   -48.863000   12.559000  4.417000
3353   4   1   -43.654000   12.317000  4.297000
3354   4   1   -46.256000   12.433000  4.357000
3355   4   1   -42.305000   12.97000  4.815000
3356   4   1   -44.91000   13.072000  4.871000
3357   4   1   -47.52000   13.193000  4.933000
3358   4   1   -48.023000   4.338000  3.059000
3359   4   1   -46.793000   3.517000  2.562000
3360   4   1   -49.362000   3.64000  2.612000
3361   4   1   -42.898000   4.045000  2.958000
3362   4   1   -44.227000   3.361000  2.504000
3363   4   1   -49.185000   6.573000  3.021000
3364   4   1   -50.496000   5.887000  2.498000
3365   4   1   -50.579000   4.466000  3.116000
3366   4   1   -45.362000   5.67000  2.448000
3367   4   1   -46.596000   6.454000  2.973000
3368   4   1   -44.007000   6.305000  2.914000
3369   4   1   -45.451000   4.201000  3.006000
3370   4   1   -47.939000   5.803000  2.5000
3371   4   1   -42.821000   5.469000  2.339000
3372   4   1   -49.088000   8.138000  2.971000
3373   4   1   -48.924000   10.928000  2.857000
3374   4   1   -51.448000   11.037000  2.92000
3375   4   1   -46.498000   8.018000  2.921000
3376   4   1   -46.355000   10.807000  2.803000
3377   4   1   -43.9000   7.879000  2.861000
3378   4   1   -43.776000   10.684000  2.742000
3379   4   1   -47.682000   10.245000  2.156000
3380   4   1   -50.231000   10.351000  2.202000
3381   4   1   -47.772000   8.654000  2.308000
3382   4   1   -50.34000   8.79000  2.345000
3383   4   1   -45.184000   8.527000  2.256000
3384   4   1   -45.11000   10.121000  2.102000
3385   4   1   -42.596000   8.415000  2.185000
3386   4   1   -42.538000   9.993000  2.037000
3387   4   1   -51.488000   12.606000  2.901000
3388   4   1   -48.896000   12.519000  2.837000
3389   4   1   -46.29000   12.391000  2.78000
3390   4   1   -43.69000   12.275000  2.719000
3391   4   1   -47.577000   13.124000  2.229000
3392   4   1   -50.203000   13.244000  2.279000
3393   4   1   -44.97000   13.0000  2.169000
3394   4   1   -42.367000   12.897000  2.102000
3395   4   1   -48.803000   11.405000  7.28000
3396   4   1   -51.348000   11.353000  7.328000
3397   4   1   -46.23000   11.326000  7.218000
3398   4   1   -43.652000   11.18000  7.159000
3399   4   1   -47.55000   10.688000  6.716000
3400   4   1   -50.086000   10.717000  6.766000
3401   4   1   -44.99000   10.572000  6.658000
3402   4   1   -42.433000   10.394000  6.593000
3403   4   1   -51.425000   12.898000  7.225000
3404   4   1   -48.805000   12.948000  7.17000
3405   4   1   -46.176000   12.864000  7.105000
3406   4   1   -43.558000   12.722000  7.044000
3407   4   1   -47.487000   13.452000  6.471000
3408   4   1   -50.143000   13.504000  6.54000
3409   4   1   -44.855000   13.334000  6.407000
3410   4   1   -42.231000   13.184000  6.347000
3411   4   1   -52.878000   13.052000  5.072000
3412   4   1   -52.929000   13.0000  2.344000
3413   4   1   -52.757000   10.691000  5.175000
3414   4   1   -52.822000   10.635000  2.332000
3415   4   1   -53.644000   11.798000  4.549000
3416   4   1   -53.676000   11.77000  2.949000
3417   4   1   -44.772000   13.601000  9.19000
3418   4   1   -43.507000   12.859000  8.608000
3419   4   1   -46.135000   13.008000  8.663000
3420   4   1   -42.128000   13.418000  9.144000
3421   4   1   -47.425000   13.713000  9.255000
3422   4   1   -48.776000   13.078000  8.736000
3423   4   1   -51.404000   13.012000  8.785000
3424   4   1   -50.106000   13.722000  9.34000
3425   4   1   -51.315000   11.456000  8.884000
3426   4   1   -48.767000   11.519000  8.852000
3427   4   1   -50.026000   10.943000  9.565000
3428   4   1   -44.911000   10.848000  9.444000
3429   4   1   -46.187000   11.456000  8.787000
3430   4   1   -43.605000   11.303000  8.732000
3431   4   1   -47.471000   10.957000  9.504000
3432   4   1   -42.344000   10.643000  9.386000
3433   4   1   -50.228000   10.573000  0.633000
3434   4   1   -51.508000   11.199000  0.098000
3435   4   1   -48.967000   11.228000  0.032000
3436   4   1   -43.821000   10.986000  -0.077000
3437   4   1   -46.396000   11.136000  -0.02000
3438   4   1   -42.575000   10.229000  0.469000
3439   4   1   -45.133000   10.406000  0.519000
3440   4   1   -47.693000   10.529000  0.574000
3441   4   1   -50.259000   13.373000  0.736000
3442   4   1   -51.569000   12.748000  0.137000
3443   4   1   -48.957000   12.775000  0.071000
3444   4   1   -43.721000   12.532000  -0.046000
3445   4   1   -46.335000   12.679000  0.014000
3446   4   1   -42.365000   13.03000  0.559000
3447   4   1   -44.985000   13.181000  0.621000
3448   4   1   -47.611000   13.305000  0.68000
3449   4   1   -51.612000   12.797000  -1.425000
3450   4   1   -48.996000   12.833000  -1.5000
3451   4   1   -50.34000   13.467000  -2.069000
3452   4   1   -45.031000   13.307000  -2.172000
3453   4   1   -46.365000   12.746000  -1.55000
3454   4   1   -43.744000   12.59000  -1.615000
3455   4   1   -47.673000   13.433000  -2.112000
3456   4   1   -42.396000   13.119000  -2.247000
3457   4   1   -45.187000   10.543000  -2.28000
3458   4   1   -43.849000   11.03000  -1.655000
3459   4   1   -46.427000   11.19000  -1.594000
3460   4   1   -42.621000   10.336000  -2.336000
3461   4   1   -47.744000   10.666000  -2.226000
3462   4   1   -49.002000   11.27000  -1.543000
3463   4   1   -51.544000   11.237000  -1.462000
3464   4   1   -50.295000   10.677000  -2.174000
3465   4   1   -52.991000   13.044000  0.782000
3466   4   1   -52.832000   10.678000  0.737000
3467   4   1   -53.065000   13.142000  -1.949000
3468   4   1   -52.894000   10.748000  -2.011000
3469   4   1   -53.745000   11.805000  0.185000
3470   4   1   -53.779000   11.859000  -1.407000
3471   4   1   -52.693000   10.795000  6.766000
3472   4   1   -52.879000   13.152000  6.632000
3473   4   1   -52.634000   10.971000  9.508000
3474   4   1   -52.845000   13.355000  9.359000
3475   4   1   -53.599000   11.929000  7.31000
3476   4   1   -53.568000   12.04000  8.9000
3477   4   1   -45.597000   1.352000  5.249000
3478   4   1   -44.309000   1.963000  4.63000
3479   4   1   -46.842000   2.102000  4.695000
3480   4   1   -48.145000   1.49000  5.304000
3481   4   1   -49.379000   2.242000  4.738000
3482   4   1   -49.415000   2.189000  3.173000
3483   4   1   -45.66000   1.263000  2.55000
3484   4   1   -46.879000   2.049000  3.108000
3485   4   1   -44.346000   1.912000  3.066000
3486   4   1   -48.208000   1.398000  2.606000
3487   4   1   -41.223000   10.598000  2.694000
3488   4   1   -41.115000   12.169000  2.666000
3489   4   1   -41.185000   10.641000  4.289000
3490   4   1   -41.078000   12.211000  4.228000
3491   4   1   -41.268000   10.773000  -0.121000
3492   4   1   -41.137000   12.32000  -0.094000
3493   4   1   -39.698000   12.522000  2.049000
3494   4   1   -39.634000   12.593000  4.757000
3495   4   1   -39.866000   10.156000  2.049000
3496   4   1   -39.799000   10.231000  4.888000
3497   4   1   -38.95000   11.285000  2.621000
3498   4   1   -38.912000   11.326000  4.214000
3499   4   1   -41.157000   12.367000  -1.652000
3500   4   1   -41.297000   10.811000  -1.684000
3501   4   1   -41.099000   10.964000  7.089000
3502   4   1   -40.971000   12.507000  6.976000
3503   4   1   -40.916000   12.633000  8.529000
3504   4   1   -41.053000   11.081000  8.647000
3505   4   1   -39.558000   12.718000  6.313000
3506   4   1   -39.779000   10.36000  6.476000
3507   4   1   -39.462000   12.948000  9.027000
3508   4   1   -39.705000   10.565000  9.212000
3509   4   1   -38.83000   11.496000  6.965000
3510   4   1   -38.791000   11.624000  8.549000
3511   4   1   -39.918000   10.202000  0.457000
3512   4   1   -39.695000   12.565000  0.486000
3513   4   1   -39.977000   10.267000  -2.288000
3514   4   1   -39.73000   12.656000  -2.237000
3515   4   1   -38.996000   11.311000  -0.137000
3516   4   1   -39.034000   11.359000  -1.726000
3517   4   1   -61.912000   9.27000  4.695000
3518   4   1   -59.989000   10.879000  4.656000
3519   4   1   -59.039000   11.997000  5.246000
3520   4   1   -61.417000   10.648000  5.289000
3521   4   1   -61.927000   9.258000  3.113000
3522   4   1   -60.015000   10.875000  3.074000
3523   4   1   -61.461000   10.633000  2.489000
3524   4   1   -59.089000   11.991000  2.446000
3525   4   1   -61.893000   9.306000  7.491000
3526   4   1   -59.948000   10.899000  7.452000
3527   4   1   -61.394000   10.664000  6.858000
3528   4   1   -59.016000   12.007000  6.814000
3529   4   1   -63.165000   8.539000  5.321000
3530   4   1   -63.182000   8.503000  2.523000
3531   4   1   -63.065000   7.084000  4.724000
3532   4   1   -63.064000   7.064000  3.157000
3533   4   1   -61.394000   10.742000  9.636000
3534   4   1   -59.947000   10.953000  9.031000
3535   4   1   -58.997000   12.09000  9.593000
3536   4   1   -61.924000   9.362000  9.07000
3537   4   1   -61.968000   9.256000  0.316000
3538   4   1   -60.07000   10.885000  0.278000
3539   4   1   -59.121000   11.996000  0.878000
3540   4   1   -61.489000   10.632000  0.92000
3541   4   1   -62.025000   9.283000  -1.263000
3542   4   1   -61.571000   10.671000  -1.864000
3543   4   1   -60.118000   10.924000  -1.301000
3544   4   1   -59.195000   12.056000  -1.906000
3545   4   1   -63.199000   8.499000  0.953000
3546   4   1   -63.29000   8.528000  -1.824000
3547   4   1   -63.093000   7.059000  0.332000
3548   4   1   -63.155000   7.076000  -1.236000
3549   4   1   -63.161000   8.575000  6.89000
3550   4   1   -63.225000   8.681000  9.662000
3551   4   1   -63.107000   7.146000  7.548000
3552   4   1   -63.174000   7.206000  9.114000
3553   4   1   -57.654000   11.691000  3.032000
3554   4   1   -57.625000   11.699000  4.613000
3555   4   1   -57.714000   11.704000  0.233000
3556   4   1   -56.367000   12.347000  2.396000
3557   4   1   -56.319000   12.371000  5.194000
3558   4   1   -55.211000   11.466000  3.0000
3559   4   1   -55.179000   11.485000  4.566000
3560   4   1   -57.752000   11.758000  -1.344000
3561   4   1   -57.582000   11.733000  7.41000
3562   4   1   -57.564000   11.809000  8.988000
3563   4   1   -56.302000   12.4000  6.762000
3564   4   1   -56.271000   12.541000  9.534000
3565   4   1   -55.124000   11.572000  7.394000
3566   4   1   -55.09000   11.674000  8.959000
3567   4   1   -56.403000   12.351000  0.828000
3568   4   1   -56.463000   12.435000  -1.95000
3569   4   1   -55.274000   11.476000  0.173000
3570   4   1   -55.302000   11.534000  -1.396000
3571   4   1   -64.331000   -18.079000  4.939000
3572   4   1   -63.027000   -18.759000  5.445000
3573   4   1   -61.536000   -22.38000  4.831000
3574   4   1   -60.22000   -23.059000  5.338000
3575   4   1   -61.633000   -20.918000  5.385000
3576   4   1   -60.129000   -24.508000  4.779000
3577   4   1   -64.179000   -21.068000  5.336000
3578   4   1   -65.447000   -20.339000  4.817000
3579   4   1   -64.048000   -22.512000  4.756000
3580   4   1   -62.94000   -20.227000  4.886000
3581   4   1   -65.538000   -18.905000  5.45000
3582   4   1   -62.775000   -23.223000  5.281000
3583   4   1   -62.622000   -24.668000  4.706000
3584   4   1   -61.335000   -25.323000  5.293000
3585   4   1   -63.717000   -26.973000  5.216000
3586   4   1   -63.919000   -25.544000  4.646000
3587   4   1   -65.042000   -27.818000  5.277000
3588   4   1   -64.858000   -29.191000  4.517000
3589   4   1   -66.255000   -27.069000  4.603000
3590   4   1   -66.741000   -21.214000  4.76000
3591   4   1   -69.06000   -22.759000  4.728000
3592   4   1   -65.345000   -23.383000  4.704000
3593   4   1   -67.67000   -24.918000  4.668000
3594   4   1   -69.216000   -21.387000  5.464000
3595   4   1   -67.935000   -20.496000  5.396000
3596   4   1   -66.543000   -22.648000  5.339000
3597   4   1   -67.866000   -23.537000  5.404000
3598   4   1   -65.134000   -24.812000  5.279000
3599   4   1   -66.466000   -25.687000  5.342000
3600   4   1   -67.414000   -29.464000  5.062000
3601   4   1   -66.127000   -30.117000  4.463000
3602   4   1   -67.569000   -27.964000  4.546000
3603   4   1   -70.427000   -23.569000  4.681000
3604   4   1   -69.004000   -25.775000  4.615000
3605   4   1   -71.712000   -22.807000  5.271000
3606   4   1   -70.298000   -25.057000  5.197000
3607   4   1   -68.86000   -27.266000  5.128000
3608   4   1   -61.51000   -22.321000  3.256000
3609   4   1   -61.589000   -20.821000  2.812000
3610   4   1   -60.177000   -22.966000  2.753000
3611   4   1   -64.306000   -18.02000  3.372000
3612   4   1   -62.981000   -18.66000  2.866000
3613   4   1   -62.598000   -24.611000  3.159000
3614   4   1   -61.288000   -25.225000  2.585000
3615   4   1   -60.104000   -24.452000  3.21000
3616   4   1   -64.136000   -20.97000  2.748000
3617   4   1   -64.025000   -22.456000  3.22000
3618   4   1   -65.424000   -20.283000  3.271000
3619   4   1   -62.913000   -20.167000  3.311000
3620   4   1   -62.731000   -23.126000  2.693000
3621   4   1   -65.493000   -18.804000  2.752000
3622   4   1   -63.899000   -25.486000  3.104000
3623   4   1   -66.243000   -27.011000  2.986000
3624   4   1   -64.85000   -29.132000  2.923000
3625   4   1   -65.325000   -23.328000  3.167000
3626   4   1   -67.658000   -24.863000  3.056000
3627   4   1   -66.721000   -21.16000  3.219000
3628   4   1   -69.049000   -22.707000  3.113000
3629   4   1   -66.441000   -25.58000  2.348000
3630   4   1   -65.021000   -27.706000  2.272000
3631   4   1   -65.104000   -24.711000  2.498000
3632   4   1   -63.693000   -26.866000  2.419000
3633   4   1   -66.512000   -22.554000  2.555000
3634   4   1   -67.842000   -23.436000  2.409000
3635   4   1   -67.905000   -20.411000  2.589000
3636   4   1   -69.196000   -21.292000  2.454000
3637   4   1   -66.121000   -30.058000  2.898000
3638   4   1   -67.558000   -27.908000  2.966000
3639   4   1   -68.992000   -25.722000  3.037000
3640   4   1   -70.416000   -23.522000  3.098000
3641   4   1   -68.841000   -27.174000  2.424000
3642   4   1   -67.4000   -29.365000  2.343000
3643   4   1   -70.279000   -24.973000  2.492000
3644   4   1   -71.697000   -22.734000  2.545000
3645   4   1   -66.581000   -27.376000  7.405000
3646   4   1   -65.059000   -29.429000  7.323000
3647   4   1   -68.024000   -25.239000  7.471000
3648   4   1   -69.379000   -23.051000  7.537000
3649   4   1   -66.75000   -25.919000  6.905000
3650   4   1   -65.284000   -28.003000  6.83000
3651   4   1   -68.139000   -23.779000  6.968000
3652   4   1   -69.413000   -21.6000  7.019000
3653   4   1   -66.294000   -30.363000  7.216000
3654   4   1   -67.847000   -28.258000  7.297000
3655   4   1   -69.322000   -26.064000  7.365000
3656   4   1   -70.721000   -23.81000  7.435000
3657   4   1   -69.048000   -27.449000  6.666000
3658   4   1   -67.543000   -29.639000  6.598000
3659   4   1   -70.497000   -25.214000  6.737000
3660   4   1   -71.868000   -22.904000  6.812000
3661   4   1   -65.66000   -31.544000  4.988000
3662   4   1   -65.653000   -31.441000  2.268000
3663   4   1   -63.764000   -30.125000  5.106000
3664   4   1   -63.754000   -30.021000  2.268000
3665   4   1   -64.208000   -31.456000  4.43000
3666   4   1   -64.207000   -31.395000  2.834000
3667   4   1   -70.677000   -25.398000  9.521000
3668   4   1   -70.808000   -23.898000  9.004000
3669   4   1   -69.416000   -26.173000  8.925000
3670   4   1   -72.02000   -23.035000  9.611000
3671   4   1   -69.216000   -27.659000  9.451000
3672   4   1   -67.925000   -28.372000  8.863000
3673   4   1   -66.355000   -30.477000  8.773000
3674   4   1   -67.662000   -29.849000  9.398000
3675   4   1   -65.118000   -29.53000  8.88000
3676   4   1   -66.648000   -27.478000  8.977000
3677   4   1   -65.421000   -28.205000  9.623000
3678   4   1   -68.316000   -23.982000  9.757000
3679   4   1   -68.104000   -25.341000  9.039000
3680   4   1   -69.448000   -23.137000  9.108000
3681   4   1   -66.927000   -26.126000  9.691000
3682   4   1   -69.557000   -21.757000  9.818000
3683   4   1   -65.243000   -27.779000  0.705000
3684   4   1   -65.024000   -29.165000  0.105000
3685   4   1   -66.535000   -27.117000  0.165000
3686   4   1   -69.342000   -22.824000  0.288000
3687   4   1   -67.977000   -24.993000  0.233000
3688   4   1   -69.389000   -21.408000  0.887000
3689   4   1   -68.1000   -23.572000  0.827000
3690   4   1   -66.706000   -25.7000  0.767000
3691   4   1   -67.514000   -29.429000  0.798000
3692   4   1   -66.263000   -30.101000  0.135000
3693   4   1   -67.804000   -28.005000  0.201000
3694   4   1   -70.68000   -23.6000  0.335000
3695   4   1   -69.275000   -25.829000  0.273000
3696   4   1   -71.841000   -22.75000  1.002000
3697   4   1   -70.459000   -25.036000  0.944000
3698   4   1   -69.011000   -27.252000  0.876000
3699   4   1   -66.318000   -30.099000  -1.426000
3700   4   1   -67.87000   -28.01000  -1.369000
3701   4   1   -67.615000   -29.436000  -2.009000
3702   4   1   -70.613000   -25.049000  -1.846000
3703   4   1   -69.355000   -25.837000  -1.291000
3704   4   1   -70.756000   -23.597000  -1.237000
3705   4   1   -69.153000   -27.273000  -1.916000
3706   4   1   -71.974000   -22.733000  -1.801000
3707   4   1   -68.258000   -23.6000  -1.974000
3708   4   1   -69.403000   -22.817000  -1.286000
3709   4   1   -68.047000   -24.993000  -1.339000
3710   4   1   -69.522000   -21.408000  -1.923000
3711   4   1   -66.863000   -25.718000  -2.033000
3712   4   1   -66.592000   -27.109000  -1.411000
3713   4   1   -65.076000   -29.151000  -1.456000
3714   4   1   -65.364000   -27.78000  -2.1000
3715   4   1   -65.691000   -31.457000  0.705000
3716   4   1   -63.822000   -29.991000  0.676000
3717   4   1   -65.796000   -31.456000  -2.026000
3718   4   1   -63.916000   -29.959000  -2.071000
3719   4   1   -64.261000   -31.356000  0.072000
3720   4   1   -64.329000   -31.34000  -1.519000
3721   4   1   -63.848000   -30.207000  6.695000
3722   4   1   -65.707000   -31.673000  6.546000
3723   4   1   -63.952000   -30.382000  9.431000
3724   4   1   -65.819000   -31.881000  9.268000
3725   4   1   -64.278000   -31.619000  7.186000
3726   4   1   -64.344000   -31.727000  8.773000
3727   4   1   -60.506000   -18.653000  5.557000
3728   4   1   -61.774000   -17.957000  4.993000
3729   4   1   -60.384000   -20.084000  4.946000
3730   4   1   -59.112000   -20.794000  5.499000
3731   4   1   -59.003000   -22.213000  4.88000
3732   4   1   -58.98000   -22.157000  3.315000
3733   4   1   -60.46000   -18.551000  2.858000
3734   4   1   -60.359000   -20.025000  3.36000
3735   4   1   -61.747000   -17.897000  3.429000
3736   4   1   -59.072000   -20.697000  2.797000
3737   4   1   -70.381000   -20.571000  3.176000
3738   4   1   -71.771000   -21.293000  3.164000
3739   4   1   -70.388000   -20.617000  4.768000
3740   4   1   -71.779000   -21.332000  4.733000
3741   4   1   -70.556000   -20.601000  0.352000
3742   4   1   -71.941000   -21.295000  0.4000
3743   4   1   -72.808000   -20.206000  2.607000
3744   4   1   -72.812000   -20.264000  5.343000
3745   4   1   -70.681000   -19.177000  2.583000
3746   4   1   -70.68000   -19.253000  5.426000
3747   4   1   -72.077000   -18.956000  3.206000
3748   4   1   -72.074000   -18.99000  4.807000
3749   4   1   -72.009000   -21.285000  -1.163000
3750   4   1   -70.612000   -20.592000  -1.207000
3751   4   1   -70.57000   -20.803000  7.586000
3752   4   1   -71.961000   -21.475000  7.494000
3753   4   1   -72.037000   -21.543000  9.056000
3754   4   1   -70.63000   -20.877000  9.141000
3755   4   1   -72.881000   -20.306000  6.904000
3756   4   1   -70.719000   -19.358000  7.017000
3757   4   1   -73.017000   -20.418000  9.633000
3758   4   1   -70.818000   -19.482000  9.757000
3759   4   1   -72.136000   -19.081000  7.57000
3760   4   1   -72.203000   -19.15000  9.161000
3761   4   1   -70.726000   -19.193000  0.989000
3762   4   1   -72.879000   -20.176000  1.046000
3763   4   1   -70.825000   -19.178000  -1.759000
3764   4   1   -73.008000   -20.167000  -1.688000
3765   4   1   -72.148000   -18.919000  0.441000
3766   4   1   -72.217000   -18.921000  -1.151000
3767   4   1   -73.686000   -15.324000  4.854000
3768   4   1   -73.973000   -12.816000  4.874000
3769   4   1   -74.433000   -11.436000  5.497000
3770   4   1   -74.548000   -14.162000  5.486000
3771   4   1   -73.712000   -15.307000  3.272000
3772   4   1   -74.005000   -12.805000  3.291000
3773   4   1   -74.604000   -14.141000  2.687000
3774   4   1   -74.481000   -11.416000  2.7000
3775   4   1   -73.654000   -15.357000  7.65000
3776   4   1   -73.932000   -12.836000  7.667000
3777   4   1   -74.522000   -14.175000  7.055000
3778   4   1   -74.414000   -11.449000  7.067000
3779   4   1   -73.748000   -16.794000  5.45000
3780   4   1   -73.778000   -16.763000  2.651000
3781   4   1   -72.478000   -17.469000  4.814000
3782   4   1   -72.49000   -17.441000  3.25000
3783   4   1   -74.549000   -14.202000  9.83000
3784   4   1   -73.96000   -12.845000  9.248000
3785   4   1   -74.448000   -11.455000  9.841000
3786   4   1   -73.695000   -15.393000  9.228000
3787   4   1   -73.782000   -15.282000  0.475000
3788   4   1   -74.081000   -12.786000  0.497000
3789   4   1   -74.517000   -11.405000  1.13000
3790   4   1   -74.644000   -14.13000  1.118000
3791   4   1   -73.864000   -15.284000  -1.102000
3792   4   1   -74.767000   -14.118000  -1.663000
3793   4   1   -74.161000   -12.776000  -1.082000
3794   4   1   -74.633000   -11.378000  -1.65000
3795   4   1   -73.809000   -16.744000  1.082000
3796   4   1   -73.932000   -16.75000  -1.694000
3797   4   1   -72.543000   -17.401000  0.423000
3798   4   1   -72.617000   -17.41000  -1.144000
3799   4   1   -73.742000   -16.812000  7.019000
3800   4   1   -73.82000   -16.879000  9.789000
3801   4   1   -72.492000   -17.547000  7.642000
3802   4   1   -72.55000   -17.611000  9.207000
3803   4   1   -73.499000   -10.331000  3.296000
3804   4   1   -73.48000   -10.334000  4.879000
3805   4   1   -73.557000   -10.32000  0.501000
3806   4   1   -73.487000   -8.866000  2.69000
3807   4   1   -73.474000   -8.869000  5.486000
3808   4   1   -72.181000   -8.227000  3.3000
3809   4   1   -72.18000   -8.218000  4.866000
3810   4   1   -73.632000   -10.297000  -1.078000
3811   4   1   -73.466000   -10.337000  7.673000
3812   4   1   -73.512000   -10.318000  9.253000
3813   4   1   -73.482000   -8.873000  7.056000
3814   4   1   -73.576000   -8.835000  9.824000
3815   4   1   -72.218000   -8.178000  7.691000
3816   4   1   -72.286000   -8.13000  9.256000
3817   4   1   -73.51000   -8.863000  1.12000
3818   4   1   -73.618000   -8.824000  -1.653000
3819   4   1   -72.221000   -8.231000  0.475000
3820   4   1   -72.286000   -8.204000  -1.093000
3821   4   1   -51.235000   -30.17000  4.253000
3822   4   1   -50.006000   -29.369000  4.778000
3823   4   1   -46.114000   -29.84000  4.183000
3824   4   1   -44.876000   -29.03000  4.694000
3825   4   1   -47.439000   -29.211000  4.733000
3826   4   1   -43.566000   -29.661000  4.133000
3827   4   1   -48.564000   -31.51000  4.66000
3828   4   1   -49.818000   -32.26000  4.124000
3829   4   1   -47.233000   -32.098000  4.092000
3830   4   1   -48.681000   -30.01000  4.222000
3831   4   1   -51.116000   -31.636000  4.749000
3832   4   1   -45.993000   -31.335000  4.631000
3833   4   1   -44.651000   -31.908000  4.071000
3834   4   1   -43.451000   -31.109000  4.654000
3835   4   1   -43.184000   -33.993000  4.636000
3836   4   1   -44.518000   -33.468000  4.025000
3837   4   1   -43.095000   -35.561000  4.72000
3838   4   1   -41.77000   -36.077000  4.023000
3839   4   1   -44.32000   -36.248000  4.001000
3840   4   1   -49.695000   -33.823000  4.053000
3841   4   1   -49.461000   -36.609000  3.987000
3842   4   1   -47.108000   -33.656000  4.035000
3843   4   1   -46.896000   -36.433000  3.985000
3844   4   1   -50.762000   -36.102000  4.71000
3845   4   1   -50.919000   -34.54000  4.66000
3846   4   1   -48.35000   -34.352000  4.642000
3847   4   1   -48.221000   -35.943000  4.695000
3848   4   1   -45.767000   -34.17000  4.632000
3849   4   1   -45.657000   -35.761000  4.697000
3850   4   1   -42.821000   -38.434000  4.513000
3851   4   1   -41.596000   -37.637000  3.977000
3852   4   1   -44.181000   -37.83000  3.942000
3853   4   1   -49.393000   -38.197000  3.917000
3854   4   1   -46.788000   -38.013000  3.919000
3855   4   1   -50.669000   -38.984000  4.468000
3856   4   1   -48.047000   -38.806000  4.456000
3857   4   1   -45.435000   -38.618000  4.471000
3858   4   1   -46.145000   -29.781000  2.607000
3859   4   1   -47.489000   -29.105000  2.162000
3860   4   1   -44.93000   -28.931000  2.11000
3861   4   1   -51.261000   -30.104000  2.686000
3862   4   1   -50.052000   -29.255000  2.2000
3863   4   1   -44.672000   -31.857000  2.524000
3864   4   1   -43.502000   -31.014000  1.943000
3865   4   1   -43.599000   -29.604000  2.564000
3866   4   1   -48.601000   -31.405000  2.076000
3867   4   1   -47.253000   -32.042000  2.557000
3868   4   1   -49.838000   -32.198000  2.577000
3869   4   1   -48.709000   -29.945000  2.647000
3870   4   1   -46.032000   -31.242000  2.044000
3871   4   1   -51.154000   -31.522000  2.053000
3872   4   1   -44.525000   -33.419000  2.483000
3873   4   1   -44.308000   -36.2000  2.383000
3874   4   1   -41.746000   -36.036000  2.429000
3875   4   1   -47.118000   -33.602000  2.499000
3876   4   1   -46.892000   -36.38000  2.372000
3877   4   1   -49.705000   -33.764000  2.511000
3878   4   1   -49.463000   -36.553000  2.37000
3879   4   1   -45.643000   -35.668000  1.704000
3880   4   1   -43.061000   -35.48000  1.717000
3881   4   1   -45.778000   -34.083000  1.854000
3882   4   1   -43.189000   -33.909000  1.839000
3883   4   1   -48.365000   -34.253000  1.864000
3884   4   1   -48.221000   -35.839000  1.701000
3885   4   1   -50.931000   -34.438000  1.861000
3886   4   1   -50.772000   -35.995000  1.701000
3887   4   1   -41.58000   -37.602000  2.414000
3888   4   1   -44.173000   -37.786000  2.363000
3889   4   1   -46.785000   -37.962000  2.342000
3890   4   1   -49.395000   -38.142000  2.335000
3891   4   1   -45.428000   -38.536000  1.767000
3892   4   1   -42.803000   -38.367000  1.799000
3893   4   1   -48.047000   -38.714000  1.749000
3894   4   1   -50.676000   -38.887000  1.743000
3895   4   1   -44.314000   -36.692000  6.803000
3896   4   1   -41.785000   -36.366000  6.828000
3897   4   1   -46.872000   -36.923000  6.785000
3898   4   1   -49.429000   -37.074000  6.79000
3899   4   1   -45.649000   -36.128000  6.261000
3900   4   1   -43.115000   -35.859000  6.275000
3901   4   1   -48.19000   -36.317000  6.257000
3902   4   1   -50.712000   -36.411000  6.261000
3903   4   1   -41.579000   -37.903000  6.728000
3904   4   1   -44.157000   -38.229000  6.692000
3905   4   1   -46.766000   -38.459000  6.666000
3906   4   1   -49.384000   -38.616000  6.666000
3907   4   1   -45.412000   -38.885000  6.007000
3908   4   1   -42.787000   -38.639000  6.049000
3909   4   1   -48.041000   -39.079000  5.992000
3910   4   1   -50.688000   -39.203000  6.004000
3911   4   1   -40.151000   -37.944000  4.576000
3912   4   1   -40.116000   -37.901000  1.866000
3913   4   1   -40.434000   -35.595000  4.677000
3914   4   1   -40.377000   -35.546000  1.842000
3915   4   1   -39.462000   -36.649000  4.06000
3916   4   1   -39.428000   -36.625000  2.466000
3917   4   1   -48.035000   -39.362000  8.777000
3918   4   1   -49.383000   -38.76000  8.232000
3919   4   1   -46.762000   -38.609000  8.225000
3920   4   1   -50.693000   -39.451000  8.804000
3921   4   1   -45.401000   -39.159000  8.792000
3922   4   1   -44.153000   -38.364000  8.256000
3923   4   1   -41.581000   -38.018000  8.284000
3924   4   1   -42.775000   -38.862000  8.847000
3925   4   1   -41.801000   -36.475000  8.386000
3926   4   1   -44.318000   -36.813000  8.375000
3927   4   1   -43.127000   -36.094000  9.073000
3928   4   1   -48.173000   -36.606000  9.045000
3929   4   1   -46.869000   -37.062000  8.352000
3930   4   1   -49.423000   -37.203000  8.36000
3931   4   1   -45.65000   -36.408000  9.048000
3932   4   1   -50.699000   -36.667000  9.059000
3933   4   1   -43.026000   -35.72000  0.153000
3934   4   1   -41.673000   -36.226000  -0.381000
3935   4   1   -44.245000   -36.494000  -0.435000
3936   4   1   -49.432000   -36.816000  -0.457000
3937   4   1   -46.842000   -36.683000  -0.453000
3938   4   1   -50.726000   -36.195000  0.131000
3939   4   1   -48.175000   -36.106000  0.116000
3940   4   1   -45.599000   -35.944000  0.122000
3941   4   1   -42.75000   -38.499000  0.256000
3942   4   1   -41.498000   -37.765000  -0.343000
3943   4   1   -44.111000   -38.034000  -0.402000
3944   4   1   -49.39000   -38.362000  -0.437000
3945   4   1   -46.75000   -38.223000  -0.429000
3946   4   1   -50.699000   -38.992000  0.195000
3947   4   1   -48.041000   -38.874000  0.197000
3948   4   1   -45.397000   -38.705000  0.216000
3949   4   1   -41.455000   -37.815000  -1.901000
3950   4   1   -44.082000   -38.085000  -1.972000
3951   4   1   -42.68000   -38.584000  -2.547000
3952   4   1   -48.036000   -38.967000  -2.598000
3953   4   1   -46.737000   -38.276000  -1.994000
3954   4   1   -49.395000   -38.399000  -2.009000
3955   4   1   -45.359000   -38.809000  -2.577000
3956   4   1   -50.728000   -39.042000  -2.613000
3957   4   1   -48.151000   -36.208000  -2.681000
3958   4   1   -49.43000   -36.836000  -2.034000
3959   4   1   -46.826000   -36.72000  -2.027000
3960   4   1   -50.735000   -36.257000  -2.674000
3961   4   1   -45.558000   -36.056000  -2.672000
3962   4   1   -44.216000   -36.527000  -2.012000
3963   4   1   -41.633000   -36.264000  -1.943000
3964   4   1   -42.957000   -35.818000  -2.646000
3965   4   1   -40.058000   -37.958000  0.305000
3966   4   1   -40.36000   -35.612000  0.249000
3967   4   1   -39.976000   -38.068000  -2.413000
3968   4   1   -40.284000   -35.695000  -2.484000
3969   4   1   -39.356000   -36.688000  -0.286000
3970   4   1   -39.311000   -36.751000  -1.875000
3971   4   1   -40.476000   -35.7000  6.266000
3972   4   1   -40.126000   -38.045000  6.135000
3973   4   1   -40.522000   -35.878000  9.006000
3974   4   1   -40.136000   -38.246000  8.854000
3975   4   1   -39.492000   -36.775000  6.813000
3976   4   1   -39.525000   -36.885000  8.398000
3977   4   1   -48.858000   -27.117000  4.92000
3978   4   1   -50.084000   -27.876000  4.342000
3979   4   1   -47.55000   -27.708000  4.307000
3980   4   1   -46.308000   -26.954000  4.869000
3981   4   1   -45.017000   -27.551000  4.246000
3982   4   1   -45.052000   -27.491000  2.681000
3983   4   1   -48.915000   -26.997000  2.225000
3984   4   1   -47.584000   -27.643000  2.721000
3985   4   1   -50.116000   -27.808000  2.779000
3986   4   1   -46.367000   -26.843000  2.171000
3987   4   1   -51.986000   -36.719000  2.393000
3988   4   1   -51.987000   -38.289000  2.353000
3989   4   1   -51.979000   -36.775000  3.987000
3990   4   1   -51.98000   -38.343000  3.921000
3991   4   1   -51.988000   -36.837000  -0.431000
3992   4   1   -52.015000   -38.387000  -0.416000
3993   4   1   -53.41000   -38.71000  1.769000
3994   4   1   -53.396000   -38.804000  4.501000
3995   4   1   -53.36000   -36.342000  1.794000
3996   4   1   -53.341000   -36.44000  4.636000
3997   4   1   -54.195000   -37.509000  2.387000
3998   4   1   -54.181000   -37.564000  3.987000
3999   4   1   -52.034000   -38.411000  -1.979000
4000   4   1   -51.997000   -36.85000  -1.992000
4001   4   1   -51.959000   -37.091000  6.797000
4002   4   1   -51.991000   -38.638000  6.677000
4003   4   1   -51.991000   -38.77000  8.235000
4004   4   1   -51.949000   -37.213000  8.353000
4005   4   1   -53.422000   -38.927000  6.06000
4006   4   1   -53.306000   -36.562000  6.225000
4007   4   1   -53.418000   -39.164000  8.789000
4008   4   1   -53.28000   -36.772000  8.969000
4009   4   1   -54.176000   -37.734000  6.748000
4010   4   1   -54.158000   -37.866000  8.337000
4011   4   1   -53.337000   -36.36000  0.199000
4012   4   1   -53.443000   -38.726000  0.206000
4013   4   1   -53.359000   -36.382000  -2.545000
4014   4   1   -53.481000   -38.776000  -2.527000
4015   4   1   -54.22000   -37.497000  -0.378000
4016   4   1   -54.237000   -37.521000  -1.971000
4017   4   1   -58.143000   -37.559000  4.063000
4018   4   1   -60.453000   -36.656000  4.149000
4019   4   1   -61.853000   -36.326000  4.802000
4020   4   1   -59.565000   -37.835000  4.699000
4021   4   1   -58.16000   -37.507000  2.484000
4022   4   1   -60.47000   -36.605000  2.57000
4023   4   1   -59.598000   -37.743000  1.895000
4024   4   1   -61.884000   -36.23000  2.001000
4025   4   1   -58.119000   -37.668000  6.864000
4026   4   1   -60.423000   -36.761000  6.947000
4027   4   1   -59.552000   -37.892000  6.265000
4028   4   1   -61.836000   -36.387000  6.37000
4029   4   1   -56.839000   -38.229000  4.625000
4030   4   1   -56.869000   -38.135000  1.822000
4031   4   1   -55.718000   -37.299000  4.011000
4032   4   1   -55.736000   -37.245000  2.444000
4033   4   1   -59.53000   -38.046000  9.053000
4034   4   1   -60.423000   -36.855000  8.524000
4035   4   1   -61.835000   -36.542000  9.152000
4036   4   1   -58.104000   -37.776000  8.439000
4037   4   1   -58.199000   -37.431000  -0.316000
4038   4   1   -60.51000   -36.526000  -0.229000
4039   4   1   -61.904000   -36.187000  0.433000
4040   4   1   -59.618000   -37.698000  0.329000
4041   4   1   -58.233000   -37.436000  -1.894000
4042   4   1   -59.69000   -37.665000  -2.46000
4043   4   1   -60.558000   -36.513000  -1.807000
4044   4   1   -61.987000   -36.137000  -2.352000
4045   4   1   -56.891000   -38.096000  0.254000
4046   4   1   -56.948000   -38.107000  -2.527000
4047   4   1   -55.758000   -37.198000  -0.385000
4048   4   1   -55.776000   -37.22000  -1.956000
4049   4   1   -56.836000   -38.294000  6.192000
4050   4   1   -56.805000   -38.483000  8.971000
4051   4   1   -55.702000   -37.431000  6.836000
4052   4   1   -55.674000   -37.555000  8.4000
4053   4   1   -62.218000   -34.835000  2.675000
4054   4   1   -62.206000   -34.89000  4.256000
4055   4   1   -62.254000   -34.758000  -0.122000
4056   4   1   -63.39000   -33.956000  2.117000
4057   4   1   -63.374000   -34.061000  4.914000
4058   4   1   -63.15000   -32.547000  2.793000
4059   4   1   -63.146000   -32.606000  4.361000
4060   4   1   -62.315000   -34.736000  -1.702000
4061   4   1   -62.19000   -35.005000  7.052000
4062   4   1   -62.218000   -35.1000  8.63000
4063   4   1   -63.371000   -34.136000  6.483000
4064   4   1   -63.427000   -34.31000  9.257000
4065   4   1   -63.181000   -32.738000  7.181000
4066   4   1   -63.241000   -32.834000  8.749000
4067   4   1   -63.406000   -33.919000  0.547000
4068   4   1   -63.506000   -33.866000  -2.231000
4069   4   1   -63.182000   -32.48000  -0.029000
4070   4   1   -63.253000   -32.453000  -1.598000
4071   4   1   -14.646000   4.749000  3.863000
4072   4   1   -15.91000   4.029000  4.423000
4073   4   1   -19.782000   4.766000  3.977000
4074   4   1   -21.057000   4.03000  4.533000
4075   4   1   -18.483000   4.045000  4.473000
4076   4   1   -22.342000   4.751000  4.028000
4077   4   1   -17.189000   6.275000  4.371000
4078   4   1   -15.895000   6.946000  3.801000
4079   4   1   -18.491000   6.958000  3.851000
4080   4   1   -17.205000   4.767000  3.922000
4081   4   1   -14.634000   6.217000  4.376000
4082   4   1   -19.771000   6.273000  4.427000
4083   4   1   -21.086000   6.941000  3.913000
4084   4   1   -22.326000   6.217000  4.542000
4085   4   1   -22.358000   9.139000  4.495000
4086   4   1   -21.089000   8.513000  3.86000
4087   4   1   -22.329000   10.712000  4.557000
4088   4   1   -23.616000   11.309000  3.863000
4089   4   1   -21.074000   11.314000  3.818000
4090   4   1   -15.888000   8.523000  3.745000
4091   4   1   -15.913000   11.331000  3.7000
4092   4   1   -18.49000   8.527000  3.801000
4093   4   1   -18.494000   11.323000  3.758000
4094   4   1   -14.616000   10.74000  4.381000
4095   4   1   -14.59000   9.161000  4.322000
4096   4   1   -17.178000   9.141000  4.373000
4097   4   1   -17.186000   10.742000  4.435000
4098   4   1   -19.774000   9.135000  4.431000
4099   4   1   -19.765000   10.734000  4.494000
4100   4   1   -22.424000   13.599000  4.337000
4101   4   1   -23.702000   12.877000  3.808000
4102   4   1   -21.113000   12.904000  3.757000
4103   4   1   -15.895000   12.922000  3.635000
4104   4   1   -18.504000   12.908000  3.696000
4105   4   1   -14.569000   13.633000  4.151000
4106   4   1   -17.187000   13.615000  4.207000
4107   4   1   -19.801000   13.606000  4.269000
4108   4   1   -19.816000   4.711000  2.403000
4109   4   1   -18.538000   3.953000  1.906000
4110   4   1   -21.111000   3.938000  1.956000
4111   4   1   -14.681000   4.694000  2.295000
4112   4   1   -15.966000   3.935000  1.846000
4113   4   1   -21.119000   6.889000  2.366000
4114   4   1   -22.383000   6.123000  1.843000
4115   4   1   -22.375000   4.696000  2.46000
4116   4   1   -17.245000   6.185000  1.79000
4117   4   1   -18.524000   6.907000  2.316000
4118   4   1   -15.93000   6.894000  2.253000
4119   4   1   -17.239000   4.711000  2.347000
4120   4   1   -19.827000   6.184000  1.846000
4121   4   1   -14.694000   6.123000  1.677000
4122   4   1   -21.122000   8.464000  2.316000
4123   4   1   -21.11000   11.269000  2.201000
4124   4   1   -23.652000   11.266000  2.268000
4125   4   1   -18.524000   8.478000  2.262000
4126   4   1   -18.531000   11.277000  2.145000
4127   4   1   -15.924000   8.474000  2.201000
4128   4   1   -15.95000   11.284000  2.082000
4129   4   1   -19.833000   10.648000  1.501000
4130   4   1   -22.397000   10.628000  1.551000
4131   4   1   -19.835000   9.052000  1.653000
4132   4   1   -22.417000   9.057000  1.695000
4133   4   1   -17.241000   9.057000  1.596000
4134   4   1   -17.255000   10.655000  1.442000
4135   4   1   -14.656000   9.077000  1.522000
4136   4   1   -14.686000   10.653000  1.375000
4137   4   1   -23.736000   12.835000  2.245000
4138   4   1   -21.148000   12.86000  2.178000
4139   4   1   -18.54000   12.864000  2.12000
4140   4   1   -15.932000   12.877000  2.057000
4141   4   1   -19.862000   13.531000  1.571000
4142   4   1   -22.484000   13.527000  1.623000
4143   4   1   -17.249000   13.539000  1.51000
4144   4   1   -14.632000   13.557000  1.441000
4145   4   1   -21.009000   11.767000  6.62000
4146   4   1   -23.559000   11.616000  6.669000
4147   4   1   -18.43000   11.812000  6.557000
4148   4   1   -15.848000   11.792000  6.499000
4149   4   1   -19.721000   11.107000  6.058000
4150   4   1   -22.269000   11.02000  6.11000
4151   4   1   -17.156000   11.118000  5.999000
4152   4   1   -14.6000   11.059000  5.933000
4153   4   1   -23.673000   13.16000  6.56000
4154   4   1   -21.069000   13.31000  6.504000
4155   4   1   -18.442000   13.352000  6.439000
4156   4   1   -15.815000   13.336000  6.379000
4157   4   1   -19.778000   13.873000  5.804000
4158   4   1   -22.422000   13.809000  5.872000
4159   4   1   -17.143000   13.884000  5.741000
4160   4   1   -14.503000   13.852000  5.683000
4161   4   1   -25.124000   13.264000  4.407000
4162   4   1   -25.184000   13.195000  1.691000
4163   4   1   -24.964000   10.903000  4.526000
4164   4   1   -25.029000   10.83000  1.686000
4165   4   1   -25.874000   11.996000  3.895000
4166   4   1   -25.909000   11.956000  2.3000
4167   4   1   -17.07000   14.166000  8.52000
4168   4   1   -15.77000   13.48000  7.942000
4169   4   1   -18.407000   13.505000  7.996000
4170   4   1   -14.409000   14.098000  8.475000
4171   4   1   -19.726000   14.151000  8.584000
4172   4   1   -21.043000   13.45000  8.068000
4173   4   1   -23.653000   13.285000  8.115000
4174   4   1   -22.389000   14.045000  8.667000
4175   4   1   -23.528000   11.732000  8.226000
4176   4   1   -20.977000   11.893000  8.192000
4177   4   1   -22.218000   11.269000  8.907000
4178   4   1   -17.091000   11.411000  8.786000
4179   4   1   -18.393000   11.953000  8.126000
4180   4   1   -15.807000   11.922000  8.071000
4181   4   1   -19.655000   11.396000  8.846000
4182   4   1   -14.522000   11.32000  8.729000
4183   4   1   -22.412000   10.857000  -0.017000
4184   4   1   -23.724000   11.429000  -0.549000
4185   4   1   -21.175000   11.571000  -0.62000
4186   4   1   -16.016000   11.588000  -0.738000
4187   4   1   -18.597000   11.611000  -0.677000
4188   4   1   -14.742000   10.885000  -0.193000
4189   4   1   -17.298000   10.943000  -0.141000
4190   4   1   -19.863000   10.937000  -0.082000
4191   4   1   -22.55000   13.657000  0.081000
4192   4   1   -23.832000   12.977000  -0.514000
4193   4   1   -21.229000   13.119000  -0.584000
4194   4   1   -15.979000   13.137000  -0.704000
4195   4   1   -18.603000   13.155000  -0.642000
4196   4   1   -14.638000   13.69000  -0.101000
4197   4   1   -17.275000   13.723000  -0.036000
4198   4   1   -19.908000   13.714000  0.024000
4199   4   1   -23.881000   13.024000  -2.074000
4200   4   1   -21.274000   13.178000  -2.152000
4201   4   1   -22.643000   13.749000  -2.719000
4202   4   1   -17.331000   13.855000  -2.824000
4203   4   1   -18.64000   13.226000  -2.204000
4204   4   1   -16.008000   13.197000  -2.273000
4205   4   1   -19.982000   13.846000  -2.763000
4206   4   1   -14.676000   13.784000  -2.902000
4207   4   1   -17.364000   11.088000  -2.941000
4208   4   1   -16.049000   11.634000  -2.315000
4209   4   1   -18.633000   11.668000  -2.251000
4210   4   1   -14.797000   10.995000  -3.0000
4211   4   1   -19.926000   11.08000  -2.883000
4212   4   1   -21.215000   11.616000  -2.197000
4213   4   1   -23.764000   11.467000  -2.111000
4214   4   1   -22.487000   10.963000  -2.825000
4215   4   1   -25.253000   13.234000  0.131000
4216   4   1   -25.044000   10.871000  0.092000
4217   4   1   -25.339000   13.325000  -2.593000
4218   4   1   -25.109000   10.936000  -2.654000
4219   4   1   -25.985000   11.979000  -0.46000
4220   4   1   -26.021000   12.027000  -2.049000
4221   4   1   -24.903000   11.023000  6.114000
4222   4   1   -25.123000   13.381000  5.966000
4223   4   1   -24.845000   11.223000  8.853000
4224   4   1   -25.089000   13.605000  8.684000
4225   4   1   -25.823000   12.155000  6.65000
4226   4   1   -25.788000   12.28000  8.235000
4227   4   1   -17.204000   1.854000  4.592000
4228   4   1   -15.952000   2.536000  3.972000
4229   4   1   -18.496000   2.535000  4.038000
4230   4   1   -19.764000   1.856000  4.647000
4231   4   1   -21.04000   2.539000  4.081000
4232   4   1   -21.074000   2.483000  2.517000
4233   4   1   -17.262000   1.755000  1.896000
4234   4   1   -18.529000   2.478000  2.452000
4235   4   1   -15.985000   2.48000  2.408000
4236   4   1   -19.822000   1.757000  1.95000
4237   4   1   -13.402000   11.309000  2.032000
4238   4   1   -13.346000   12.881000  2.003000
4239   4   1   -13.364000   11.354000  3.627000
4240   4   1   -13.309000   12.925000  3.565000
4241   4   1   -13.46000   11.478000  -0.784000
4242   4   1   -13.378000   13.028000  -0.755000
4243   4   1   -11.934000   13.271000  1.384000
4244   4   1   -11.87000   13.347000  4.094000
4245   4   1   -12.04000   10.903000  1.386000
4246   4   1   -11.973000   10.982000  4.227000
4247   4   1   -11.152000   12.051000  1.956000
4248   4   1   -11.114000   12.095000  3.551000
4249   4   1   -13.402000   13.076000  -2.314000
4250   4   1   -13.493000   11.517000  -2.347000
4251   4   1   -13.292000   11.679000  6.429000
4252   4   1   -13.212000   13.225000  6.311000
4253   4   1   -13.162000   13.357000  7.865000
4254   4   1   -13.251000   11.802000  7.987000
4255   4   1   -11.799000   13.474000  5.649000
4256   4   1   -11.959000   11.112000  5.816000
4257   4   1   -11.71000   13.713000  8.362000
4258   4   1   -11.891000   11.327000  8.553000
4259   4   1   -11.038000   12.27000  6.303000
4260   4   1   -11.001000   12.403000  7.887000
4261   4   1   -12.098000   10.945000  -0.207000
4262   4   1   -11.935000   13.312000  -0.178000
4263   4   1   -12.162000   11.011000  -2.953000
4264   4   1   -11.977000   13.405000  -2.901000
4265   4   1   -11.204000   12.074000  -0.802000
4266   4   1   -11.244000   12.122000  -2.391000
4267   4   1   -34.945000   11.938000  4.094000
4268   4   1   -32.417000   12.338000  4.023000
4269   4   1   -31.12000   13.045000  4.577000
4270   4   1   -33.775000   12.842000  4.643000
4271   4   1   -34.982000   11.899000  2.513000
4272   4   1   -32.454000   12.3000  2.444000
4273   4   1   -33.84000   12.774000  1.865000
4274   4   1   -31.184000   12.98000  1.798000
4275   4   1   -34.875000   12.04000  6.879000
4276   4   1   -32.352000   12.436000  6.807000
4277   4   1   -33.736000   12.897000  6.214000
4278   4   1   -31.085000   13.1000  6.148000
4279   4   1   -36.363000   12.218000  4.723000
4280   4   1   -36.429000   12.148000  1.939000
4281   4   1   -37.352000   11.124000  4.166000
4282   4   1   -37.389000   11.084000  2.599000
4283   4   1   -33.675000   13.054000  8.972000
4284   4   1   -32.318000   12.536000  8.381000
4285   4   1   -31.024000   13.258000  8.906000
4286   4   1   -34.845000   12.144000  8.456000
4287   4   1   -35.041000   11.863000  -0.275000
4288   4   1   -32.517000   12.264000  -0.342000
4289   4   1   -31.222000   12.959000  0.227000
4290   4   1   -33.874000   12.752000  0.292000
4291   4   1   -35.087000   11.89000  -1.855000
4292   4   1   -33.943000   12.775000  -2.471000
4293   4   1   -32.556000   12.29000  -1.919000
4294   4   1   -31.288000   12.987000  -2.537000
4295   4   1   -36.455000   12.131000  0.367000
4296   4   1   -36.53000   12.168000  -2.405000
4297   4   1   -37.446000   11.067000  -0.219000
4298   4   1   -37.498000   11.105000  -1.786000
4299   4   1   -36.317000   12.28000  6.293000
4300   4   1   -36.258000   12.456000  9.061000
4301   4   1   -37.279000   11.252000  6.981000
4302   4   1   -37.254000   11.367000  8.544000
4303   4   1   -29.903000   12.278000  2.386000
4304   4   1   -29.867000   12.315000  3.967000
4305   4   1   -29.97000   12.246000  -0.402000
4306   4   1   -28.521000   12.686000  1.743000
4307   4   1   -28.457000   12.752000  4.527000
4308   4   1   -27.458000   11.7000  2.354000
4309   4   1   -27.423000   11.737000  3.92000
4310   4   1   -30.002000   12.28000  -1.981000
4311   4   1   -29.806000   12.415000  6.753000
4312   4   1   -29.766000   12.522000  8.328000
4313   4   1   -28.429000   12.812000  6.097000
4314   4   1   -28.363000   12.993000  8.86000
4315   4   1   -27.361000   11.859000  6.737000
4316   4   1   -27.316000   11.976000  8.3000
4317   4   1   -28.564000   12.67000  0.173000
4318   4   1   -28.622000   12.721000  -2.595000
4319   4   1   -27.527000   11.685000  -0.466000
4320   4   1   -27.552000   11.728000  -2.034000
4321   4   1   13.183000   4.827000  3.214000
4322   4   1   11.914000   4.109000  3.767000
4323   4   1   8.045000   4.861000  3.308000
4324   4   1   6.767000   4.127000  3.858000
4325   4   1   9.341000   4.134000  3.807000
4326   4   1   5.485000   4.853000  3.349000
4327   4   1   10.641000   6.36000  3.718000
4328   4   1   11.94000   7.029000  3.156000
4329   4   1   9.342000   7.05000  3.195000
4330   4   1   10.624000   4.853000  3.263000
4331   4   1   13.197000   6.294000  3.733000
4332   4   1   8.057000   6.367000  3.763000
4333   4   1   6.746000   7.041000  3.246000
4334   4   1   5.502000   6.318000  3.867000
4335   4   1   5.472000   9.247000  3.827000
4336   4   1   6.745000   8.615000  3.196000
4337   4   1   5.504000   10.821000  3.893000
4338   4   1   4.221000   11.432000  3.196000
4339   4   1   6.77000   11.417000  3.161000
4340   4   1   11.952000   8.605000  3.108000
4341   4   1   11.938000   11.413000  3.074000
4342   4   1   9.348000   8.619000  3.149000
4343   4   1   9.353000   11.414000  3.113000
4344   4   1   13.228000   10.816000  3.763000
4345   4   1   13.249000   9.238000  3.697000
4346   4   1   10.659000   9.226000  3.731000
4347   4   1   10.656000   10.826000  3.798000
4348   4   1   8.06000   9.23000  3.774000
4349   4   1   8.074000   10.829000  3.841000
4350   4   1   5.435000   13.711000  3.678000
4351   4   1   4.155000   13.001000  3.144000
4352   4   1   6.743000   13.007000  3.102000
4353   4   1   11.962000   13.003000  3.013000
4354   4   1   9.352000   12.999000  3.055000
4355   4   1   13.287000   13.709000  3.542000
4356   4   1   10.668000   13.698000  3.577000
4357   4   1   8.054000   13.7000  3.622000
4358   4   1   8.018000   4.811000  1.734000
4359   4   1   9.295000   4.05000  1.24000
4360   4   1   6.722000   4.042000  1.28000
4361   4   1   13.154000   4.777000  1.646000
4362   4   1   11.867000   4.025000  1.189000
4363   4   1   6.719000   6.994000  1.698000
4364   4   1   5.456000   6.232000  1.169000
4365   4   1   5.459000   4.803000  1.782000
4366   4   1   10.595000   6.28000  1.137000
4367   4   1   9.316000   7.004000  1.659000
4368   4   1   11.912000   6.982000  1.608000
4369   4   1   10.595000   4.803000  1.689000
4370   4   1   8.012000   6.286000  1.181000
4371   4   1   13.147000   6.209000  1.034000
4372   4   1   6.719000   8.571000  1.652000
4373   4   1   6.741000   11.375000  1.542000
4374   4   1   4.191000   11.393000  1.601000
4375   4   1   9.321000   8.575000  1.611000
4376   4   1   9.327000   11.371000  1.5000
4377   4   1   11.925000   8.561000  1.563000
4378   4   1   11.913000   11.37000  1.455000
4379   4   1   8.023000   10.75000  0.848000
4380   4   1   5.449000   10.745000  0.887000
4381   4   1   8.013000   9.153000  0.997000
4382   4   1   5.426000   9.171000  1.027000
4383   4   1   10.612000   9.15000  0.954000
4384   4   1   10.608000   10.747000  0.804000
4385   4   1   13.201000   9.161000  0.896000
4386   4   1   13.184000   10.738000  0.757000
4387   4   1   4.127000   12.964000  1.58000
4388   4   1   6.716000   12.967000  1.523000
4389   4   1   9.327000   12.958000  1.479000
4390   4   1   11.938000   12.962000  1.435000
4391   4   1   8.01000   13.631000  0.923000
4392   4   1   5.389000   13.644000  0.964000
4393   4   1   10.626000   13.629000  0.879000
4394   4   1   13.246000   13.64000  0.832000
4395   4   1   6.82000   11.862000  5.963000
4396   4   1   4.267000   11.735000  6.001000
4397   4   1   9.401000   11.894000  5.914000
4398   4   1   11.982000   11.865000  5.874000
4399   4   1   8.109000   11.197000  5.406000
4400   4   1   5.555000   11.127000  5.446000
4401   4   1   10.676000   11.197000  5.363000
4402   4   1   13.232000   11.129000  5.317000
4403   4   1   4.172000   13.28000  5.895000
4404   4   1   6.774000   13.406000  5.851000
4405   4   1   9.398000   13.434000  5.8000
4406   4   1   12.022000   13.409000  5.759000
4407   4   1   8.07000   13.964000  5.158000
4408   4   1   5.431000   13.919000  5.214000
4409   4   1   10.702000   13.964000  5.112000
4410   4   1   13.341000   13.924000  5.075000
4411   4   1   2.737000   13.409000  3.738000
4412   4   1   2.687000   13.348000  1.024000
4413   4   1   2.86000   11.045000  3.853000
4414   4   1   2.805000   10.98000  1.014000
4415   4   1   1.967000   12.156000  3.223000
4416   4   1   1.936000   12.12000  1.628000
4417   4   1   10.756000   14.239000  7.892000
4418   4   1   12.055000   13.55000  7.322000
4419   4   1   9.423000   13.584000  7.357000
4420   4   1   13.41000   14.164000  7.868000
4421   4   1   8.108000   14.235000  7.939000
4422   4   1   6.792000   13.543000  7.415000
4423   4   1   4.187000   13.402000  7.451000
4424   4   1   5.452000   14.148000  8.01000
4425   4   1   4.292000   11.847000  7.559000
4426   4   1   6.845000   11.985000  7.535000
4427   4   1   5.596000   11.369000  8.243000
4428   4   1   10.721000   11.482000  8.151000
4429   4   1   9.428000   12.031000  7.483000
4430   4   1   12.011000   11.992000  7.447000
4431   4   1   8.16000   11.478000  8.194000
4432   4   1   13.286000   11.383000  8.115000
4433   4   1   5.441000   10.978000  -0.681000
4434   4   1   4.132000   11.566000  -1.215000
4435   4   1   6.693000   11.681000  -1.277000
4436   4   1   11.872000   11.68000  -1.364000
4437   4   1   9.282000   11.707000  -1.321000
4438   4   1   13.145000   10.976000  -0.81000
4439   4   1   10.579000   11.038000  -0.778000
4440   4   1   8.003000   11.04000  -0.734000
4441   4   1   5.332000   13.778000  -0.578000
4442   4   1   4.045000   13.115000  -1.178000
4443   4   1   6.652000   13.229000  -1.239000
4444   4   1   11.913000   13.228000  -1.327000
4445   4   1   9.282000   13.251000  -1.284000
4446   4   1   13.254000   13.777000  -0.71000
4447   4   1   10.611000   13.814000  -0.668000
4448   4   1   7.975000   13.815000  -0.624000
4449   4   1   4.002000   13.165000  -2.737000
4450   4   1   6.616000   13.291000  -2.807000
4451   4   1   5.253000   13.874000  -3.379000
4452   4   1   10.575000   13.949000  -3.456000
4453   4   1   9.257000   13.324000  -2.846000
4454   4   1   11.898000   13.291000  -2.895000
4455   4   1   7.918000   13.949000  -3.412000
4456   4   1   13.241000   13.878000  -3.511000
4457   4   1   10.535000   11.185000  -3.576000
4458   4   1   11.853000   11.729000  -2.942000
4459   4   1   9.256000   11.766000  -2.895000
4460   4   1   13.117000   11.093000  -3.616000
4461   4   1   7.957000   11.185000  -3.533000
4462   4   1   6.661000   11.728000  -2.855000
4463   4   1   4.097000   11.606000  -2.777000
4464   4   1   5.378000   11.089000  -3.486000
4465   4   1   2.625000   13.392000  -0.537000
4466   4   1   2.797000   11.027000  -0.58000
4467   4   1   2.549000   13.49000  -3.259000
4468   4   1   2.74000   11.098000  -3.323000
4469   4   1   1.87000   12.153000  -1.13000
4470   4   1   1.839000   12.204000  -2.719000
4471   4   1   2.913000   11.162000  5.442000
4472   4   1   2.73000   13.523000  5.297000
4473   4   1   2.965000   11.356000  8.181000
4474   4   1   2.757000   13.743000  8.015000
4475   4   1   2.008000   12.309000  5.978000
4476   4   1   2.04000   12.43000  7.563000
4477   4   1   10.614000   1.939000  3.924000
4478   4   1   11.871000   2.619000  3.311000
4479   4   1   9.326000   2.626000  3.367000
4480   4   1   8.054000   1.948000  3.97000
4481   4   1   6.781000   2.636000  3.401000
4482   4   1   6.754000   2.585000  1.837000
4483   4   1   10.565000   1.848000  1.227000
4484   4   1   9.298000   2.573000  1.781000
4485   4   1   11.842000   2.567000  1.746000
4486   4   1   8.006000   1.857000  1.272000
4487   4   1   14.467000   11.388000  1.428000
4488   4   1   14.529000   12.96000  1.405000
4489   4   1   14.489000   11.429000  3.024000
4490   4   1   14.551000   13.0000  2.968000
4491   4   1   14.437000   11.568000  -1.387000
4492   4   1   14.523000   13.117000  -1.353000
4493   4   1   15.95000   13.348000  0.803000
4494   4   1   15.987000   13.415000  3.513000
4495   4   1   15.836000   10.981000  0.796000
4496   4   1   15.873000   11.051000  3.638000
4497   4   1   16.725000   12.123000  1.381000
4498   4   1   16.745000   12.162000  2.976000
4499   4   1   14.515000   13.17000  -2.912000
4500   4   1   14.421000   11.612000  -2.95000
4501   4   1   14.537000   11.745000  5.828000
4502   4   1   14.623000   13.292000  5.715000
4503   4   1   14.658000   13.42000  7.269000
4504   4   1   14.563000   11.865000  7.386000
4505   4   1   16.044000   13.538000  5.069000
4506   4   1   15.873000   11.176000  5.227000
4507   4   1   16.104000   13.772000  7.783000
4508   4   1   15.912000   11.385000  7.967000
4509   4   1   16.793000   12.33000  5.729000
4510   4   1   16.811000   12.46000  7.314000
4511   4   1   15.795000   11.032000  -0.798000
4512   4   1   15.964000   13.396000  -0.758000
4513   4   1   15.763000   11.109000  -3.541000
4514   4   1   15.951000   13.5000  -3.479000
4515   4   1   16.704000   12.16000  -1.377000
4516   4   1   16.685000   12.216000  -2.967000
4517   4   1   -0.652000   12.932000  1.074000
4518   4   1   -0.593000   12.993000  3.858000
4519   4   1   0.376000   11.906000  1.681000
4520   4   1   0.408000   11.94000  3.248000
4521   4   1   -0.569000   13.049000  5.428000
4522   4   1   -0.501000   13.218000  8.193000
4523   4   1   0.46000   12.053000  6.064000
4524   4   1   0.506000   12.164000  7.627000
4525   4   1   -0.693000   12.92000  -0.497000
4526   4   1   -0.747000   12.972000  -3.265000
4527   4   1   0.317000   11.9000  -1.137000
4528   4   1   0.296000   11.945000  -2.705000
4529   4   1   -7.129000   12.606000  3.427000
4530   4   1   -4.578000   12.827000  3.355000
4531   4   1   -3.234000   13.441000  3.908000
4532   4   1   -5.901000   13.429000  3.974000
4533   4   1   -7.165000   12.565000  1.846000
4534   4   1   -4.613000   12.789000  1.776000
4535   4   1   -5.965000   13.358000  1.195000
4536   4   1   -3.296000   13.375000  1.129000
4537   4   1   -7.061000   12.714000  6.213000
4538   4   1   -4.515000   12.925000  6.139000
4539   4   1   -5.862000   13.486000  5.545000
4540   4   1   -3.2000   13.494000  5.479000
4541   4   1   -8.536000   12.958000  4.055000
4542   4   1   -8.602000   12.884000  1.273000
4543   4   1   -9.554000   11.891000  3.501000
4544   4   1   -9.591000   11.85000  1.935000
4545   4   1   -5.796000   13.647000  8.303000
4546   4   1   -4.479000   13.025000  7.713000
4547   4   1   -3.134000   13.646000  8.239000
4548   4   1   -7.031000   12.825000  7.788000
4549   4   1   -7.227000   12.528000  -0.941000
4550   4   1   -4.676000   12.751000  -1.01000
4551   4   1   -3.333000   13.354000  -0.443000
4552   4   1   -5.999000   13.335000  -0.376000
4553   4   1   -7.272000   12.557000  -2.52000
4554   4   1   -6.068000   13.358000  -3.139000
4555   4   1   -4.714000   12.775000  -2.587000
4556   4   1   -3.397000   13.379000  -3.206000
4557   4   1   -8.63000   12.866000  -0.298000
4558   4   1   -8.706000   12.91000  -3.066000
4559   4   1   -9.652000   11.832000  -0.884000
4560   4   1   -9.704000   11.872000  -2.451000
4561   4   1   -8.492000   13.024000  5.625000
4562   4   1   -8.432000   13.216000  8.387000
4563   4   1   -9.486000   12.027000  6.318000
4564   4   1   -9.461000   12.151000  7.881000
4565   4   1   -2.058000   12.595000  1.716000
4566   4   1   -2.024000   12.631000  3.297000
4567   4   1   -2.121000   12.565000  -1.071000
4568   4   1   -2.15000   12.598000  -2.651000
4569   4   1   -1.968000   12.725000  6.083000
4570   4   1   -1.926000   12.827000  7.659000
4571   4   1   27.279000   12.775000  0.725000
4572   4   1   27.289000   12.783000  3.507000
4573   4   1   28.273000   11.711000  1.337000
4574   4   1   28.271000   11.708000  2.905000
4575   4   1   27.289000   12.816000  5.078000
4576   4   1   27.305000   12.946000  7.845000
4577   4   1   28.267000   11.768000  5.725000
4578   4   1   28.277000   11.85000  7.291000
4579   4   1   27.263000   12.798000  -0.846000
4580   4   1   27.269000   12.918000  -3.61000
4581   4   1   28.273000   11.78000  -1.482000
4582   4   1   28.292000   11.87000  -3.047000
4583   4   1   20.746000   12.617000  2.926000
4584   4   1   23.305000   12.764000  2.91000
4585   4   1   24.662000   13.328000  3.495000
4586   4   1   21.989000   13.406000  3.499000
4587   4   1   20.732000   12.58000  1.345000
4588   4   1   23.295000   12.734000  1.33000
4589   4   1   21.966000   13.342000  0.722000
4590   4   1   24.642000   13.286000  0.718000
4591   4   1   20.772000   12.73000  5.712000
4592   4   1   23.322000   12.861000  5.694000
4593   4   1   22.004000   13.466000  5.069000
4594   4   1   24.673000   13.374000  5.066000
4595   4   1   19.334000   12.997000  3.526000
4596   4   1   19.308000   12.929000  0.745000
4597   4   1   18.306000   11.947000  2.951000
4598   4   1   18.289000   11.91000  1.385000
4599   4   1   22.024000   13.637000  7.826000
4600   4   1   23.331000   12.962000  7.269000
4601   4   1   24.692000   13.52000  7.825000
4602   4   1   20.778000   12.845000  7.288000
4603   4   1   20.713000   12.552000  -1.443000
4604   4   1   23.28000   12.715000  -1.456000
4605   4   1   24.629000   13.282000  -0.854000
4606   4   1   21.955000   13.326000  -0.849000
4607   4   1   20.694000   12.593000  -3.022000
4608   4   1   21.936000   13.366000  -3.611000
4609   4   1   23.274000   12.754000  -3.033000
4610   4   1   24.617000   13.343000  -3.616000
4611   4   1   19.301000   12.917000  -0.826000
4612   4   1   19.27000   12.979000  -3.591000
4613   4   1   18.26000   11.906000  -1.435000
4614   4   1   18.232000   11.957000  -3.003000
4615   4   1   19.357000   13.065000  5.095000
4616   4   1   19.373000   13.26000  7.857000
4617   4   1   18.343000   12.078000  5.769000
4618   4   1   18.347000   12.201000  7.332000
4619   4   1   25.851000   12.466000  1.326000
4620   4   1   25.855000   12.48000  2.908000
4621   4   1   25.84000   12.479000  -1.462000
4622   4   1   25.847000   12.542000  -3.041000
4623   4   1   25.861000   12.55000  5.695000
4624   4   1   25.871000   12.639000  7.273000
4625   4   1   -14.679000   -29.496000  3.431000
4626   4   1   -15.927000   -28.727000  2.901000
4627   4   1   -19.816000   -29.372000  3.359000
4628   4   1   -21.073000   -28.583000  2.837000
4629   4   1   -18.501000   -28.672000  2.874000
4630   4   1   -22.375000   -29.284000  3.33000
4631   4   1   -17.266000   -30.941000  2.903000
4632   4   1   -15.987000   -31.661000  3.446000
4633   4   1   -18.585000   -31.604000  3.41000
4634   4   1   -17.238000   -29.444000  3.393000
4635   4   1   -14.711000   -30.951000  2.88000
4636   4   1   -19.85000   -30.866000  2.862000
4637   4   1   -21.183000   -31.515000  3.359000
4638   4   1   -22.405000   -30.734000  2.769000
4639   4   1   -22.518000   -33.677000  2.699000
4640   4   1   -21.231000   -33.092000  3.36000
4641   4   1   -22.535000   -35.254000  2.591000
4642   4   1   -23.85000   -35.846000  3.248000
4643   4   1   -21.292000   -35.899000  3.329000
4644   4   1   -16.02000   -33.239000  3.466000
4645   4   1   -16.114000   -36.046000  3.465000
4646   4   1   -18.626000   -33.174000  3.419000
4647   4   1   -18.703000   -35.97000  3.407000
4648   4   1   -14.801000   -35.48000  2.788000
4649   4   1   -14.738000   -33.901000  2.872000
4650   4   1   -17.329000   -33.811000  2.833000
4651   4   1   -17.376000   -35.411000  2.742000
4652   4   1   -19.929000   -33.735000  2.776000
4653   4   1   -19.961000   -35.335000  2.677000
4654   4   1   -22.683000   -38.145000  2.745000
4655   4   1   -23.955000   -37.414000  3.265000
4656   4   1   -21.362000   -37.488000  3.357000
4657   4   1   -16.137000   -37.637000  3.504000
4658   4   1   -18.749000   -37.554000  3.44000
4659   4   1   -14.832000   -38.376000  2.974000
4660   4   1   -17.449000   -38.285000  2.922000
4661   4   1   -20.063000   -38.208000  2.846000
4662   4   1   -19.836000   -29.362000  4.934000
4663   4   1   -18.533000   -28.652000  5.443000
4664   4   1   -21.104000   -28.568000  5.416000
4665   4   1   -14.7000   -29.481000  5.0000
4666   4   1   -15.961000   -28.703000  5.48000
4667   4   1   -21.208000   -31.508000  4.908000
4668   4   1   -22.44000   -30.72000  5.469000
4669   4   1   -22.393000   -29.275000  4.899000
4670   4   1   -17.306000   -30.918000  5.485000
4671   4   1   -18.61000   -31.592000  4.946000
4672   4   1   -16.011000   -31.646000  4.995000
4673   4   1   -17.259000   -29.431000  4.968000
4674   4   1   -19.89000   -30.852000  5.444000
4675   4   1   -14.749000   -30.923000  5.581000
4676   4   1   -21.266000   -33.084000  4.905000
4677   4   1   -21.338000   -35.886000  4.947000
4678   4   1   -23.903000   -35.839000  4.842000
4679   4   1   -18.657000   -33.162000  4.958000
4680   4   1   -18.741000   -35.953000  5.021000
4681   4   1   -16.049000   -33.223000  5.011000
4682   4   1   -16.146000   -36.026000  5.083000
4683   4   1   -20.04000   -35.31000  5.669000
4684   4   1   -22.629000   -35.238000  5.594000
4685   4   1   -19.991000   -33.715000  5.553000
4686   4   1   -22.589000   -33.66000  5.499000
4687   4   1   -17.384000   -33.781000  5.608000
4688   4   1   -17.443000   -35.376000  5.735000
4689   4   1   -14.791000   -33.867000  5.671000
4690   4   1   -14.856000   -35.442000  5.793000
4691   4   1   -24.002000   -37.409000  4.828000
4692   4   1   -21.403000   -37.477000  4.935000
4693   4   1   -18.785000   -37.538000  5.016000
4694   4   1   -16.168000   -37.617000  5.083000
4695   4   1   -20.128000   -38.183000  5.545000
4696   4   1   -22.757000   -38.131000  5.456000
4697   4   1   -17.505000   -38.251000  5.622000
4698   4   1   -14.879000   -38.338000  5.686000
4699   4   1   -21.22000   -36.296000  0.521000
4700   4   1   -23.771000   -36.098000  0.439000
4701   4   1   -18.643000   -36.408000  0.6000
4702   4   1   -16.064000   -36.462000  0.66000
4703   4   1   -19.919000   -35.677000  1.106000
4704   4   1   -22.474000   -35.532000  1.03000
4705   4   1   -17.352000   -35.759000  1.172000
4706   4   1   -14.795000   -35.773000  1.23000
4707   4   1   -23.911000   -37.643000  0.514000
4708   4   1   -21.312000   -37.842000  0.606000
4709   4   1   -18.694000   -37.95000  0.691000
4710   4   1   -16.075000   -38.009000  0.755000
4711   4   1   -20.042000   -38.449000  1.307000
4712   4   1   -22.678000   -38.328000  1.208000
4713   4   1   -17.414000   -38.531000  1.385000
4714   4   1   -14.779000   -38.576000  1.44000
4715   4   1   -25.378000   -37.777000  2.633000
4716   4   1   -25.464000   -37.778000  5.34000
4717   4   1   -25.195000   -35.418000  2.571000
4718   4   1   -25.299000   -35.416000  5.408000
4719   4   1   -26.133000   -36.52000  3.152000
4720   4   1   -26.194000   -36.521000  4.747000
4721   4   1   -17.347000   -38.772000  -1.397000
4722   4   1   -16.037000   -38.131000  -0.809000
4723   4   1   -18.657000   -38.078000  -0.867000
4724   4   1   -14.707000   -38.786000  -1.355000
4725   4   1   -19.98000   -38.681000  -1.474000
4726   4   1   -21.277000   -37.955000  -0.959000
4727   4   1   -23.872000   -37.739000  -1.042000
4728   4   1   -22.621000   -38.514000  -1.587000
4729   4   1   -23.72000   -36.187000  -1.12000
4730   4   1   -21.177000   -36.397000  -1.053000
4731   4   1   -22.393000   -35.733000  -1.771000
4732   4   1   -17.292000   -36.008000  -1.62000
4733   4   1   -18.604000   -36.525000  -0.97000
4734   4   1   -16.03000   -36.571000  -0.914000
4735   4   1   -19.842000   -35.92000  -1.687000
4736   4   1   -14.737000   -35.996000  -1.57000
4737   4   1   -22.674000   -35.509000  7.155000
4738   4   1   -24.013000   -36.082000  7.649000
4739   4   1   -21.435000   -36.243000  7.757000
4740   4   1   -16.215000   -36.363000  7.898000
4741   4   1   -18.825000   -36.325000  7.835000
4742   4   1   -14.911000   -35.694000  7.357000
4743   4   1   -17.496000   -35.685000  7.312000
4744   4   1   -20.092000   -35.624000  7.245000
4745   4   1   -22.833000   -38.296000  6.994000
4746   4   1   -24.125000   -37.627000  7.579000
4747   4   1   -21.506000   -37.787000  7.691000
4748   4   1   -16.216000   -37.91000  7.843000
4749   4   1   -18.861000   -37.867000  7.776000
4750   4   1   -14.882000   -38.489000  7.228000
4751   4   1   -17.535000   -38.452000  7.168000
4752   4   1   -20.181000   -38.389000  7.09000
4753   4   1   -24.196000   -37.708000  9.135000
4754   4   1   -21.565000   -37.874000  9.258000
4755   4   1   -22.957000   -38.443000  9.791000
4756   4   1   -17.595000   -38.615000  9.955000
4757   4   1   -18.904000   -37.957000  9.337000
4758   4   1   -16.242000   -37.988000  9.411000
4759   4   1   -20.273000   -38.56000  9.876000
4760   4   1   -14.908000   -38.614000  10.028000
4761   4   1   -17.569000   -35.858000  10.104000
4762   4   1   -16.246000   -36.425000  9.474000
4763   4   1   -18.87000   -36.401000  9.408000
4764   4   1   -14.953000   -35.834000  10.157000
4765   4   1   -20.181000   -35.804000  10.035000
4766   4   1   -21.492000   -36.313000  9.333000
4767   4   1   -24.08000   -36.153000  9.209000
4768   4   1   -22.791000   -35.669000  9.951000
4769   4   1   -25.544000   -37.866000  6.898000
4770   4   1   -25.335000   -35.509000  7.0000
4771   4   1   -25.673000   -38.027000  9.611000
4772   4   1   -25.456000   -35.645000  9.733000
4773   4   1   -26.301000   -36.633000  7.497000
4774   4   1   -26.37000   -36.725000  9.083000
4775   4   1   -25.122000   -35.501000  0.98000
4776   4   1   -25.372000   -37.858000  1.073000
4777   4   1   -25.019000   -35.648000  -1.761000
4778   4   1   -25.301000   -38.029000  -1.644000
4779   4   1   -26.057000   -36.61000  0.399000
4780   4   1   -25.991000   -36.704000  -1.189000
4781   4   1   -17.163000   -26.514000  2.806000
4782   4   1   -15.924000   -27.247000  3.394000
4783   4   1   -18.467000   -27.175000  3.354000
4784   4   1   -19.722000   -26.442000  2.779000
4785   4   1   -21.011000   -27.107000  3.337000
4786   4   1   -21.029000   -27.097000  4.902000
4787   4   1   -17.194000   -26.489000  5.505000
4788   4   1   -18.486000   -27.163000  4.941000
4789   4   1   -15.942000   -27.232000  4.959000
4790   4   1   -19.752000   -26.423000  5.478000
4791   4   1   -13.585000   -36.12000  5.117000
4792   4   1   -13.571000   -37.693000  5.123000
4793   4   1   -13.559000   -36.141000  3.522000
4794   4   1   -13.548000   -37.714000  3.56000
4795   4   1   -13.629000   -36.327000  7.929000
4796   4   1   -13.589000   -37.876000  7.879000
4797   4   1   -12.16000   -38.132000  5.722000
4798   4   1   -12.126000   -38.171000  3.012000
4799   4   1   -12.201000   -35.764000  5.754000
4800   4   1   -12.16000   -35.804000  2.913000
4801   4   1   -11.342000   -36.927000  5.156000
4802   4   1   -11.326000   -36.951000  3.56000
4803   4   1   -13.602000   -37.943000  9.438000
4804   4   1   -13.65000   -36.384000  9.491000
4805   4   1   -13.511000   -36.428000  0.715000
4806   4   1   -13.478000   -37.978000  0.811000
4807   4   1   -13.443000   -38.091000  -0.744000
4808   4   1   -13.484000   -36.532000  -0.844000
4809   4   1   -12.069000   -38.281000  1.455000
4810   4   1   -12.158000   -35.912000  1.322000
4811   4   1   -12.016000   -38.489000  -1.262000
4812   4   1   -12.121000   -36.093000  -1.42000
4813   4   1   -11.281000   -37.093000  0.807000
4814   4   1   -11.271000   -37.209000  -0.779000
4815   4   1   -12.248000   -35.83000  7.347000
4816   4   1   -12.151000   -38.194000  7.283000
4817   4   1   -12.282000   -35.931000  10.084000
4818   4   1   -12.166000   -38.321000  10.001000
4819   4   1   -11.364000   -36.99000  7.91000
4820   4   1   -11.381000   -37.059000  9.5000
4821   4   1   -28.84000   -37.281000  5.177000
4822   4   1   -28.738000   -37.258000  2.4000
4823   4   1   -27.759000   -36.27000  4.643000
4824   4   1   -27.694000   -36.262000  3.078000
4825   4   1   -28.694000   -37.27000  0.83000
4826   4   1   -28.563000   -37.372000  -1.928000
4827   4   1   -27.602000   -36.303000  0.263000
4828   4   1   -27.518000   -36.381000  -1.299000
4829   4   1   -28.9000   -37.322000  6.747000
4830   4   1   -29.02000   -37.471000  9.504000
4831   4   1   -27.861000   -36.355000  7.457000
4832   4   1   -27.924000   -36.448000  9.023000
4833   4   1   -35.369000   -36.892000  2.643000
4834   4   1   -32.773000   -37.043000  2.777000
4835   4   1   -31.408000   -37.635000  2.246000
4836   4   1   -34.091000   -37.643000  2.101000
4837   4   1   -35.415000   -36.908000  4.223000
4838   4   1   -32.826000   -37.063000  4.356000
4839   4   1   -34.182000   -37.678000  4.875000
4840   4   1   -31.506000   -37.67000  5.019000
4841   4   1   -35.278000   -36.892000  -0.14000
4842   4   1   -32.672000   -37.038000  -0.004000
4843   4   1   -34.036000   -37.637000  0.529000
4844   4   1   -31.355000   -37.634000  0.674000
4845   4   1   -36.766000   -37.295000  1.976000
4846   4   1   -36.844000   -37.324000  4.754000
4847   4   1   -37.87000   -36.322000  2.542000
4848   4   1   -37.912000   -36.34000  4.108000
4849   4   1   -33.922000   -37.694000  -2.228000
4850   4   1   -32.604000   -37.084000  -1.58000
4851   4   1   -31.232000   -37.695000  -2.082000
4852   4   1   -35.224000   -36.947000  -1.717000
4853   4   1   -35.496000   -36.978000  7.007000
4854   4   1   -32.925000   -37.135000  7.137000
4855   4   1   -31.562000   -37.71000  6.59000
4856   4   1   -34.231000   -37.72000  6.446000
4857   4   1   -35.559000   -37.061000  8.583000
4858   4   1   -34.345000   -37.846000  9.202000
4859   4   1   -32.991000   -37.218000  8.711000
4860   4   1   -31.684000   -37.84000  9.346000
4861   4   1   -36.875000   -37.366000  6.324000
4862   4   1   -36.976000   -37.504000  9.088000
4863   4   1   -37.963000   -36.418000  6.921000
4864   4   1   -38.02000   -36.512000  8.483000
4865   4   1   -36.714000   -37.299000  0.404000
4866   4   1   -36.619000   -37.389000  -2.354000
4867   4   1   -37.8000   -36.355000  -0.272000
4868   4   1   -37.758000   -36.42000  -1.839000
4869   4   1   -30.237000   -36.889000  4.504000
4870   4   1   -30.18000   -36.873000  2.924000
4871   4   1   -30.345000   -36.961000  7.286000
4872   4   1   -30.409000   -37.052000  8.861000
4873   4   1   -30.079000   -36.88000  0.14000
4874   4   1   -30.001000   -36.938000  -1.437000
4875   4   1   13.053000   -29.577000  2.812000
4876   4   1   11.771000   -28.845000  2.314000
4877   4   1   7.914000   -29.549000  2.945000
4878   4   1   6.624000   -28.799000  2.451000
4879   4   1   9.197000   -28.839000  2.387000
4880   4   1   5.356000   -29.507000  3.017000
4881   4   1   10.47000   -31.08000  2.427000
4882   4   1   11.784000   -31.762000  2.932000
4883   4   1   9.184000   -31.753000  3.009000
4884   4   1   10.493000   -29.572000  2.877000
4885   4   1   13.025000   -31.044000  2.297000
4886   4   1   7.883000   -31.058000  2.497000
4887   4   1   6.584000   -31.717000  3.073000
4888   4   1   5.328000   -30.975000  2.504000
4889   4   1   5.246000   -33.923000  2.56000
4890   4   1   6.558000   -33.294000  3.128000
4891   4   1   5.253000   -35.505000  2.497000
4892   4   1   3.998000   -36.124000  3.254000
4893   4   1   6.555000   -36.1000  3.169000
4894   4   1   11.778000   -33.337000  2.985000
4895   4   1   11.728000   -36.14000  3.024000
4896   4   1   9.169000   -33.321000  3.059000
4897   4   1   9.143000   -36.111000  3.099000
4898   4   1   12.998000   -35.564000  2.279000
4899   4   1   13.044000   -33.986000  2.343000
4900   4   1   10.449000   -33.94000  2.423000
4901   4   1   10.422000   -35.538000  2.357000
4902   4   1   7.843000   -33.92000  2.495000
4903   4   1   7.834000   -35.518000  2.429000
4904   4   1   5.208000   -38.4000  2.721000
4905   4   1   3.951000   -37.697000  3.313000
4906   4   1   6.531000   -37.69000  3.233000
4907   4   1   11.731000   -37.73000  3.086000
4908   4   1   9.132000   -37.695000  3.16000
4909   4   1   13.012000   -38.459000  2.499000
4910   4   1   10.411000   -38.408000  2.579000
4911   4   1   7.812000   -38.388000  2.652000
4912   4   1   7.957000   -29.494000  4.519000
4913   4   1   9.266000   -28.747000  4.954000
4914   4   1   6.694000   -28.707000  5.027000
4915   4   1   13.095000   -29.524000  4.38000
4916   4   1   11.839000   -28.754000  4.891000
4917   4   1   6.626000   -31.666000  4.621000
4918   4   1   5.402000   -30.882000  5.202000
4919   4   1   5.399000   -29.453000  4.584000
4920   4   1   10.539000   -30.992000  5.006000
4921   4   1   9.226000   -31.703000  4.544000
4922   4   1   11.826000   -31.712000  4.48000
4923   4   1   10.535000   -29.517000  4.451000
4924   4   1   7.953000   -30.969000  5.076000
4925   4   1   13.096000   -30.953000  4.995000
4926   4   1   6.601000   -33.246000  4.673000
4927   4   1   6.598000   -36.055000  4.789000
4928   4   1   4.039000   -36.081000  4.85000
4929   4   1   9.211000   -33.273000  4.596000
4930   4   1   9.187000   -36.066000  4.713000
4931   4   1   11.82000   -33.29000  4.528000
4932   4   1   11.774000   -36.096000  4.643000
4933   4   1   7.916000   -35.434000  5.422000
4934   4   1   5.333000   -35.422000  5.501000
4935   4   1   7.92000   -33.839000  5.268000
4936   4   1   5.326000   -33.842000  5.357000
4937   4   1   10.525000   -33.86000  5.196000
4938   4   1   10.506000   -35.455000  5.35000
4939   4   1   13.118000   -33.906000  5.14000
4940   4   1   13.084000   -35.482000  5.284000
4941   4   1   3.991000   -37.655000  4.875000
4942   4   1   6.574000   -37.648000  4.81000
4943   4   1   9.175000   -37.652000  4.736000
4944   4   1   11.775000   -37.688000  4.664000
4945   4   1   7.886000   -38.316000  5.353000
4946   4   1   5.28000   -38.328000  5.431000
4947   4   1   10.486000   -38.336000  5.28000
4948   4   1   13.09000   -38.388000  5.212000
4949   4   1   6.475000   -36.549000  0.37000
4950   4   1   3.916000   -36.447000  0.453000
4951   4   1   9.06000   -36.586000  0.298000
4952   4   1   11.644000   -36.586000  0.224000
4953   4   1   7.792000   -35.884000  0.864000
4954   4   1   5.226000   -35.82000  0.943000
4955   4   1   10.368000   -35.903000  0.792000
4956   4   1   12.932000   -35.874000  0.726000
4957   4   1   3.848000   -37.994000  0.566000
4958   4   1   6.44000   -38.094000  0.485000
4959   4   1   9.052000   -38.126000  0.412000
4960   4   1   11.665000   -38.131000  0.337000
4961   4   1   7.76000   -38.651000  1.116000
4962   4   1   5.138000   -38.616000  1.188000
4963   4   1   10.375000   -38.67000  1.042000
4964   4   1   12.995000   -38.672000  0.964000
4965   4   1   2.517000   -38.134000  2.79000
4966   4   1   2.586000   -38.065000  5.497000
4967   4   1   2.596000   -35.768000  2.661000
4968   4   1   2.669000   -35.695000  5.502000
4969   4   1   1.747000   -36.893000  3.338000
4970   4   1   1.787000   -36.853000  4.932000
4971   4   1   10.303000   -38.939000  -1.742000
4972   4   1   11.628000   -38.269000  -1.227000
4973   4   1   9.008000   -38.273000  -1.145000
4974   4   1   12.94000   -38.906000  -1.833000
4975   4   1   7.673000   -38.92000  -1.668000
4976   4   1   6.387000   -38.233000  -1.078000
4977   4   1   3.793000   -38.123000  -0.987000
4978   4   1   5.034000   -38.852000  -1.608000
4979   4   1   3.868000   -36.567000  -1.106000
4980   4   1   6.427000   -36.674000  -1.203000
4981   4   1   5.135000   -36.072000  -1.852000
4982   4   1   10.287000   -36.18000  -1.994000
4983   4   1   9.015000   -36.72000  -1.271000
4984   4   1   11.602000   -36.709000  -1.35000
4985   4   1   7.712000   -36.162000  -1.921000
4986   4   1   12.862000   -36.122000  -2.07000
4987   4   1   5.385000   -35.661000  7.069000
4988   4   1   4.101000   -36.264000  7.664000
4989   4   1   6.669000   -36.359000  7.607000
4990   4   1   11.851000   -36.397000  7.462000
4991   4   1   9.261000   -36.394000  7.535000
4992   4   1   13.111000   -35.716000  6.852000
4993   4   1   10.541000   -35.739000  6.932000
4994   4   1   7.959000   -35.72000  7.005000
4995   4   1   5.29000   -38.465000  6.973000
4996   4   1   4.029000   -37.814000  7.632000
4997   4   1   6.63000   -37.908000  7.574000
4998   4   1   11.866000   -37.946000  7.428000
4999   4   1   9.249000   -37.938000  7.501000
5000   4   1   13.161000   -38.522000  6.754000
5001   4   1   10.536000   -38.517000  6.827000
5002   4   1   7.918000   -38.497000  6.9000
5003   4   1   4.057000   -37.866000  9.19000
5004   4   1   6.664000   -37.968000  9.141000
5005   4   1   5.338000   -38.562000  9.775000
5006   4   1   10.622000   -38.643000  9.618000
5007   4   1   9.291000   -38.006000  9.063000
5008   4   1   11.919000   -38.004000  8.996000
5009   4   1   7.985000   -38.625000  9.69000
5010   4   1   13.268000   -38.614000  9.556000
5011   4   1   10.618000   -35.876000  9.729000
5012   4   1   11.899000   -36.44000  9.04000
5013   4   1   9.304000   -36.448000  9.109000
5014   4   1   13.202000   -35.824000  9.656000
5015   4   1   8.034000   -35.859000  9.801000
5016   4   1   6.707000   -36.405000  9.185000
5017   4   1   4.137000   -36.307000  9.227000
5018   4   1   5.447000   -35.774000  9.873000
5019   4   1   2.587000   -38.113000  7.058000
5020   4   1   2.726000   -35.746000  7.095000
5021   4   1   2.637000   -38.216000  9.779000
5022   4   1   2.795000   -35.823000  9.838000
5023   4   1   1.837000   -36.888000  7.689000
5024   4   1   1.88000   -36.944000  9.279000
5025   4   1   2.576000   -35.898000  1.072000
5026   4   1   2.444000   -38.262000  1.235000
5027   4   1   2.498000   -36.11000  -1.666000
5028   4   1   2.351000   -38.5000  -1.479000
5029   4   1   1.669000   -37.07000  0.586000
5030   4   1   1.629000   -37.203000  -0.997000
5031   4   1   10.494000   -26.659000  2.208000
5032   4   1   11.768000   -27.353000  2.767000
5033   4   1   9.223000   -27.328000  2.823000
5034   4   1   7.935000   -26.636000  2.275000
5035   4   1   6.68000   -27.307000  2.901000
5036   4   1   6.722000   -27.251000  4.465000
5037   4   1   10.566000   -26.561000  4.904000
5038   4   1   9.266000   -27.272000  4.408000
5039   4   1   11.809000   -27.298000  4.331000
5040   4   1   8.007000   -26.537000  4.971000
5041   4   1   14.326000   -36.159000  4.559000
5042   4   1   14.352000   -37.733000  4.583000
5043   4   1   14.28000   -36.202000  2.964000
5044   4   1   14.307000   -37.774000  3.02000
5045   4   1   14.414000   -36.334000  7.374000
5046   4   1   14.462000   -37.886000  7.341000
5047   4   1   15.781000   -38.16000  5.125000
5048   4   1   15.7000   -38.229000  2.415000
5049   4   1   15.733000   -35.789000  5.132000
5050   4   1   15.648000   -35.861000  2.292000
5051   4   1   16.559000   -36.959000  4.513000
5052   4   1   16.51000   -37.0000  2.919000
5053   4   1   14.52000   -37.935000  8.898000
5054   4   1   14.464000   -36.374000  8.937000
5055   4   1   14.202000   -36.517000  0.161000
5056   4   1   14.255000   -38.066000  0.27000
5057   4   1   14.221000   -38.193000  -1.284000
5058   4   1   14.161000   -36.635000  -1.398000
5059   4   1   15.688000   -38.354000  0.857000
5060   4   1   15.58000   -35.987000  0.704000
5061   4   1   15.627000   -38.587000  -1.858000
5062   4   1   15.5000   -36.194000  -2.035000
5063   4   1   16.439000   -37.17000  0.165000
5064   4   1   16.387000   -37.3000  -1.418000
5065   4   1   15.759000   -35.835000  6.726000
5066   4   1   15.861000   -38.206000  6.685000
5067   4   1   15.842000   -35.906000  9.471000
5068   4   1   15.962000   -38.303000  9.407000
5069   4   1   16.655000   -36.991000  7.271000
5070   4   1   16.7000   -37.042000  8.86000
5071   4   1   -0.764000   -37.733000  5.625000
5072   4   1   -0.813000   -37.817000  2.846000
5073   4   1   0.218000   -36.681000  4.961000
5074   4   1   0.181000   -36.723000  3.394000
5075   4   1   -0.847000   -37.898000  1.277000
5076   4   1   -0.892000   -38.111000  -1.486000
5077   4   1   0.112000   -36.868000  0.577000
5078   4   1   0.086000   -36.998000  -0.987000
5079   4   1   -0.747000   -37.714000  7.196000
5080   4   1   -0.678000   -37.768000  9.955000
5081   4   1   0.274000   -36.67000  7.779000
5082   4   1   0.328000   -36.719000  9.345000
5083   4   1   -7.337000   -37.544000  3.563000
5084   4   1   -4.783000   -37.754000  3.529000
5085   4   1   -3.444000   -38.351000  2.929000
5086   4   1   -6.123000   -38.375000  2.977000
5087   4   1   -7.334000   -37.498000  5.144000
5088   4   1   -4.768000   -37.697000  5.108000
5089   4   1   -6.1000   -38.276000  5.75000
5090   4   1   -3.411000   -38.246000  5.702000
5091   4   1   -7.342000   -37.679000  0.777000
5092   4   1   -4.813000   -37.91000  0.747000
5093   4   1   -6.136000   -38.46000  1.408000
5094   4   1   -3.465000   -38.439000  1.361000
5095   4   1   -8.767000   -37.877000  2.984000
5096   4   1   -8.765000   -37.811000  5.764000
5097   4   1   -9.758000   -36.793000  3.574000
5098   4   1   -9.767000   -36.763000  5.142000
5099   4   1   -6.171000   -38.669000  -1.348000
5100   4   1   -4.833000   -38.043000  -0.825000
5101   4   1   -3.505000   -38.655000  -1.395000
5102   4   1   -7.357000   -37.802000  -0.798000
5103   4   1   -7.323000   -37.456000  7.93000
5104   4   1   -4.739000   -37.634000  7.893000
5105   4   1   -3.394000   -38.21000  7.272000
5106   4   1   -6.086000   -38.241000  7.32000
5107   4   1   -7.323000   -37.497000  9.509000
5108   4   1   -6.057000   -38.265000  10.078000
5109   4   1   -4.718000   -37.66000  9.471000
5110   4   1   -3.347000   -38.23000  10.029000
5111   4   1   -8.756000   -37.8000  7.335000
5112   4   1   -8.756000   -37.874000  10.093000
5113   4   1   -9.791000   -36.778000  7.96000
5114   4   1   -9.811000   -36.84000  9.528000
5115   4   1   -8.761000   -37.946000  1.415000
5116   4   1   -8.783000   -38.133000  -1.35000
5117   4   1   -9.725000   -36.906000  0.758000
5118   4   1   -9.732000   -37.018000  -0.806000
5119   4   1   -2.208000   -37.445000  5.049000
5120   4   1   -2.234000   -37.498000  3.469000
5121   4   1   -2.166000   -37.394000  7.836000
5122   4   1   -2.127000   -37.428000  9.414000
5123   4   1   -2.283000   -37.645000  0.683000
5124   4   1   -2.306000   -37.778000  -0.891000
5125   4   1   26.998000   -38.169000  4.754000
5126   4   1   26.889000   -38.286000  1.973000
5127   4   1   27.995000   -37.167000  4.059000
5128   4   1   27.932000   -37.233000  2.494000
5129   4   1   26.819000   -38.377000  0.406000
5130   4   1   26.712000   -38.609000  -2.356000
5131   4   1   27.814000   -37.409000  -0.319000
5132   4   1   27.759000   -37.554000  -1.88000
5133   4   1   27.049000   -38.127000  6.324000
5134   4   1   27.166000   -38.128000  9.093000
5135   4   1   28.094000   -37.101000  6.877000
5136   4   1   28.167000   -37.116000  8.444000
5137   4   1   20.45000   -37.704000  2.813000
5138   4   1   22.971000   -38.037000  2.727000
5139   4   1   24.256000   -38.698000  2.102000
5140   4   1   21.597000   -38.594000  2.201000
5141   4   1   20.504000   -37.654000  4.393000
5142   4   1   23.028000   -37.979000  4.305000
5143   4   1   21.699000   -38.498000  4.975000
5144   4   1   24.363000   -38.587000  4.876000
5145   4   1   20.357000   -37.836000  0.027000
5146   4   1   22.866000   -38.184000  -0.054000
5147   4   1   21.539000   -38.672000  0.633000
5148   4   1   24.194000   -38.783000  0.534000
5149   4   1   18.999000   -37.98000  2.27000
5150   4   1   19.093000   -37.901000  5.052000
5151   4   1   18.074000   -36.86000  2.88000
5152   4   1   18.123000   -36.817000  4.447000
5153   4   1   21.429000   -38.876000  -2.121000
5154   4   1   22.804000   -38.314000  -1.625000
5155   4   1   24.084000   -38.998000  -2.219000
5156   4   1   20.293000   -37.961000  -1.546000
5157   4   1   20.603000   -37.609000  7.181000
5158   4   1   23.129000   -37.915000  7.091000
5159   4   1   24.421000   -38.546000  6.446000
5160   4   1   21.759000   -38.465000  6.545000
5161   4   1   20.648000   -37.638000  8.76000
5162   4   1   21.858000   -38.48000  9.306000
5163   4   1   23.186000   -37.93000  8.667000
5164   4   1   24.529000   -38.544000  9.207000
5165   4   1   19.155000   -37.883000  6.622000
5166   4   1   19.236000   -37.932000  9.389000
5167   4   1   18.214000   -36.805000  7.266000
5168   4   1   18.249000   -36.849000  8.834000
5169   4   1   18.953000   -38.053000  0.701000
5170   4   1   18.844000   -38.251000  -2.063000
5171   4   1   17.992000   -36.995000  0.063000
5172   4   1   17.927000   -37.119000  -1.5000
5173   4   1   25.567000   -37.83000  4.197000
5174   4   1   25.506000   -37.895000  2.617000
5175   4   1   25.667000   -37.755000  6.984000
5176   4   1   25.733000   -37.766000  8.563000
5177   4   1   25.394000   -38.05000  -0.166000
5178   4   1   25.335000   -38.188000  -1.739000
5179   4   2   -65.425000   -18.786000  1.665000
5180   4   2   -62.726000   -23.086000  1.604000
5181   4   2   -60.143000   -22.93000  1.664000
5182   4   2   -61.271000   -25.125000  1.501000
5183   4   2   -62.961000   -18.601000  1.778000
5184   4   2   -61.578000   -20.782000  1.723000
5185   4   2   -64.127000   -20.938000  1.659000
5186   4   2   -69.696000   -27.748000  2.768000
5187   4   2   -68.25000   -29.954000  2.675000
5188   4   2   -71.138000   -25.54000  2.838000
5189   4   2   -72.577000   -23.274000  2.883000
5190   4   2   -64.728000   -24.439000  1.519000
5191   4   2   -63.221000   -26.643000  1.47000
5192   4   2   -67.538000   -20.033000  1.643000
5193   4   2   -66.136000   -22.286000  1.575000
5194   4   2   -69.941000   -28.056000  6.82000
5195   4   2   -68.398000   -30.288000  6.785000
5196   4   2   -71.41000   -25.787000  6.896000
5197   4   2   -72.814000   -23.407000  7.014000
5198   4   2   -67.335000   -23.312000  7.518000
5199   4   2   -68.564000   -21.188000  7.546000
5200   4   2   -64.529000   -27.451000  7.373000
5201   4   2   -63.254000   -26.832000  6.185000
5202   4   2   -65.975000   -25.41000  7.459000
5203   4   2   -64.776000   -24.607000  6.28000
5204   4   2   -66.232000   -32.367000  4.576000
5205   4   2   -66.227000   -32.293000  2.615000
5206   4   2   -62.761000   -29.833000  4.802000
5207   4   2   -62.753000   -29.757000  2.601000
5208   4   2   -72.966000   -23.521000  9.385000
5209   4   2   -68.515000   -30.484000  9.171000
5210   4   2   -71.584000   -25.946000  9.278000
5211   4   2   -70.096000   -28.251000  9.209000
5212   4   2   -68.598000   -21.245000  9.809000
5213   4   2   -66.026000   -25.515000  9.693000
5214   4   2   -64.543000   -27.562000  9.61000
5215   4   2   -67.386000   -23.416000  9.761000
5216   4   2   -68.369000   -30.06000  0.557000
5217   4   2   -72.779000   -23.253000  0.766000
5218   4   2   -71.367000   -25.603000  0.74000
5219   4   2   -69.899000   -27.848000  0.671000
5220   4   2   -64.48000   -27.191000  0.214000
5221   4   2   -68.544000   -20.952000  0.39000
5222   4   2   -67.293000   -23.061000  0.32000
5223   4   2   -65.924000   -25.149000  0.262000
5224   4   2   -72.914000   -23.244000  -1.606000
5225   4   2   -70.031000   -27.884000  -1.722000
5226   4   2   -68.47000   -30.085000  -1.832000
5227   4   2   -71.517000   -25.62000  -1.644000
5228   4   2   -68.571000   -20.881000  -1.874000
5229   4   2   -64.485000   -27.143000  -2.03000
5230   4   2   -67.333000   -23.027000  -1.929000
5231   4   2   -65.964000   -25.106000  -1.979000
5232   4   2   -66.243000   -32.33000  0.372000
5233   4   2   -62.864000   -29.643000  0.298000
5234   4   2   -65.839000   -31.453000  -3.114000
5235   4   2   -66.325000   -32.339000  -1.683000
5236   4   2   -62.928000   -29.621000  -1.77000
5237   4   2   -63.945000   -29.941000  -3.159000
5238   4   2   -62.895000   -29.884000  7.105000
5239   4   2   -66.256000   -32.571000  6.811000
5240   4   2   -63.984000   -30.448000  10.518000
5241   4   2   -62.966000   -30.011000  9.165000
5242   4   2   -65.864000   -31.961000  10.352000
5243   4   2   -66.345000   -32.737000  8.86000
5244   4   2   -59.19000   -24.909000  2.844000
5245   4   2   -62.944000   -27.541000  4.73000
5246   4   2   -61.201000   -26.362000  5.014000
5247   4   2   -61.17000   -26.282000  2.795000
5248   4   2   -59.227000   -24.988000  5.15000
5249   4   2   -62.923000   -27.475000  2.862000
5250   4   2   -68.157000   -19.553000  4.936000
5251   4   2   -64.362000   -16.982000  3.044000
5252   4   2   -66.417000   -18.293000  3.0000
5253   4   2   -68.135000   -19.483000  3.076000
5254   4   2   -64.398000   -17.069000  5.345000
5255   4   2   -66.451000   -18.372000  5.21000
5256   4   2   -60.572000   -18.709000  6.643000
5257   4   2   -59.164000   -20.866000  6.585000
5258   4   2   -59.091000   -20.69000  1.708000
5259   4   2   -60.486000   -18.522000  1.769000
5260   4   2   -58.093000   -22.684000  5.246000
5261   4   2   -58.061000   -22.602000  2.944000
5262   4   2   -61.827000   -16.948000  5.399000
5263   4   2   -61.787000   -16.859000  3.103000
5264   4   2   -58.187000   -20.138000  3.081000
5265   4   2   -59.582000   -17.981000  3.144000
5266   4   2   -58.218000   -20.217000  5.286000
5267   4   2   -59.618000   -18.061000  5.352000
5268   4   2   -73.817000   -20.34000  2.983000
5269   4   2   -73.822000   -20.374000  4.962000
5270   4   2   -69.977000   -18.422000  2.921000
5271   4   2   -69.972000   -18.486000  5.128000
5272   4   2   -73.92000   -20.388000  7.208000
5273   4   2   -69.963000   -18.691000  7.422000
5274   4   2   -73.075000   -20.472000  10.719000
5275   4   2   -74.034000   -20.469000  9.257000
5276   4   2   -70.025000   -18.785000  9.5000
5277   4   2   -70.858000   -19.531000  10.844000
5278   4   2   -69.98000   -18.494000  0.619000
5279   4   2   -73.916000   -20.258000  0.736000
5280   4   2   -70.862000   -19.177000  -2.847000
5281   4   2   -70.053000   -18.474000  -1.462000
5282   4   2   -73.063000   -20.168000  -2.775000
5283   4   2   -74.023000   -20.256000  -1.315000
5284   4   2   -67.149000   -26.31000  10.74000
5285   4   2   -69.805000   -21.9000  10.868000
5286   4   2   -65.619000   -28.409000  10.673000
5287   4   2   -68.548000   -24.158000  10.806000
5288   4   2   -71.948000   -23.021000  10.697000
5289   4   2   -69.158000   -27.653000  10.537000
5290   4   2   -67.577000   -29.838000  10.482000
5291   4   2   -70.618000   -25.4000  10.607000
5292   4   2   -69.086000   -27.191000  -2.999000
5293   4   2   -71.898000   -22.655000  -2.883000
5294   4   2   -67.524000   -29.345000  -3.089000
5295   4   2   -70.547000   -24.982000  -2.93000
5296   4   2   -69.76000   -21.497000  -2.981000
5297   4   2   -67.072000   -25.831000  -3.095000
5298   4   2   -65.555000   -27.905000  -3.164000
5299   4   2   -68.477000   -23.712000  -3.035000
5300   4   2   -75.456000   -11.233000  5.193000
5301   4   2   -75.585000   -14.28000  5.183000
5302   4   2   -75.628000   -14.265000  3.031000
5303   4   2   -75.492000   -11.211000  3.042000
5304   4   2   -75.55000   -14.292000  7.389000
5305   4   2   -75.432000   -11.26000  7.398000
5306   4   2   -74.65000   -17.301000  5.118000
5307   4   2   -74.671000   -17.28000  2.992000
5308   4   2   -75.493000   -11.269000  9.611000
5309   4   2   -75.605000   -14.312000  9.599000
5310   4   2   -75.54000   -11.188000  0.834000
5311   4   2   -75.683000   -14.253000  0.821000
5312   4   2   -75.662000   -11.16000  -1.378000
5313   4   2   -75.809000   -14.246000  -1.387000
5314   4   2   -74.708000   -17.266000  0.766000
5315   4   2   -73.917000   -16.728000  -2.782000
5316   4   2   -74.829000   -17.284000  -1.395000
5317   4   2   -74.657000   -17.302000  7.341000
5318   4   2   -73.787000   -16.88000  10.876000
5319   4   2   -74.75000   -17.359000  9.5000
5320   4   2   -74.361000   -8.317000  3.028000
5321   4   2   -74.356000   -8.327000  5.158000
5322   4   2   -74.383000   -8.354000  7.374000
5323   4   2   -73.543000   -8.848000  10.912000
5324   4   2   -74.49000   -8.321000  9.542000
5325   4   2   -74.388000   -8.304000  0.809000
5326   4   2   -73.593000   -8.839000  -2.741000
5327   4   2   -74.498000   -8.257000  -1.364000
5328   4   2   -72.956000   -12.848000  3.0000
5329   4   2   -71.453000   -8.769000  -1.511000
5330   4   2   -72.564000   -10.711000  0.718000
5331   4   2   -72.914000   -12.859000  5.124000
5332   4   2   -72.638000   -15.049000  7.413000
5333   4   2   -71.355000   -8.823000  0.765000
5334   4   2   -73.015000   -12.833000  0.714000
5335   4   2   -71.426000   -8.65000  9.678000
5336   4   2   63.086000   -11.843000  5.183000
5337   4   2   -72.467000   -10.7000  7.434000
5338   4   2   -71.682000   -17.104000  9.626000
5339   4   2   -72.915000   -12.883000  9.557000
5340   4   2   -73.126000   -12.821000  -1.422000
5341   4   2   -72.876000   -14.964000  -1.433000
5342   4   2   63.003000   -11.835000  0.766000
5343   4   2   -71.61000   -16.905000  5.148000
5344   4   2   -71.631000   -16.858000  2.925000
5345   4   2   -72.71000   -14.983000  2.996000
5346   4   2   -72.668000   -10.679000  -1.414000
5347   4   2   -71.333000   -8.746000  7.411000
5348   4   2   61.767000   -17.717000  5.169000
5349   4   2   -71.329000   -8.819000  2.969000
5350   4   2   -72.875000   -12.875000  7.409000
5351   4   2   -72.765000   -14.957000  0.689000
5352   4   2   -72.518000   -10.713000  3.017000
5353   4   2   -72.689000   -15.116000  9.543000
5354   4   2   61.705000   -17.872000  -1.475000
5355   4   2   -71.777000   -16.853000  -1.558000
5356   4   2   -71.321000   -8.797000  5.2000
5357   4   2   -72.524000   -10.65000  9.573000
5358   4   2   -74.471000   -14.204000  10.916000
5359   4   2   -74.371000   -11.47000  10.927000
5360   4   2   62.951000   -16.012000  0.788000
5361   4   2   -74.593000   -11.385000  -2.738000
5362   4   2   -51.054000   -31.656000  5.836000
5363   4   2   -47.421000   -29.267000  5.822000
5364   4   2   -43.484000   -31.121000  5.742000
5365   4   2   -44.843000   -29.064000  5.784000
5366   4   2   -50.001000   -29.412000  5.867000
5367   4   2   -48.547000   -31.57000  5.748000
5368   4   2   -45.985000   -31.389000  5.719000
5369   4   2   -42.733000   -39.448000  4.132000
5370   4   2   -50.621000   -39.995000  4.074000
5371   4   2   -47.977000   -39.811000  4.052000
5372   4   2   -45.362000   -39.625000  4.071000
5373   4   2   -51.064000   -34.091000  5.635000
5374   4   2   -48.373000   -33.949000  5.647000
5375   4   2   -51.126000   -31.442000  0.967000
5376   4   2   -46.056000   -31.217000  0.955000
5377   4   2   -44.944000   -28.878000  1.021000
5378   4   2   -43.585000   -30.954000  0.859000
5379   4   2   -50.084000   -29.195000  1.112000
5380   4   2   -47.512000   -29.066000  1.073000
5381   4   2   -48.613000   -31.372000  0.987000
5382   4   2   -45.362000   -39.567000  2.1000
5383   4   2   -42.732000   -39.399000  2.13000
5384   4   2   -47.979000   -39.746000  2.078000
5385   4   2   -50.623000   -39.925000  2.06000
5386   4   2   -45.821000   -33.618000  0.876000
5387   4   2   -43.151000   -33.4000  0.884000
5388   4   2   -51.079000   -33.921000  0.921000
5389   4   2   -48.408000   -33.782000  0.889000
5390   4   2   -45.32000   -39.961000  6.155000
5391   4   2   -42.649000   -39.703000  6.236000
5392   4   2   -47.978000   -40.157000  6.137000
5393   4   2   -50.685000   -40.277000  6.183000
5394   4   2   -48.238000   -35.394000  6.817000
5395   4   2   -50.703000   -35.478000  6.807000
5396   4   2   -43.253000   -34.928000  6.807000
5397   4   2   -43.098000   -33.513000  5.602000
5398   4   2   -45.742000   -35.205000  6.816000
5399   4   2   -45.788000   -33.76000  5.634000
5400   4   2   -39.709000   -38.855000  4.189000
5401   4   2   -39.701000   -38.832000  2.234000
5402   4   2   -40.172000   -34.583000  4.379000
5403   4   2   -40.126000   -34.541000  2.174000
5404   4   2   -50.696000   -40.509000  8.557000
5405   4   2   -42.626000   -39.913000  8.612000
5406   4   2   -47.978000   -40.416000  8.518000
5407   4   2   -45.299000   -40.211000  8.537000
5408   4   2   -50.715000   -35.578000  9.057000
5409   4   2   -45.755000   -35.324000  9.049000
5410   4   2   -43.262000   -35.014000  9.053000
5411   4   2   -48.233000   -35.519000  9.051000
5412   4   2   -42.63000   -39.556000  0.018000
5413   4   2   -50.699000   -40.05000  -0.063000
5414   4   2   -47.986000   -39.939000  -0.025000
5415   4   2   -45.32000   -39.77000  0.001000
5416   4   2   -43.117000   -34.77000  -0.353000
5417   4   2   -50.724000   -35.227000  -0.349000
5418   4   2   -48.214000   -35.146000  -0.379000
5419   4   2   -45.663000   -34.989000  -0.38000
5420   4   2   -50.728000   -40.117000  -2.451000
5421   4   2   -45.284000   -39.88000  -2.402000
5422   4   2   -42.571000   -39.652000  -2.376000
5423   4   2   -47.99000   -40.04000  -2.426000
5424   4   2   -50.75000   -35.171000  -2.601000
5425   4   2   -43.062000   -34.737000  -2.59000
5426   4   2   -48.2000   -35.123000  -2.618000
5427   4   2   -45.639000   -34.972000  -2.614000
5428   4   2   -39.58000   -38.886000  0.004000
5429   4   2   -40.154000   -34.614000  -0.129000
5430   4   2   -39.943000   -38.108000  -3.5000
5431   4   2   -39.526000   -38.985000  -2.049000
5432   4   2   -40.085000   -34.669000  -2.19000
5433   4   2   -40.259000   -35.719000  -3.573000
5434   4   2   -40.304000   -34.711000  6.68000
5435   4   2   -39.64000   -38.972000  6.421000
5436   4   2   -40.538000   -35.941000  10.092000
5437   4   2   -40.344000   -34.839000  8.744000
5438   4   2   -40.149000   -38.331000  9.939000
5439   4   2   -39.634000   -39.126000  8.466000
5440   4   2   -42.749000   -29.038000  2.195000
5441   4   2   -42.297000   -33.61000  4.163000
5442   4   2   -42.483000   -31.507000  4.372000
5443   4   2   -42.519000   -31.421000  2.15000
5444   4   2   -42.698000   -29.123000  4.502000
5445   4   2   -42.296000   -33.513000  2.292000
5446   4   2   -51.853000   -34.272000  4.202000
5447   4   2   -52.189000   -29.638000  2.355000
5448   4   2   -52.054000   -32.083000  2.284000
5449   4   2   -51.865000   -34.203000  2.337000
5450   4   2   -52.15000   -29.734000  4.653000
5451   4   2   -52.026000   -32.169000  4.493000
5452   4   2   -48.843000   -27.215000  6.005000
5453   4   2   -46.271000   -27.045000  5.954000
5454   4   2   -46.38000   -26.84000  1.081000
5455   4   2   -48.948000   -26.988000  1.136000
5456   4   2   -44.16000   -26.995000  4.618000
5457   4   2   -44.213000   -26.905000  2.315000
5458   4   2   -50.989000   -27.427000  4.75000
5459   4   2   -51.038000   -27.327000  2.455000
5460   4   2   -46.425000   -25.8000  2.467000
5461   4   2   -48.984000   -25.954000  2.524000
5462   4   2   -46.376000   -25.888000  4.671000
5463   4   2   -48.938000   -26.05000  4.73000
5464   4   2   -53.753000   -39.678000  2.117000
5465   4   2   -53.749000   -39.742000  4.089000
5466   4   2   -53.717000   -35.378000  2.146000
5467   4   2   -53.704000   -35.456000  4.351000
5468   4   2   -53.821000   -39.899000  6.334000
5469   4   2   -53.579000   -35.6000  6.65000
5470   4   2   -53.41000   -39.261000  9.872000
5471   4   2   -53.825000   -40.084000  8.382000
5472   4   2   -53.561000   -35.752000  8.722000
5473   4   2   -53.267000   -36.851000  10.055000
5474   4   2   -53.623000   -35.373000  -0.156000
5475   4   2   -53.842000   -39.679000  -0.13000
5476   4   2   -53.37000   -36.388000  -3.634000
5477   4   2   -53.64000   -35.382000  -2.23000
5478   4   2   -53.497000   -38.798000  -3.615000
5479   4   2   -53.871000   -39.728000  -2.182000
5480   4   2   -45.63000   -36.697000  10.097000
5481   4   2   -50.706000   -36.963000  10.106000
5482   4   2   -43.091000   -36.37000  10.125000
5483   4   2   -48.154000   -36.9000  10.093000
5484   4   2   -50.697000   -39.396000  9.89000
5485   4   2   -45.418000   -39.118000  9.879000
5486   4   2   -42.794000   -38.795000  9.933000
5487   4   2   -48.037000   -39.325000  9.864000
5488   4   2   -45.36000   -38.692000  -3.659000
5489   4   2   -50.746000   -38.905000  -3.692000
5490   4   2   -42.663000   -38.455000  -3.627000
5491   4   2   -48.038000   -38.847000  -3.68000
5492   4   2   -50.756000   -36.479000  -3.739000
5493   4   2   -45.535000   -36.281000  -3.736000
5494   4   2   -42.903000   -36.048000  -3.708000
5495   4   2   -48.14000   -36.43000  -3.746000
5496   4   2   -62.596000   -37.042000  4.459000
5497   4   2   -59.951000   -38.787000  4.343000
5498   4   2   -59.966000   -38.721000  2.198000
5499   4   2   -62.614000   -36.972000  2.314000
5500   4   2   -59.924000   -38.87000  6.563000
5501   4   2   -62.562000   -37.137000  6.675000
5502   4   2   -56.74000   -39.244000  4.251000
5503   4   2   -56.751000   -39.172000  2.126000
5504   4   2   -62.577000   -37.286000  8.878000
5505   4   2   -59.926000   -39.015000  8.763000
5506   4   2   -62.651000   -36.902000  0.097000
5507   4   2   -60.005000   -38.652000  -0.021000
5508   4   2   -62.73000   -36.889000  -2.102000
5509   4   2   -60.073000   -38.653000  -2.22000
5510   4   2   -56.805000   -39.119000  -0.102000
5511   4   2   -56.976000   -38.045000  -3.613000
5512   4   2   -56.849000   -39.157000  -2.267000
5513   4   2   -56.73000   -39.336000  6.48000
5514   4   2   -56.781000   -38.486000  10.059000
5515   4   2   -56.718000   -39.514000  8.64000
5516   4   2   -64.344000   -34.365000  2.441000
5517   4   2   -64.334000   -34.441000  4.574000
5518   4   2   -64.32000   -34.571000  6.788000
5519   4   2   -63.376000   -34.338000  10.344000
5520   4   2   -64.387000   -34.73000  8.972000
5521   4   2   -64.37000   -34.302000  0.223000
5522   4   2   -63.477000   -33.8000  -3.317000
5523   4   2   -64.472000   -34.282000  -1.961000
5524   4   2   -59.9000   -35.71000  2.331000
5525   4   2   -62.337000   -32.033000  -2.015000
5526   4   2   -61.373000   -34.167000  0.122000
5527   4   2   -59.874000   -35.781000  4.434000
5528   4   2   -57.961000   -36.609000  6.673000
5529   4   2   -62.215000   -32.09000  0.282000
5530   4   2   -59.925000   -35.647000  0.026000
5531   4   2   -62.33000   -32.427000  9.188000
5532   4   2   -61.334000   -34.3000  4.535000
5533   4   2   -61.324000   -34.381000  6.835000
5534   4   2   -55.786000   -36.571000  8.856000
5535   4   2   -59.853000   -35.988000  8.857000
5536   4   2   -59.99000   -35.63000  -2.096000
5537   4   2   -58.066000   -36.398000  -2.176000
5538   4   2   -55.898000   -36.169000  -0.062000
5539   4   2   -55.871000   -36.287000  4.381000
5540   4   2   -55.902000   -36.213000  2.144000
5541   4   2   -58.008000   -36.454000  2.26000
5542   4   2   -61.461000   -34.132000  -2.008000
5543   4   2   -62.222000   -32.306000  6.901000
5544   4   2   -55.851000   -36.383000  6.58000
5545   4   2   -62.193000   -32.144000  2.465000
5546   4   2   -59.853000   -35.86000  6.736000
5547   4   2   -58.028000   -36.387000  -0.063000
5548   4   2   -61.35000   -34.227000  2.425000
5549   4   2   -57.928000   -36.758000  8.782000
5550   4   2   -57.978000   -36.524000  4.353000
5551   4   2   -55.908000   -36.21000  -2.343000
5552   4   2   -62.188000   -32.227000  4.715000
5553   4   2   -61.372000   -34.498000  8.965000
5554   4   2   -59.484000   -38.035000  10.141000
5555   4   2   -61.772000   -36.544000  10.239000
5556   4   2   -59.696000   -37.578000  -3.545000
5557   4   2   -61.97000   -36.059000  -3.438000
5558   4   2   59.084000   3.481000  7.477000
5559   4   2   61.957000   -1.165000  7.372000
5560   4   2   63.237000   -3.588000  7.373000
5561   4   2   40.903000   -32.346000  0.048000
5562   4   2   37.24000   -30.011000  0.107000
5563   4   2   33.338000   -31.928000  0.317000
5564   4   2   34.666000   -29.841000  0.192000
5565   4   2   39.818000   -30.118000  0.007000
5566   4   2   38.395000   -32.296000  0.2000
5567   4   2   35.831000   -32.156000  0.293000
5568   4   2   32.773000   -40.231000  2.202000
5569   4   2   40.591000   -40.679000  1.89000
5570   4   2   37.973000   -40.514000  2.013000
5571   4   2   35.381000   -40.362000  2.116000
5572   4   2   40.955000   -34.779000  0.277000
5573   4   2   38.255000   -34.666000  0.345000
5574   4   2   41.094000   -32.053000  4.909000
5575   4   2   36.022000   -31.87000  5.046000
5576   4   2   34.855000   -29.547000  4.945000
5577   4   2   33.532000   -31.632000  5.188000
5578   4   2   40.009000   -29.818000  4.754000
5579   4   2   37.43000   -29.714000  4.847000
5580   4   2   38.583000   -32.01000  4.951000
5581   4   2   35.455000   -40.271000  4.084000
5582   4   2   32.852000   -40.139000  4.202000
5583   4   2   38.042000   -40.425000  3.983000
5584   4   2   40.657000   -40.594000  3.898000
5585   4   2   35.857000   -34.286000  5.191000
5586   4   2   33.188000   -34.096000  5.277000
5587   4   2   41.103000   -34.561000  4.989000
5588   4   2   38.438000   -34.436000  5.097000
5589   4   2   35.259000   -40.727000  0.039000
5590   4   2   32.596000   -40.531000  0.106000
5591   4   2   37.9000   -40.879000  -0.067000
5592   4   2   40.588000   -40.974000  -0.217000
5593   4   2   38.068000   -36.123000  -0.804000
5594   4   2   40.554000   -36.179000  -0.874000
5595   4   2   33.046000   -35.763000  -0.595000
5596   4   2   32.968000   -34.324000  0.57000
5597   4   2   35.552000   -35.979000  -0.709000
5598   4   2   35.663000   -34.52000  0.441000
5599   4   2   29.761000   -39.702000  2.326000
5600   4   2   29.84000   -39.615000  4.279000
5601   4   2   30.107000   -35.421000  1.999000
5602   4   2   30.191000   -35.324000  4.201000
5603   4   2   40.522000   -41.223000  -2.595000
5604   4   2   32.461000   -40.788000  -2.273000
5605   4   2   37.813000   -41.162000  -2.454000
5606   4   2   35.139000   -41.012000  -2.349000
5607   4   2   40.485000   -36.296000  -3.119000
5608   4   2   35.458000   -36.126000  -2.935000
5609   4   2   32.931000   -35.885000  -2.83000
5610   4   2   37.972000   -36.267000  -3.032000
5611   4   2   32.849000   -40.251000  6.322000
5612   4   2   40.801000   -40.717000  6.016000
5613   4   2   38.127000   -40.605000  6.085000
5614   4   2   35.499000   -40.447000  6.186000
5615   4   2   33.324000   -35.435000  6.56000
5616   4   2   40.857000   -35.878000  6.28000
5617   4   2   38.364000   -35.795000  6.387000
5618   4   2   35.84000   -35.644000  6.481000
5619   4   2   40.909000   -40.774000  8.402000
5620   4   2   35.569000   -40.523000  8.586000
5621   4   2   32.908000   -40.299000  8.713000
5622   4   2   38.222000   -40.685000  8.481000
5623   4   2   40.963000   -35.818000  8.528000
5624   4   2   33.394000   -35.367000  8.802000
5625   4   2   38.447000   -35.758000  8.624000
5626   4   2   35.927000   -35.603000  8.715000
5627   4   2   29.84000   -39.605000  6.519000
5628   4   2   30.365000   -35.319000  6.505000
5629   4   2   30.406000   -38.735000  9.979000
5630   4   2   29.898000   -39.643000  8.572000
5631   4   2   30.435000   -35.321000  8.573000
5632   4   2   30.706000   -36.333000  9.976000
5633   4   2   30.1000   -35.618000  -0.302000
5634   4   2   29.578000   -39.884000  0.1000
5635   4   2   30.155000   -36.926000  -3.686000
5636   4   2   30.006000   -35.796000  -2.357000
5637   4   2   29.856000   -39.316000  -3.457000
5638   4   2   29.467000   -40.098000  -1.939000
5639   4   2   32.642000   -29.755000  3.813000
5640   4   2   32.219000   -34.385000  2.038000
5641   4   2   32.366000   -32.286000  1.713000
5642   4   2   32.456000   -32.159000  3.93000
5643   4   2   32.551000   -29.893000  1.511000
5644   4   2   32.292000   -34.28000  3.905000
5645   4   2   41.784000   -34.942000  1.69000
5646   4   2   42.092000   -30.255000  3.467000
5647   4   2   41.999000   -32.7000  3.579000
5648   4   2   41.862000   -34.841000  3.555000
5649   4   2   42.001000   -30.39000  1.172000
5650   4   2   41.915000   -32.826000  1.373000
5651   4   2   38.635000   -27.937000  -0.144000
5652   4   2   36.064000   -27.803000  -0.049000
5653   4   2   36.26000   -27.499000  4.814000
5654   4   2   38.832000   -27.628000  4.717000
5655   4   2   33.98000   -27.748000  1.324000
5656   4   2   34.073000   -27.61000  3.62000
5657   4   2   40.807000   -28.102000  1.07000
5658   4   2   40.899000   -27.959000  3.362000
5659   4   2   36.268000   -26.487000  3.408000
5660   4   2   38.827000   -26.616000  3.313000
5661   4   2   36.179000   -26.619000  1.207000
5662   4   2   38.739000   -26.75000  1.11000
5663   4   2   43.753000   -40.359000  3.741000
5664   4   2   43.696000   -40.428000  1.776000
5665   4   2   43.747000   -36.057000  3.701000
5666   4   2   43.654000   -36.137000  1.496000
5667   4   2   43.701000   -40.591000  -0.468000
5668   4   2   43.451000   -36.296000  -0.799000
5669   4   2   43.193000   -39.969000  -3.992000
5670   4   2   43.65000   -40.786000  -2.513000
5671   4   2   43.367000   -36.456000  -2.868000
5672   4   2   43.038000   -37.563000  -4.184000
5673   4   2   43.737000   -36.051000  6.011000
5674   4   2   43.913000   -40.364000  5.985000
5675   4   2   43.573000   -37.06000  9.501000
5676   4   2   43.822000   -36.061000  8.083000
5677   4   2   43.673000   -39.476000  9.483000
5678   4   2   44.0000   -40.412000  8.038000
5679   4   2   35.319000   -37.514000  -3.958000
5680   4   2   40.454000   -37.686000  -4.158000
5681   4   2   32.742000   -37.266000  -3.862000
5682   4   2   37.877000   -37.658000  -4.057000
5683   4   2   40.47000   -40.11000  -3.928000
5684   4   2   35.166000   -39.925000  -3.699000
5685   4   2   32.521000   -39.681000  -3.612000
5686   4   2   37.8000   -40.073000  -3.803000
5687   4   2   35.707000   -39.321000  9.83000
5688   4   2   40.976000   -39.558000  9.642000
5689   4   2   33.071000   -39.081000  9.941000
5690   4   2   38.325000   -39.485000  9.729000
5691   4   2   40.997000   -37.12000  9.678000
5692   4   2   35.877000   -36.895000  9.866000
5693   4   2   33.301000   -36.653000  9.963000
5694   4   2   38.427000   -37.055000  9.771000
5695   4   2   52.516000   -37.813000  1.304000
5696   4   2   49.855000   -39.587000  1.416000
5697   4   2   49.926000   -39.553000  3.56000
5698   4   2   52.585000   -37.763000  3.45000
5699   4   2   49.788000   -39.627000  -0.806000
5700   4   2   52.437000   -37.884000  -0.915000
5701   4   2   46.619000   -39.982000  1.551000
5702   4   2   46.683000   -39.933000  3.675000
5703   4   2   52.413000   -38.005000  -3.114000
5704   4   2   49.751000   -39.738000  -3.003000
5705   4   2   52.664000   -37.713000  5.674000
5706   4   2   50.006000   -39.525000  5.788000
5707   4   2   52.774000   -37.714000  7.879000
5708   4   2   50.111000   -39.549000  7.993000
5709   4   2   46.764000   -39.902000  5.907000
5710   4   2   47.039000   -38.854000  9.429000
5711   4   2   46.843000   -39.953000  8.076000
5712   4   2   46.588000   -40.058000  -0.678000
5713   4   2   46.598000   -39.183000  -4.249000
5714   4   2   46.54000   -40.221000  -2.838000
5715   4   2   54.228000   -35.096000  3.361000
5716   4   2   54.192000   -35.167000  1.224000
5717   4   2   54.155000   -35.29000  -0.992000
5718   4   2   53.177000   -35.035000  -4.537000
5719   4   2   54.201000   -35.433000  -3.176000
5720   4   2   54.274000   -35.041000  5.582000
5721   4   2   53.371000   -34.608000  9.138000
5722   4   2   54.387000   -35.028000  7.776000
5723   4   2   49.855000   -36.551000  3.489000
5724   4   2   52.154000   -32.871000  7.859000
5725   4   2   51.288000   -35.02000  5.703000
5726   4   2   49.793000   -36.582000  1.391000
5727   4   2   47.838000   -37.347000  -0.855000
5728   4   2   52.031000   -32.909000  5.554000
5729   4   2   49.928000   -36.523000  5.796000
5730   4   2   52.115000   -33.15000  -3.352000
5731   4   2   51.201000   -35.092000  1.292000
5732   4   2   51.16000   -35.145000  -1.01000
5733   4   2   45.611000   -37.276000  -3.033000
5734   4   2   49.689000   -36.711000  -3.038000
5735   4   2   50.016000   -36.534000  7.906000
5736   4   2   48.153000   -37.26000  7.987000
5737   4   2   46.002000   -36.907000  5.879000
5738   4   2   45.833000   -37.0000  1.441000
5739   4   2   45.923000   -36.939000  3.686000
5740   4   2   47.997000   -37.259000  3.559000
5741   4   2   51.385000   -35.011000  7.83000
5742   4   2   52.013000   -33.061000  -1.058000
5743   4   2   45.732000   -37.093000  -0.756000
5744   4   2   52.002000   -32.945000  3.38000
5745   4   2   49.72000   -36.621000  -0.917000
5746   4   2   48.08000   -37.23000  5.884000
5747   4   2   51.239000   -35.054000  3.402000
5748   4   2   47.763000   -37.469000  -2.964000
5749   4   2   47.921000   -37.298000  1.47000
5750   4   2   46.058000   -36.955000  8.173000
5751   4   2   51.99000   -33.0000  1.123000
5752   4   2   51.189000   -35.225000  -3.142000
5753   4   2   49.302000   -38.729000  -4.358000
5754   4   2   51.59000   -37.245000  -4.455000
5755   4   2   49.753000   -38.488000  9.34000
5756   4   2   51.991000   -36.932000  9.235000
5757   4   2   -14.66000   6.231000  5.464000
5758   4   2   -18.461000   4.095000  5.562000
5759   4   2   -22.253000   6.23000  5.628000
5760   4   2   -21.047000   4.063000  5.623000
5761   4   2   -15.876000   4.061000  5.512000
5762   4   2   -17.172000   6.329000  5.458000
5763   4   2   -19.744000   6.326000  5.515000
5764   4   2   -22.45000   14.615000  3.954000
5765   4   2   -14.574000   14.649000  3.765000
5766   4   2   -17.201000   14.626000  3.81000
5767   4   2   -19.812000   14.617000  3.873000
5768   4   2   -14.46000   8.704000  5.295000
5769   4   2   -17.155000   8.737000  5.378000
5770   4   2   -14.769000   6.06000  0.593000
5771   4   2   -19.846000   6.16000  0.757000
5772   4   2   -21.147000   3.891000  0.868000
5773   4   2   -22.356000   6.06000  0.757000
5774   4   2   -15.979000   3.888000  0.758000
5775   4   2   -18.562000   3.923000  0.817000
5776   4   2   -17.275000   6.163000  0.702000
5777   4   2   -19.857000   14.562000  1.911000
5778   4   2   -22.493000   14.562000  1.954000
5779   4   2   -17.247000   14.57000  1.851000
5780   4   2   -14.619000   14.592000  1.772000
5781   4   2   -19.856000   8.59000  0.673000
5782   4   2   -22.536000   8.544000  0.75000
5783   4   2   -14.579000   8.564000  0.572000
5784   4   2   -17.262000   8.596000  0.616000
5785   4   2   -19.793000   14.953000  5.954000
5786   4   2   -22.487000   14.881000  6.059000
5787   4   2   -17.133000   14.964000  5.888000
5788   4   2   -14.446000   14.926000  5.861000
5789   4   2   -17.155000   10.193000  6.558000
5790   4   2   -14.637000   10.128000  6.481000
5791   4   2   -22.19000   10.088000  6.651000
5792   4   2   -22.449000   8.677000  5.47000
5793   4   2   -19.686000   10.181000  6.614000
5794   4   2   -19.753000   8.729000  5.435000
5795   4   2   -25.521000   14.193000  4.013000
5796   4   2   -25.562000   14.144000  2.055000
5797   4   2   -25.282000   9.903000  4.241000
5798   4   2   -25.334000   9.847000  2.034000
5799   4   2   -14.36000   15.157000  8.232000
5800   4   2   -22.466000   15.104000  8.431000
5801   4   2   -17.065000   15.224000  8.267000
5802   4   2   -19.755000   15.209000  8.332000
5803   4   2   -14.564000   10.232000  8.729000
5804   4   2   -19.63000   10.308000  8.855000
5805   4   2   -22.159000   10.183000  8.902000
5806   4   2   -17.104000   10.323000  8.797000
5807   4   2   -22.621000   14.718000  -0.157000
5808   4   2   -14.591000   14.752000  -0.341000
5809   4   2   -17.272000   14.794000  -0.242000
5810   4   2   -19.928000   14.785000  -0.181000
5811   4   2   -22.361000   9.897000  -0.513000
5812   4   2   -14.801000   9.925000  -0.685000
5813   4   2   -17.323000   9.988000  -0.645000
5814   4   2   -19.855000   9.981000  -0.588000
5815   4   2   -14.617000   14.855000  -2.721000
5816   4   2   -19.998000   14.916000  -2.567000
5817   4   2   -22.707000   14.819000  -2.534000
5818   4   2   -17.314000   14.925000  -2.628000
5819   4   2   -14.837000   9.91000  -2.939000
5820   4   2   -22.432000   9.878000  -2.767000
5821   4   2   -17.377000   10.001000  -2.891000
5822   4   2   -19.903000   9.993000  -2.834000
5823   4   2   -25.699000   14.174000  -0.18000
5824   4   2   -25.291000   9.879000  -0.275000
5825   4   2   -25.37000   13.363000  -3.681000
5826   4   2   -25.767000   14.252000  -2.228000
5827   4   2   -25.342000   9.921000  -2.346000
5828   4   2   -25.135000   10.956000  -3.743000
5829   4   2   -25.131000   10.05000  6.54000
5830   4   2   -25.559000   14.334000  6.249000
5831   4   2   -24.824000   11.297000  9.939000
5832   4   2   -25.086000   10.193000  8.606000
5833   4   2   -25.072000   13.697000  9.768000
5834   4   2   -25.537000   14.513000  8.292000
5835   4   2   -23.269000   4.166000  2.132000
5836   4   2   -23.282000   8.809000  4.054000
5837   4   2   -23.274000   6.688000  4.301000
5838   4   2   -23.319000   6.613000  2.089000
5839   4   2   -23.221000   4.246000  4.43000
5840   4   2   -23.325000   8.747000  2.183000
5841   4   2   -13.684000   8.83000  3.845000
5842   4   2   -13.803000   4.161000  1.93000
5843   4   2   -13.748000   6.612000  1.882000
5844   4   2   -13.726000   8.77000  1.968000
5845   4   2   -13.752000   4.242000  4.227000
5846   4   2   -13.698000   6.687000  4.095000
5847   4   2   -17.172000   1.946000  5.677000
5848   4   2   -19.752000   1.948000  5.732000
5849   4   2   -19.857000   1.767000  0.862000
5850   4   2   -17.276000   1.765000  0.807000
5851   4   2   -21.917000   2.031000  4.483000
5852   4   2   -21.966000   1.948000  2.191000
5853   4   2   -15.06000   2.026000  4.337000
5854   4   2   -15.109000   1.942000  2.045000
5855   4   2   -19.823000   0.705000  2.227000
5856   4   2   -17.252000   0.703000  2.173000
5857   4   2   -19.775000   0.786000  4.451000
5858   4   2   -17.205000   0.784000  4.396000
5859   4   2   -11.561000   14.229000  1.729000
5860   4   2   -11.515000   14.283000  3.68000
5861   4   2   -11.7000   9.926000  1.72000
5862   4   2   -11.649000   9.987000  3.932000
5863   4   2   -11.374000   14.439000  5.906000
5864   4   2   -11.689000   10.148000  6.237000
5865   4   2   -11.677000   13.81000  9.446000
5866   4   2   -11.303000   14.629000  7.947000
5867   4   2   -11.638000   10.302000  8.299000
5868   4   2   -11.864000   11.406000  9.638000
5869   4   2   -11.848000   9.959000  -0.586000
5870   4   2   -11.525000   14.262000  -0.507000
5871   4   2   -12.188000   11.031000  -4.041000
5872   4   2   -11.893000   10.001000  -2.656000
5873   4   2   -11.998000   13.444000  -3.988000
5874   4   2   -11.553000   14.341000  -2.555000
5875   4   2   -19.637000   11.693000  9.893000
5876   4   2   -14.376000   14.038000  9.56000
5877   4   2   -19.697000   14.111000  9.67000
5878   4   2   -22.369000   13.982000  9.753000
5879   4   2   -17.048000   14.127000  9.607000
5880   4   2   -14.471000   11.614000  9.776000
5881   4   2   -22.226000   11.56000  9.956000
5882   4   2   -17.065000   11.707000  9.833000
5883   4   2   -14.796000   11.231000  -4.062000
5884   4   2   -19.954000   11.32000  -3.944000
5885   4   2   -22.541000   11.201000  -3.885000
5886   4   2   -17.386000   11.328000  -4.002000
5887   4   2   -14.696000   13.665000  -3.983000
5888   4   2   -20.003000   13.749000  -3.847000
5889   4   2   -22.672000   13.633000  -3.801000
5890   4   2   -17.36000   13.757000  -3.907000
5891   4   2   -31.118000   14.077000  4.235000
5892   4   2   -33.945000   13.861000  4.307000
5893   4   2   -33.996000   13.809000  2.158000
5894   4   2   -31.168000   14.027000  2.09000
5895   4   2   -33.891000   13.937000  6.492000
5896   4   2   -31.07000   14.152000  6.423000
5897   4   2   -36.699000   13.195000  4.387000
5898   4   2   -36.75000   13.141000  2.24000
5899   4   2   -31.023000   14.312000  8.641000
5900   4   2   -33.844000   14.096000  8.715000
5901   4   2   -31.221000   13.997000  -0.099000
5902   4   2   -34.046000   13.777000  -0.028000
5903   4   2   -31.278000   14.052000  -2.322000
5904   4   2   -34.104000   13.829000  -2.259000
5905   4   2   -36.781000   13.118000  0.05000
5906   4   2   -36.54000   12.075000  -3.49000
5907   4   2   -36.845000   13.182000  -2.181000
5908   4   2   -36.626000   13.284000  6.573000
5909   4   2   -36.216000   12.42000  10.148000
5910   4   2   -36.582000   13.459000  8.799000
5911   4   2   -28.277000   13.704000  2.039000
5912   4   2   -28.227000   13.754000  4.172000
5913   4   2   -28.196000   13.839000  6.37000
5914   4   2   -28.347000   12.971000  9.948000
5915   4   2   -28.142000   14.015000  8.566000
5916   4   2   -28.343000   13.682000  -0.159000
5917   4   2   -28.653000   12.649000  -3.681000
5918   4   2   -28.387000   13.755000  -2.36000
5919   4   2   -27.735000   10.735000  -2.443000
5920   4   2   -30.079000   11.195000  -0.138000
5921   4   2   -32.332000   11.296000  4.332000
5922   4   2   -34.637000   11.001000  6.653000
5923   4   2   -27.721000   10.665000  -0.144000
5924   4   2   -27.478000   11.003000  8.763000
5925   4   2   -29.976000   11.276000  4.274000
5926   4   2   -29.925000   11.353000  6.541000
5927   4   2   -37.028000   10.406000  9.004000
5928   4   2   -32.232000   11.513000  8.752000
5929   4   2   65.956000   -12.422000  0.7000
5930   4   2   -34.861000   10.875000  -2.186000
5931   4   2   -37.185000   10.061000  0.102000
5932   4   2   -37.078000   10.137000  4.534000
5933   4   2   -37.133000   10.08000  2.269000
5934   4   2   -34.744000   10.87000  2.247000
5935   4   2   65.915000   -15.521000  0.709000
5936   4   2   -27.566000   10.824000  6.471000
5937   4   2   -37.035000   10.23000  6.698000
5938   4   2   -27.678000   10.682000  2.039000
5939   4   2   -32.279000   11.373000  6.582000
5940   4   2   -34.79000   10.837000  -0.01000
5941   4   2   -34.605000   11.146000  8.824000
5942   4   2   -34.694000   10.923000  4.398000
5943   4   2   -37.291000   10.122000  -2.209000
5944   4   2   -27.629000   10.735000  4.292000
5945   4   2   -29.862000   11.502000  8.702000
5946   4   2   -31.001000   13.219000  9.994000
5947   4   2   -33.955000   12.681000  -3.556000
5948   4   2   -31.314000   12.895000  -3.622000
5949   4   2   65.958000   -15.511000  2.86000
5950   4   2   65.994000   -12.404000  2.848000
5951   4   2   -60.239000   -6.581000  6.765000
5952   4   2   65.879000   -15.524000  -1.503000
5953   4   2   65.927000   -12.447000  -1.511000
5954   4   2   64.713000   -18.455000  0.773000
5955   4   2   64.73000   -18.437000  2.902000
5956   4   2   65.981000   -12.458000  -3.719000
5957   4   2   -53.47000   14.078000  -1.58000
5958   4   2   65.924000   -15.541000  -3.712000
5959   4   2   57.609000   -3.56000  5.448000
5960   4   2   66.046000   -12.389000  5.063000
5961   4   2   66.011000   -15.507000  5.077000
5962   4   2   66.166000   -12.371000  7.27000
5963   4   2   66.128000   -15.508000  7.283000
5964   4   2   56.446000   -1.267000  -1.734000
5965   4   2   64.766000   -18.425000  5.128000
5966   4   2   64.013000   -17.807000  8.677000
5967   4   2   64.877000   -18.449000  7.296000
5968   4   2   64.729000   -18.45000  -1.451000
5969   4   2   -55.359000   10.436000  2.68000
5970   4   2   63.897000   -17.943000  -4.991000
5971   4   2   64.818000   -18.508000  -3.616000
5972   4   2   64.872000   -9.459000  2.865000
5973   4   2   61.569000   -1.302000  2.906000
5974   4   2   64.863000   -9.466000  0.741000
5975   4   2   62.891000   -3.616000  2.896000
5976   4   2   55.103000   0.806000  -1.684000
5977   4   2   64.895000   -9.494000  -1.477000
5978   4   2   60.241000   0.981000  2.936000
5979   4   2   64.065000   -9.989000  -5.018000
5980   4   2   65.007000   -9.462000  -3.642000
5981   4   2   -32.381000   11.245000  2.181000
5982   4   2   -59.431000   9.972000  7.212000
5983   4   2   58.879000   3.277000  2.986000
5984   4   2   64.91000   -9.452000  5.086000
5985   4   2   64.135000   -9.996000  8.64000
5986   4   2   -32.431000   11.212000  -0.072000
5987   4   2   65.03000   -9.409000  7.256000
5988   4   2   63.394000   -13.926000  2.889000
5989   4   2   61.988000   -9.944000  7.421000
5990   4   2   -72.488000   -10.705000  5.134000
5991   4   2   -32.484000   11.251000  -2.244000
5992   4   2   63.351000   -13.934000  0.774000
5993   4   2   62.914000   -16.042000  -1.522000
5994   4   2   61.879000   -10.004000  5.14000
5995   4   2   13.167000   6.304000  4.821000
5996   4   2   9.36000   4.18000  4.896000
5997   4   2   5.57000   6.328000  4.954000
5998   4   2   6.773000   4.157000  4.947000
5999   4   2   63.453000   -13.914000  5.181000
6000   4   2   10.655000   6.41000  4.806000
6001   4   2   8.081000   6.417000  4.85000
6002   4   2   61.944000   -9.812000  -3.787000
6003   4   2   -71.666000   -16.826000  0.713000
6004   4   2   62.979000   -11.825000  -1.541000
6005   4   2   61.777000   -17.998000  -3.745000
6006   4   2   5.419000   14.728000  3.297000
6007   4   2   13.288000   14.725000  3.158000
6008   4   2   10.661000   14.71000  3.183000
6009   4   2   8.05000   14.713000  3.229000
6010   4   2   63.336000   -13.949000  -3.659000
6011   4   2   10.676000   8.818000  4.734000
6012   4   2   63.559000   -13.905000  7.31000
6013   4   2   63.143000   -15.974000  7.321000
6014   4   2   13.076000   6.149000  -0.051000
6015   4   2   7.999000   6.265000  0.092000
6016   4   2   -71.601000   -16.987000  7.366000
6017   4   2   5.487000   6.172000  0.082000
6018   4   2   11.858000   3.981000  0.1000
6019   4   2   9.275000   4.023000  0.15000
6020   4   2   10.57000   6.261000  0.048000
6021   4   2   61.712000   -17.794000  0.733000
6022   4   2   61.731000   -17.748000  2.967000
6023   4   2   62.989000   -15.985000  2.893000
6024   4   2   63.191000   -11.81000  7.308000
6025   4   2   -61.14000   8.586000  0.543000
6026   4   2   8.02000   14.662000  1.264000
6027   4   2   5.388000   14.679000  1.297000
6028   4   2   61.847000   -9.92000  -1.516000
6029   4   2   13.259000   14.674000  1.164000
6030   4   2   7.995000   8.694000  0.017000
6031   4   2   5.311000   8.661000  0.08000
6032   4   2   13.281000   8.652000  -0.057000
6033   4   2   10.594000   8.69000  -0.027000
6034   4   2   -72.674000   -15.013000  5.104000
6035   4   2   61.842000   -10.003000  2.934000
6036   4   2   63.305000   -13.944000  -1.519000
6037   4   2   8.061000   15.044000  5.309000
6038   4   2   5.375000   14.991000  5.401000
6039   4   2   63.042000   -15.962000  5.2000
6040   4   2   13.399000   14.997000  5.256000
6041   4   2   10.67000   10.269000  5.918000
6042   4   2   13.188000   10.196000  5.861000
6043   4   2   5.621000   10.193000  5.986000
6044   4   2   5.375000   8.782000  4.8000
6045   4   2   63.035000   -11.845000  2.876000
6046   4   2   8.075000   8.821000  4.777000
6047   4   2   2.357000   14.345000  3.345000
6048   4   2   2.325000   14.302000  1.388000
6049   4   2   62.953000   -16.11000  -3.651000
6050   4   2   2.529000   10.051000  3.565000
6051   4   2   2.486000   10.0000  1.357000
6052   4   2   -74.73000   -14.108000  -2.751000
6053   4   2   61.869000   -17.752000  7.45000
6054   4   2   13.464000   15.223000  7.627000
6055   4   2   5.386000   15.208000  7.776000
6056   4   2   10.766000   15.298000  7.64000
6057   4   2   8.085000   15.294000  7.69000
6058   4   2   61.83000   -9.978000  0.696000
6059   4   2   63.031000   -11.771000  -3.674000
6060   4   2   13.241000   10.296000  8.111000
6061   4   2   8.179000   10.39000  8.199000
6062   4   2   5.645000   10.282000  8.234000
6063   4   2   10.705000   10.394000  8.157000
6064   4   2   64.801000   -15.349000  -5.031000
6065   4   2   64.853000   -12.619000  -5.039000
6066   4   2   65.062000   -15.283000  8.649000
6067   4   2   5.274000   14.84000  -0.815000
6068   4   2   13.303000   14.84000  -0.947000
6069   4   2   65.094000   -12.558000  8.636000
6070   4   2   7.962000   14.886000  -0.829000
6071   4   2   5.483000   10.02000  -1.179000
6072   4   2   13.09000   10.019000  -1.308000
6073   4   2   10.558000   10.084000  -1.284000
6074   4   2   8.008000   10.085000  -1.241000
6075   4   2   13.297000   14.948000  -3.328000
6076   4   2   7.907000   15.019000  -3.218000
6077   4   2   5.201000   14.945000  -3.196000
6078   4   2   10.592000   15.02000  -3.262000
6079   4   2   13.076000   10.008000  -3.559000
6080   4   2   5.422000   10.003000  -3.428000
6081   4   2   10.52000   10.098000  -3.529000
6082   4   2   7.973000   10.098000  -3.486000
6083   4   2   2.196000   14.341000  -0.845000
6084   4   2   2.533000   10.041000  -0.95000
6085   4   2   2.521000   13.529000  -4.346000
6086   4   2   2.137000   14.425000  -2.894000
6087   4   2   2.489000   10.086000  -3.018000
6088   4   2   2.716000   11.12000  -4.411000
6089   4   2   2.669000   10.192000  5.865000
6090   4   2   2.308000   14.484000  5.579000
6091   4   2   2.984000   11.427000  9.267000
6092   4   2   2.709000   10.331000  7.93000
6093   4   2   2.772000   13.831000  9.1000
6094   4   2   2.324000   14.657000  7.624000
6095   4   2   4.564000   4.275000  1.449000
6096   4   2   4.548000   8.922000  3.381000
6097   4   2   4.557000   6.792000  3.624000
6098   4   2   4.52000   6.724000  1.412000
6099   4   2   4.603000   4.349000  3.746000
6100   4   2   4.513000   8.863000  1.508000
6101   4   2   14.157000   8.907000  3.223000
6102   4   2   -57.517000   10.643000  2.772000
6103   4   2   14.095000   6.693000  1.243000
6104   4   2   14.128000   8.847000  1.345000
6105   4   2   14.074000   4.316000  3.579000
6106   4   2   14.136000   6.763000  3.457000
6107   4   2   10.643000   2.027000  5.009000
6108   4   2   8.062000   2.036000  5.055000
6109   4   2   7.976000   1.87000  0.184000
6110   4   2   10.556000   1.862000  0.138000
6111   4   2   5.902000   2.129000  3.798000
6112   4   2   5.861000   2.053000  1.506000
6113   4   2   12.759000   2.104000  3.675000
6114   4   2   12.718000   2.028000  1.384000
6115   4   2   8.001000   0.804000  1.547000
6116   4   2   10.572000   0.795000  1.501000
6117   4   2   8.04000   0.879000  3.77000
6118   4   2   10.612000   0.869000  3.723000
6119   4   2   16.322000   14.304000  1.155000
6120   4   2   16.35000   14.351000  3.105000
6121   4   2   16.167000   10.001000  1.128000
6122   4   2   16.196000   10.055000  3.343000
6123   4   2   16.471000   14.501000  5.332000
6124   4   2   16.135000   10.209000  5.647000
6125   4   2   16.124000   13.867000  8.867000
6126   4   2   16.52000   14.686000  7.373000
6127   4   2   16.166000   10.36000  7.712000
6128   4   2   15.928000   11.461000  9.053000
6129   4   2   16.047000   10.046000  -1.179000
6130   4   2   16.378000   14.347000  -1.079000
6131   4   2   15.749000   11.133000  -4.63000
6132   4   2   16.027000   10.097000  -3.248000
6133   4   2   15.943000   13.543000  -4.567000
6134   4   2   16.371000   14.436000  -3.127000
6135   4   2   8.175000   11.771000  9.243000
6136   4   2   13.432000   14.103000  8.954000
6137   4   2   8.131000   14.191000  9.026000
6138   4   2   5.468000   14.082000  9.095000
6139   4   2   10.771000   14.197000  8.979000
6140   4   2   13.328000   11.674000  9.163000
6141   4   2   5.586000   11.656000  9.293000
6142   4   2   10.742000   11.776000  9.199000
6143   4   2   13.128000   11.332000  -4.678000
6144   4   2   7.935000   11.425000  -4.595000
6145   4   2   5.331000   11.325000  -4.547000
6146   4   2   10.521000   11.426000  -4.638000
6147   4   2   13.232000   13.761000  -4.592000
6148   4   2   7.902000   13.851000  -4.496000
6149   4   2   5.227000   13.756000  -4.46000
6150   4   2   10.555000   13.851000  -4.54000
6151   4   2   -0.364000   13.938000  1.369000
6152   4   2   -0.32000   13.984000  3.508000
6153   4   2   -0.289000   14.063000  5.702000
6154   4   2   -0.486000   13.186000  9.281000
6155   4   2   -0.233000   14.232000  7.909000
6156   4   2   -0.431000   13.923000  -0.825000
6157   4   2   -0.783000   12.896000  -4.35000
6158   4   2   -0.472000   13.997000  -3.036000
6159   4   2   0.085000   10.958000  -3.116000
6160   4   2   0.092000   10.885000  -0.816000
6161   4   2   0.316000   11.195000  8.089000
6162   4   2   0.222000   11.026000  5.793000
6163   4   2   0.124000   10.896000  1.364000
6164   4   2   0.171000   10.945000  3.618000
6165   4   2   -3.162000   14.47000  3.567000
6166   4   2   -6.0000   14.457000  3.634000
6167   4   2   -6.049000   14.403000  1.486000
6168   4   2   -3.209000   14.42000  1.417000
6169   4   2   -5.942000   14.536000  5.819000
6170   4   2   -3.111000   14.543000  5.752000
6171   4   2   -8.836000   13.945000  3.712000
6172   4   2   -8.886000   13.888000  1.576000
6173   4   2   -3.058000   14.698000  7.978000
6174   4   2   -5.887000   14.698000  8.042000
6175   4   2   -3.265000   14.39000  -0.769000
6176   4   2   -6.1000   14.369000  -0.699000
6177   4   2   -3.318000   14.443000  -2.999000
6178   4   2   -6.154000   14.421000  -2.929000
6179   4   2   -8.92000   13.864000  -0.617000
6180   4   2   -8.724000   12.831000  -4.151000
6181   4   2   -8.982000   13.933000  -2.827000
6182   4   2   -8.765000   14.039000  5.903000
6183   4   2   -8.394000   13.196000  9.475000
6184   4   2   -8.719000   14.225000  8.107000
6185   4   2   -4.614000   11.731000  1.516000
6186   4   2   -2.287000   11.522000  -0.803000
6187   4   2   -4.565000   11.783000  3.665000
6188   4   2   -6.885000   11.662000  5.995000
6189   4   2   -4.663000   11.697000  -0.737000
6190   4   2   -2.193000   11.6000  3.606000
6191   4   2   -2.149000   11.673000  5.867000
6192   4   2   -9.242000   11.187000  8.341000
6193   4   2   -4.47000   11.999000  8.086000
6194   4   2   -4.714000   11.733000  -2.909000
6195   4   2   -7.108000   11.53000  -2.847000
6196   4   2   -9.402000   10.821000  -0.568000
6197   4   2   -9.291000   10.901000  3.868000
6198   4   2   -9.346000   10.841000  1.611000
6199   4   2   -6.986000   11.522000  1.587000
6200   4   2   -2.315000   11.568000  -2.972000
6201   4   2   -9.253000   11.0000  6.045000
6202   4   2   -4.517000   11.859000  5.916000
6203   4   2   -7.034000   11.488000  -0.679000
6204   4   2   -2.238000   11.551000  1.461000
6205   4   2   -6.855000   11.815000  8.16000
6206   4   2   -6.937000   11.578000  3.732000
6207   4   2   -9.506000   10.886000  -2.87000
6208   4   2   -2.084000   11.814000  8.033000
6209   4   2   -5.762000   13.607000  9.391000
6210   4   2   -3.114000   13.601000  9.326000
6211   4   2   -6.089000   13.262000  -4.223000
6212   4   2   -3.43000   13.285000  -4.29000
6213   4   2   53.955000   7.583000  -4.811000
6214   4   2   -69.761000   -6.916000  9.572000
6215   4   2   57.68000   -6.606000  4.162000
6216   4   2   58.91000   -5.573000  -4.022000
6217   4   2   60.703000   1.38000  -3.482000
6218   4   2   56.533000   -1.197000  -3.981000
6219   4   2   -61.099000   8.595000  4.957000
6220   4   2   48.259000   -3.478000  2.793000
6221   4   2   27.586000   13.768000  1.044000
6222   4   2   27.603000   13.771000  3.179000
6223   4   2   27.606000   13.814000  5.37000
6224   4   2   27.291000   12.901000  8.933000
6225   4   2   27.631000   13.949000  7.583000
6226   4   2   27.548000   13.804000  -1.146000
6227   4   2   27.262000   12.867000  -4.697000
6228   4   2   27.547000   13.936000  -3.351000
6229   4   2   28.088000   10.896000  -3.49000
6230   4   2   28.024000   10.761000  -1.193000
6231   4   2   28.03000   10.884000  7.732000
6232   4   2   27.998000   10.757000  5.429000
6233   4   2   28.007000   10.714000  0.99000
6234   4   2   27.994000   10.714000  3.25000
6235   4   2   24.777000   14.357000  3.161000
6236   4   2   21.927000   14.436000  3.157000
6237   4   2   21.904000   14.388000  1.014000
6238   4   2   24.752000   14.325000  1.018000
6239   4   2   21.951000   14.518000  5.341000
6240   4   2   24.801000   14.418000  5.345000
6241   4   2   19.059000   13.99000  3.179000
6242   4   2   19.036000   13.938000  1.046000
6243   4   2   24.826000   14.566000  7.564000
6244   4   2   21.973000   14.687000  7.554000
6245   4   2   24.724000   14.32000  -1.167000
6246   4   2   21.888000   14.363000  -1.169000
6247   4   2   24.706000   14.404000  -3.398000
6248   4   2   21.869000   14.43000  -3.401000
6249   4   2   19.038000   13.923000  -1.144000
6250   4   2   19.272000   12.907000  -4.676000
6251   4   2   19.009000   14.006000  -3.351000
6252   4   2   19.093000   14.084000  5.369000
6253   4   2   19.388000   13.244000  8.945000
6254   4   2   19.104000   14.271000  7.565000
6255   4   2   23.273000   11.678000  1.064000
6256   4   2   25.647000   11.436000  -1.216000
6257   4   2   23.276000   11.719000  3.215000
6258   4   2   20.929000   11.673000  5.501000
6259   4   2   23.263000   11.658000  -1.193000
6260   4   2   25.643000   11.453000  3.201000
6261   4   2   25.641000   11.508000  5.468000
6262   4   2   18.553000   11.236000  7.794000
6263   4   2   23.287000   11.938000  7.641000
6264   4   2   23.264000   11.716000  -3.366000
6265   4   2   20.842000   11.563000  -3.353000
6266   4   2   18.492000   10.89000  -1.125000
6267   4   2   18.552000   10.952000  3.317000
6268   4   2   18.528000   10.899000  1.061000
6269   4   2   20.892000   11.534000  1.086000
6270   4   2   25.683000   11.519000  -3.385000
6271   4   2   18.571000   11.049000  5.498000
6272   4   2   23.286000   11.795000  5.473000
6273   4   2   20.875000   11.506000  -1.185000
6274   4   2   25.652000   11.43000  1.053000
6275   4   2   20.926000   11.832000  7.664000
6276   4   2   20.907000   11.584000  3.231000
6277   4   2   18.426000   10.97000  -3.423000
6278   4   2   25.65000   11.634000  7.635000
6279   4   2   22.033000   13.605000  8.914000
6280   4   2   24.686000   13.479000  8.913000
6281   4   2   21.937000   13.274000  -4.696000
6282   4   2   24.608000   13.26000  -4.701000
6283   4   2   56.35000   -1.401000  5.471000
6284   4   2   5.25000   -39.528000  7.21000
6285   4   2   49.577000   -8.109000  0.425000
6286   4   2   53.395000   3.263000  0.829000
6287   4   2   55.103000   -2.052000  4.223000
6288   4   2   54.38000   -5.36000  -0.647000
6289   4   2   56.928000   5.9000  -1.221000
6290   4   2   47.341000   12.784000  1.065000
6291   4   2   -55.307000   10.463000  4.918000
6292   4   2   -57.389000   10.784000  9.316000
6293   4   2   54.543000   3.488000  8.794000
6294   4   2   52.805000   5.534000  3.1000
6295   4   2   57.762000   -6.547000  -0.569000
6296   4   2   -60.026000   -2.175000  6.605000
6297   4   2   56.885000   5.778000  5.238000
6298   4   2   -49.4000   3.594000  1.524000
6299   4   2   -61.342000   10.705000  10.723000
6300   4   2   58.84000   -5.613000  -1.76000
6301   4   2   56.881000   5.708000  2.992000
6302   4   2   50.457000   -7.667000  4.011000
6303   4   2   57.7000   -3.421000  -1.76000
6304   4   2   56.468000   -4.185000  -0.574000
6305   4   2   -63.192000   1.415000  6.412000
6306   4   2   -58.959000   12.045000  10.68000
6307   4   2   64.042000   -6.544000  0.878000
6308   4   2   56.395000   -4.278000  4.197000
6309   4   2   -62.603000   -6.698000  1.887000
6310   4   2   8.137000   10.269000  5.96000
6311   4   2   -63.956000   -8.378000  3.129000
6312   4   2   -30.025000   11.226000  2.132000
6313   4   2   -61.549000   10.622000  -2.951000
6314   4   2   64.025000   -6.552000  2.837000
6315   4   2   -69.845000   2.318000  0.882000
6316   4   2   53.627000   3.318000  -3.543000
6317   4   2   63.171000   -3.537000  -1.204000
6318   4   2   59.188000   3.692000  -3.501000
6319   4   2   60.144000   -8.344000  0.697000
6320   4   2   -69.649000   2.189000  2.978000
6321   4   2   -59.196000   12.004000  -2.993000
6322   4   2   60.445000   1.109000  5.028000
6323   4   2   63.358000   -3.452000  -3.571000
6324   4   2   60.135000   -8.381000  2.916000
6325   4   2   -69.923000   2.429000  7.027000
6326   4   2   56.451000   4.972000  8.732000
6327   4   2   53.527000   3.145000  7.411000
6328   4   2   -67.184000   -2.258000  7.669000
6329   4   2   -14.745000   -30.936000  1.793000
6330   4   2   -18.487000   -28.689000  1.784000
6331   4   2   -22.344000   -30.714000  1.682000
6332   4   2   -21.071000   -28.582000  1.748000
6333   4   2   -15.902000   -28.73000  1.812000
6334   4   2   -17.254000   -30.965000  1.814000
6335   4   2   -19.828000   -30.887000  1.773000
6336   4   2   -22.732000   -39.168000  3.108000
6337   4   2   -14.863000   -39.396000  3.348000
6338   4   2   -17.49000   -39.301000  3.304000
6339   4   2   -20.101000   -39.225000  3.225000
6340   4   2   -14.603000   -33.43000  1.906000
6341   4   2   -17.298000   -33.389000  1.836000
6342   4   2   -14.813000   -30.884000  6.667000
6343   4   2   -19.901000   -30.86000  6.533000
6344   4   2   -21.128000   -28.553000  6.505000
6345   4   2   -22.399000   -30.692000  6.557000
6346   4   2   -15.963000   -28.684000  6.57000
6347   4   2   -18.546000   -28.653000  6.533000
6348   4   2   -17.328000   -30.922000  6.574000
6349   4   2   -20.14000   -39.209000  5.19000
6350   4   2   -22.775000   -39.158000  5.105000
6351   4   2   -17.527000   -39.278000  5.27000
6352   4   2   -14.896000   -39.37000  5.345000
6353   4   2   -19.998000   -33.273000  6.541000
6354   4   2   -22.694000   -33.171000  6.459000
6355   4   2   -14.693000   -33.371000  6.629000
6356   4   2   -17.39000   -33.335000  6.595000
6357   4   2   -20.081000   -39.526000  1.141000
6358   4   2   -22.758000   -39.396000  1.004000
6359   4   2   -17.432000   -39.609000  1.223000
6360   4   2   -14.755000   -39.649000  1.247000
6361   4   2   -17.323000   -34.824000  0.631000
6362   4   2   -14.803000   -34.833000  0.697000
6363   4   2   -22.372000   -34.588000  0.513000
6364   4   2   -22.588000   -33.188000  1.735000
6365   4   2   -19.855000   -34.741000  0.57000
6366   4   2   -19.897000   -33.308000  1.781000
6367   4   2   -25.788000   -38.711000  2.999000
6368   4   2   -25.832000   -38.72000  4.95000
6369   4   2   -25.507000   -34.422000  2.876000
6370   4   2   -25.587000   -34.417000  5.088000
6371   4   2   -14.689000   -39.849000  -1.123000
6372   4   2   -22.721000   -39.575000  -1.367000
6373   4   2   -17.372000   -39.832000  -1.155000
6374   4   2   -20.039000   -39.742000  -1.237000
6375   4   2   -14.743000   -34.909000  -1.551000
6376   4   2   -19.789000   -34.833000  -1.67000
6377   4   2   -22.314000   -34.649000  -1.74000
6378   4   2   -17.271000   -34.92000  -1.609000
6379   4   2   -22.914000   -39.362000  7.208000
6380   4   2   -14.864000   -39.555000  7.455000
6381   4   2   -17.556000   -39.525000  7.361000
6382   4   2   -20.219000   -39.462000  7.279000
6383   4   2   -22.63000   -34.565000  7.677000
6384   4   2   -14.939000   -34.741000  7.864000
6385   4   2   -17.499000   -34.737000  7.831000
6386   4   2   -20.076000   -34.679000  7.769000
6387   4   2   -14.881000   -39.685000  9.843000
6388   4   2   -20.3000   -39.628000  9.674000
6389   4   2   -23.019000   -39.51000  9.592000
6390   4   2   -17.6000   -39.684000  9.758000
6391   4   2   -14.962000   -34.747000  10.111000
6392   4   2   -22.73000   -34.584000  9.92000
6393   4   2   -17.557000   -34.77000  10.068000
6394   4   2   -20.144000   -34.717000  10.006000
6395   4   2   -25.992000   -38.815000  7.175000
6396   4   2   -25.592000   -34.529000  7.391000
6397   4   2   -25.728000   -38.091000  10.697000
6398   4   2   -26.082000   -38.952000  9.219000
6399   4   2   -25.688000   -34.622000  9.451000
6400   4   2   -25.504000   -35.691000  10.82000
6401   4   2   -25.329000   -34.515000  0.573000
6402   4   2   -25.81000   -38.803000  0.767000
6403   4   2   -24.976000   -35.698000  -2.848000
6404   4   2   -25.25000   -34.621000  -1.496000
6405   4   2   -25.262000   -38.104000  -2.729000
6406   4   2   -25.769000   -38.936000  -1.277000
6407   4   2   -23.269000   -28.729000  5.25000
6408   4   2   -23.438000   -33.337000  3.141000
6409   4   2   -23.361000   -31.19000  3.006000
6410   4   2   -23.395000   -31.172000  5.221000
6411   4   2   -23.242000   -28.742000  2.953000
6412   4   2   -23.485000   -33.306000  5.018000
6413   4   2   -13.82000   -33.599000  3.348000
6414   4   2   -13.805000   -28.982000  5.372000
6415   4   2   -13.817000   -31.431000  5.357000
6416   4   2   -13.855000   -33.578000  5.225000
6417   4   2   -13.774000   -29.004000  3.073000
6418   4   2   -13.785000   -31.453000  3.141000
6419   4   2   -17.142000   -26.576000  1.719000
6420   4   2   -19.722000   -26.5000  1.692000
6421   4   2   -19.775000   -26.465000  6.566000
6422   4   2   -17.197000   -26.528000  6.593000
6423   4   2   -21.877000   -26.562000  2.96000
6424   4   2   -21.903000   -26.548000  5.253000
6425   4   2   -15.021000   -26.751000  3.036000
6426   4   2   -15.048000   -26.73000  5.329000
6427   4   2   -19.727000   -25.363000  5.233000
6428   4   2   -17.158000   -25.43000  5.257000
6429   4   2   -19.701000   -25.379000  3.009000
6430   4   2   -17.131000   -25.45000  3.033000
6431   4   2   -11.819000   -39.096000  5.363000
6432   4   2   -11.794000   -39.122000  3.412000
6433   4   2   -11.839000   -34.79000  5.434000
6434   4   2   -11.804000   -34.823000  3.22000
6435   4   2   -11.86000   -34.95000  0.913000
6436   4   2   -11.998000   -38.574000  -2.347000
6437   4   2   -11.635000   -39.421000  -0.859000
6438   4   2   -11.829000   -35.082000  -1.153000
6439   4   2   -12.106000   -36.158000  -2.507000
6440   4   2   -11.965000   -34.856000  7.736000
6441   4   2   -11.766000   -39.161000  7.595000
6442   4   2   -12.295000   -35.962000  11.172000
6443   4   2   -11.988000   -34.924000  9.802000
6444   4   2   -12.174000   -38.372000  11.088000
6445   4   2   -11.775000   -39.268000  9.644000
6446   4   2   -19.823000   -36.195000  -2.74000
6447   4   2   -14.677000   -38.714000  -2.44000
6448   4   2   -19.94000   -38.626000  -2.559000
6449   4   2   -22.583000   -38.434000  -2.671000
6450   4   2   -17.32000   -38.719000  -2.483000
6451   4   2   -14.699000   -36.275000  -2.622000
6452   4   2   -22.391000   -36.001000  -2.825000
6453   4   2   -17.273000   -36.287000  -2.672000
6454   4   2   -14.952000   -36.079000  11.217000
6455   4   2   -20.22000   -36.056000  11.093000
6456   4   2   -17.596000   -36.105000  11.163000
6457   4   2   -14.917000   -38.501000  11.11000
6458   4   2   -20.303000   -38.469000  10.96000
6459   4   2   -23.003000   -38.341000  10.873000
6460   4   2   -17.622000   -38.522000  11.039000
6461   4   2   -28.57000   -38.284000  4.856000
6462   4   2   -28.51000   -38.272000  2.721000
6463   4   2   -28.443000   -38.286000  0.535000
6464   4   2   -28.508000   -37.312000  -3.013000
6465   4   2   -28.348000   -38.405000  -1.668000
6466   4   2   -28.672000   -38.344000  7.041000
6467   4   2   -29.091000   -37.437000  10.59000
6468   4   2   -28.756000   -38.493000  9.248000
6469   4   2   -28.135000   -35.471000  9.458000
6470   4   2   -28.053000   -35.324000  7.167000
6471   4   2   -27.655000   -35.394000  -1.739000
6472   4   2   -27.816000   -35.276000  0.552000
6473   4   2   -27.998000   -35.264000  4.983000
6474   4   2   -27.887000   -35.248000  2.734000
6475   4   2   -31.357000   -38.679000  2.546000
6476   4   2   -34.17000   -38.687000  2.393000
6477   4   2   -34.226000   -38.714000  4.546000
6478   4   2   -31.416000   -38.704000  4.696000
6479   4   2   -34.079000   -38.679000  0.218000
6480   4   2   -31.274000   -38.675000  0.37000
6481   4   2   -37.011000   -38.31000  2.275000
6482   4   2   -37.058000   -38.335000  4.416000
6483   4   2   -31.184000   -38.76000  -1.871000
6484   4   2   -33.99000   -38.76000  -2.03000
6485   4   2   -31.509000   -38.759000  6.873000
6486   4   2   -34.312000   -38.769000  6.723000
6487   4   2   -31.601000   -38.897000  9.107000
6488   4   2   -34.398000   -38.903000  8.955000
6489   4   2   -37.115000   -38.389000  6.603000
6490   4   2   -37.019000   -37.455000  10.174000
6491   4   2   -37.189000   -38.533000  8.816000
6492   4   2   -36.916000   -38.321000  0.091000
6493   4   2   -36.562000   -37.325000  -3.439000
6494   4   2   -36.847000   -38.426000  -2.125000
6495   4   2   -32.847000   -36.016000  4.656000
6496   4   2   -30.485000   -35.907000  7.053000
6497   4   2   -32.761000   -35.989000  2.502000
6498   4   2   -35.158000   -35.84000  0.115000
6499   4   2   -32.916000   -36.072000  6.902000
6500   4   2   -30.313000   -35.828000  2.646000
6501   4   2   -30.24000   -35.831000  0.383000
6502   4   2   -37.593000   -35.428000  -2.259000
6503   4   2   -32.587000   -36.048000  -1.918000
6504   4   2   -33.012000   -36.19000  9.073000
6505   4   2   -35.442000   -36.04000  8.949000
6506   4   2   -37.781000   -35.384000  6.636000
6507   4   2   -37.669000   -35.304000  2.212000
6508   4   2   -37.742000   -35.326000  4.465000
6509   4   2   -35.292000   -35.868000  4.522000
6510   4   2   -30.572000   -36.033000  9.218000
6511   4   2   -37.639000   -35.323000  0.032000
6512   4   2   -32.69000   -35.981000  0.256000
6513   4   2   -35.343000   -35.924000  6.777000
6514   4   2   -30.407000   -35.852000  4.792000
6515   4   2   -35.091000   -35.918000  -2.054000
6516   4   2   -35.22000   -35.847000  2.373000
6517   4   2   -37.899000   -35.528000  8.935000
6518   4   2   -30.108000   -35.909000  -1.784000
6519   4   2   -33.861000   -37.598000  -3.311000
6520   4   2   -31.177000   -37.606000  -3.166000
6521   4   2   -34.396000   -37.789000  10.288000
6522   4   2   -31.75000   -37.783000  10.431000
6523   4   2   12.946000   -31.055000  1.211000
6524   4   2   9.168000   -28.887000  1.299000
6525   4   2   5.35000   -30.989000  1.415000
6526   4   2   6.583000   -28.831000  1.362000
6527   4   2   11.754000   -28.876000  1.225000
6528   4   2   10.435000   -31.132000  1.34000
6529   4   2   7.859000   -31.11000  1.409000
6530   4   2   5.216000   -39.416000  3.105000
6531   4   2   13.013000   -39.476000  2.883000
6532   4   2   10.41000   -39.42000  2.973000
6533   4   2   7.823000   -39.4000  3.046000
6534   4   2   13.133000   -33.524000  1.367000
6535   4   2   10.426000   -33.531000  1.42000
6536   4   2   13.076000   -30.89000  6.082000
6537   4   2   7.989000   -30.945000  6.164000
6538   4   2   6.712000   -28.659000  6.116000
6539   4   2   5.482000   -30.819000  6.286000
6540   4   2   11.879000   -28.707000  5.979000
6541   4   2   9.296000   -28.716000  6.043000
6542   4   2   10.564000   -30.968000  6.095000
6543   4   2   -39.691000   9.209000  0.078000
6544   4   2   7.875000   -39.347000  5.012000
6545   4   2   5.268000   -39.363000  5.099000
6546   4   2   10.463000   -39.367000  4.94000
6547   4   2   13.07000   -39.422000  4.881000
6548   4   2   7.952000   -33.376000  6.247000
6549   4   2   5.263000   -33.331000  6.309000
6550   4   2   13.247000   -33.395000  6.086000
6551   4   2   10.556000   -33.397000  6.175000
6552   4   2   5.084000   -39.69000  1.007000
6553   4   2   10.37000   -39.75000  0.89000
6554   4   2   13.025000   -39.746000  0.779000
6555   4   2   10.349000   -34.976000  0.238000
6556   4   2   12.885000   -34.94000  0.184000
6557   4   2   5.254000   -34.888000  0.397000
6558   4   2   5.114000   -33.463000  1.589000
6559   4   2   7.794000   -34.957000  0.309000
6560   4   2   7.819000   -33.512000  1.493000
6561   4   2   2.177000   -39.076000  3.203000
6562   4   2   2.224000   -39.026000  5.15000
6563   4   2   2.265000   -34.776000  2.957000
6564   4   2   2.32000   -34.72000  5.173000
6565   4   2   12.984000   -39.968000  -1.601000
6566   4   2   4.992000   -39.913000  -1.373000
6567   4   2   10.314000   -39.999000  -1.499000
6568   4   2   7.663000   -39.98000  -1.423000
6569   4   2   12.84000   -35.035000  -2.06000
6570   4   2   7.733000   -35.074000  -1.922000
6571   4   2   5.173000   -34.984000  -1.844000
6572   4   2   10.283000   -35.091000  -1.994000
6573   4   2   13.202000   -39.585000  6.992000
6574   4   2   10.541000   -39.587000  7.035000
6575   4   2   7.912000   -39.568000  7.107000
6576   4   2   5.437000   -34.702000  7.564000
6577   4   2   13.098000   -34.756000  7.348000
6578   4   2   10.553000   -34.784000  7.437000
6579   4   2   7.988000   -34.764000  7.509000
6580   4   2   13.297000   -39.686000  9.376000
6581   4   2   7.964000   -39.696000  9.501000
6582   4   2   5.287000   -39.633000  9.594000
6583   4   2   10.619000   -39.714000  9.429000
6584   4   2   13.18000   -34.738000  9.593000
6585   4   2   5.479000   -34.689000  9.81000
6586   4   2   10.614000   -34.789000  9.673000
6587   4   2   8.051000   -34.772000  9.745000
6588   4   2   2.191000   -39.07000  7.383000
6589   4   2   2.466000   -34.763000  7.478000
6590   4   2   2.662000   -38.26000  10.866000
6591   4   2   2.225000   -39.158000  9.431000
6592   4   2   2.511000   -34.816000  9.547000
6593   4   2   2.825000   -35.845000  10.926000
6594   4   2   2.292000   -34.937000  0.653000
6595   4   2   2.032000   -39.233000  0.978000
6596   4   2   2.468000   -36.187000  -2.751000
6597   4   2   2.229000   -35.09000  -1.408000
6598   4   2   2.316000   -38.593000  -2.563000
6599   4   2   1.962000   -39.424000  -1.064000
6600   4   2   4.528000   -28.912000  4.955000
6601   4   2   4.344000   -33.586000  3.042000
6602   4   2   4.388000   -31.436000  2.788000
6603   4   2   4.45000   -31.363000  5.002000
6604   4   2   4.465000   -28.992000  2.658000
6605   4   2   4.395000   -33.525000  4.92000
6606   4   2   13.977000   -33.669000  2.776000
6607   4   2   13.994000   -29.0000  4.703000
6608   4   2   14.028000   -31.451000  4.745000
6609   4   2   14.029000   -33.607000  4.649000
6610   4   2   13.933000   -29.079000  2.407000
6611   4   2   13.969000   -31.523000  2.533000
6612   4   2   10.476000   -26.749000  1.123000
6613   4   2   7.896000   -26.726000  1.19000
6614   4   2   8.026000   -26.547000  6.06000
6615   4   2   10.605000   -26.571000  5.992000
6616   4   2   5.791000   -26.788000  2.542000
6617   4   2   5.853000   -26.706000  4.833000
6618   4   2   12.647000   -26.851000  2.362000
6619   4   2   12.707000   -26.77000  4.652000
6620   4   2   8.005000   -25.485000  4.694000
6621   4   2   10.575000   -25.509000  4.627000
6622   4   2   7.945000   -25.566000  2.472000
6623   4   2   10.515000   -25.589000  2.405000
6624   4   2   16.109000   -39.125000  4.76000
6625   4   2   16.052000   -39.176000  2.809000
6626   4   2   16.078000   -34.819000  4.783000
6627   4   2   16.012000   -34.876000  2.572000
6628   4   2   16.073000   -39.33000  0.576000
6629   4   2   15.856000   -35.029000  0.272000
6630   4   2   15.6000   -38.68000  -2.942000
6631   4   2   16.029000   -39.515000  -1.465000
6632   4   2   15.799000   -35.179000  -1.791000
6633   4   2   15.47000   -36.269000  -3.121000
6634   4   2   16.057000   -34.857000  7.092000
6635   4   2   16.263000   -39.167000  6.991000
6636   4   2   15.875000   -35.927000  10.559000
6637   4   2   16.124000   -34.904000  9.161000
6638   4   2   15.998000   -38.343000  10.494000
6639   4   2   16.34000   -39.251000  9.039000
6640   4   2   7.68000   -36.449000  -2.97000
6641   4   2   12.918000   -38.837000  -2.919000
6642   4   2   7.646000   -38.869000  -2.754000
6643   4   2   4.997000   -38.784000  -2.693000
6644   4   2   10.271000   -38.887000  -2.828000
6645   4   2   12.855000   -36.407000  -3.121000
6646   4   2   5.081000   -36.357000  -2.9000
6647   4   2   10.258000   -36.466000  -3.044000
6648   4   2   13.255000   -36.056000  10.717000
6649   4   2   8.06000   -36.09000  10.864000
6650   4   2   5.452000   -36.007000  10.936000
6651   4   2   10.647000   -36.108000  10.792000
6652   4   2   13.308000   -38.491000  10.636000
6653   4   2   8.018000   -38.52000  10.773000
6654   4   2   5.36000   -38.442000  10.855000
6655   4   2   10.651000   -38.537000  10.701000
6656   4   2   -0.461000   -38.734000  5.326000
6657   4   2   -0.49000   -38.795000  3.196000
6658   4   2   -0.537000   -38.905000  1.007000
6659   4   2   -0.93000   -38.1000  -2.574000
6660   4   2   -0.564000   -39.105000  -1.198000
6661   4   2   -0.446000   -38.709000  7.514000
6662   4   2   -0.66000   -37.694000  11.041000
6663   4   2   -0.393000   -38.788000  9.715000
6664   4   2   0.118000   -35.737000  9.768000
6665   4   2   0.009000   -35.662000  7.47000
6666   4   2   -0.167000   -36.046000  -1.453000
6667   4   2   -0.148000   -35.848000  0.85000
6668   4   2   -0.043000   -35.676000  5.286000
6669   4   2   -0.105000   -35.74000  3.026000
6670   4   2   -3.331000   -39.372000  3.287000
6671   4   2   -6.203000   -39.398000  3.335000
6672   4   2   -6.186000   -39.323000  5.471000
6673   4   2   -3.314000   -39.293000  5.422000
6674   4   2   -6.236000   -39.512000  1.153000
6675   4   2   -3.36000   -39.491000  1.105000
6676   4   2   -9.067000   -38.861000  3.334000
6677   4   2   -9.067000   -38.811000  5.464000
6678   4   2   -3.388000   -39.695000  -1.102000
6679   4   2   -6.267000   -39.71000  -1.053000
6680   4   2   -3.289000   -39.242000  7.601000
6681   4   2   -6.152000   -39.275000  7.651000
6682   4   2   -3.255000   -39.294000  9.825000
6683   4   2   -6.127000   -39.33000  9.878000
6684   4   2   -9.026000   -38.804000  7.653000
6685   4   2   -8.737000   -37.809000  11.18000
6686   4   2   -9.027000   -38.898000  9.855000
6687   4   2   -9.079000   -38.949000  1.142000
6688   4   2   -8.781000   -38.113000  -2.439000
6689   4   2   -9.104000   -39.128000  -1.057000
6690   4   2   -4.774000   -36.636000  5.356000
6691   4   2   -2.367000   -36.356000  7.574000
6692   4   2   -4.797000   -36.715000  3.206000
6693   4   2   -7.137000   -36.629000  0.98000
6694   4   2   -4.756000   -36.581000  7.62000
6695   4   2   -2.448000   -36.477000  3.154000
6696   4   2   -2.489000   -36.595000  0.885000
6697   4   2   -9.48000   -36.062000  -1.266000
6698   4   2   -4.843000   -37.024000  -1.215000
6699   4   2   -4.725000   -36.618000  9.793000
6700   4   2   -7.17000   -36.468000  9.836000
6701   4   2   -9.539000   -35.764000  7.659000
6702   4   2   -9.478000   -35.805000  3.214000
6703   4   2   -9.496000   -35.761000  5.469000
6704   4   2   -7.15000   -36.454000  5.395000
6705   4   2   -2.296000   -36.402000  9.743000
6706   4   2   -9.448000   -35.891000  1.036000
6707   4   2   -4.815000   -36.84000  0.945000
6708   4   2   -7.152000   -36.412000  7.67000
6709   4   2   -2.401000   -36.403000  5.3000
6710   4   2   -7.154000   -36.8000  -1.179000
6711   4   2   -7.145000   -36.518000  3.251000
6712   4   2   -9.595000   -35.859000  9.949000
6713   4   2   -2.522000   -36.78000  -1.275000
6714   4   2   -6.182000   -38.657000  -2.437000
6715   4   2   -3.533000   -38.646000  -2.484000
6716   4   2   -6.034000   -38.168000  11.162000
6717   4   2   -3.331000   -38.135000  11.113000
6718   4   2   27.257000   -39.185000  4.464000
6719   4   2   27.174000   -39.273000  2.328000
6720   4   2   27.069000   -39.401000  0.14000
6721   4   2   26.656000   -38.602000  -3.443000
6722   4   2   26.986000   -39.619000  -2.065000
6723   4   2   27.327000   -39.124000  6.656000
6724   4   2   27.201000   -38.029000  10.177000
6725   4   2   27.424000   -39.159000  8.869000
6726   4   2   28.003000   -36.119000  8.853000
6727   4   2   27.868000   -36.091000  6.544000
6728   4   2   27.56000   -36.593000  -2.354000
6729   4   2   27.618000   -36.372000  -0.054000
6730   4   2   27.787000   -36.146000  4.373000
6731   4   2   27.694000   -36.241000  2.113000
6732   4   2   24.331000   -39.721000  2.461000
6733   4   2   21.474000   -39.612000  2.563000
6734   4   2   21.555000   -39.539000  4.697000
6735   4   2   24.414000   -39.637000  4.597000
6736   4   2   21.385000   -39.719000  0.378000
6737   4   2   24.24000   -39.839000  0.277000
6738   4   2   18.669000   -38.95000  2.633000
6739   4   2   18.742000   -38.89000  4.767000
6740   4   2   24.15000   -40.042000  -1.928000
6741   4   2   21.293000   -39.913000  -1.826000
6742   4   2   24.501000   -39.577000  6.782000
6743   4   2   21.647000   -39.494000  6.882000
6744   4   2   24.59000   -39.609000  9.0000
6745   4   2   21.728000   -39.539000  9.1000
6746   4   2   18.841000   -38.868000  6.958000
6747   4   2   19.287000   -37.856000  10.474000
6748   4   2   18.904000   -38.942000  9.167000
6749   4   2   18.602000   -39.049000  0.443000
6750   4   2   18.822000   -38.232000  -3.151000
6751   4   2   18.508000   -39.239000  -1.762000
6752   4   2   23.073000   -36.918000  4.55000
6753   4   2   25.492000   -36.715000  6.711000
6754   4   2   22.999000   -36.998000  2.403000
6755   4   2   20.608000   -36.794000  0.223000
6756   4   2   23.151000   -36.862000  6.812000
6757   4   2   25.334000   -36.867000  2.299000
6758   4   2   25.245000   -36.99000  0.035000
6759   4   2   18.171000   -36.17000  -1.977000
6760   4   2   22.837000   -37.296000  -2.016000
6761   4   2   23.224000   -36.886000  8.981000
6762   4   2   20.87000   -36.618000  9.075000
6763   4   2   18.487000   -35.805000  6.937000
6764   4   2   18.361000   -35.883000  2.497000
6765   4   2   18.429000   -35.821000  4.759000
6766   4   2   20.746000   -36.62000  4.637000
6767   4   2   25.587000   -36.733000  8.88000
6768   4   2   18.291000   -35.983000  0.326000
6769   4   2   22.918000   -37.115000  0.145000
6770   4   2   20.822000   -36.578000  6.906000
6771   4   2   25.415000   -36.78000  4.444000
6772   4   2   20.52000   -36.968000  -1.938000
6773   4   2   20.678000   -36.689000  2.49000
6774   4   2   18.508000   -35.873000  9.245000
6775   4   2   25.17000   -37.18000  -2.126000
6776   4   2   21.398000   -38.861000  -3.209000
6777   4   2   24.035000   -38.987000  -3.307000
6778   4   2   21.909000   -38.388000  10.39000
6779   4   2   24.568000   -38.444000  10.29000
6780   4   2   51.8000   -5.349000  -0.704000
6781   4   2   46.145000   9.926000  3.213000
6782   4   2   58.839000   -2.911000  8.795000
6783   4   2   -42.098000   13.347000  10.229000
6784   4   2   46.134000   10.02000  7.699000
6785   4   2   -67.619000   4.222000  10.74000
6786   4   2   55.012000   0.675000  7.738000
6787   4   2   62.918000   -3.594000  0.9000
6788   4   2   -71.652000   -2.918000  -2.764000
6789   4   2   54.271000   -5.489000  4.115000
6790   4   2   -50.022000   11.232000  10.614000
6791   4   2   60.58000   1.18000  7.408000
6792   4   2   62.088000   -0.991000  -3.504000
6793   4   2   51.832000   7.579000  0.967000
6794   4   2   51.758000   -1.013000  -0.644000
6795   4   2   55.547000   -7.576000  -0.739000
6796   4   2   53.061000   -7.601000  -0.746000
6797   4   2   59.05000   3.539000  -1.128000
6798   4   2   11.945000   4.139000  4.856000
6799   4   2   61.596000   -1.272000  0.95000
6800   4   2   51.71000   -9.344000  0.399000
6801   4   2   50.483000   -3.129000  -0.675000
6802   4   2   -44.133000   3.475000  6.175000
6803   4   2   60.518000   1.224000  -1.106000
6804   4   2   13.372000   8.775000  4.668000
6805   4   2   -30.113000   11.243000  -2.302000
6806   4   2   6.692000   3.998000  0.192000
6807   4   2   53.766000   0.342000  -0.487000
6808   4   2   -42.422000   8.03000  5.953000
6809   4   2   48.297000   10.081000  -3.402000
6810   4   2   55.17000   -1.949000  -0.546000
6811   4   2   54.922000   7.864000  7.492000
6812   4   2   33.362000   5.903000  -0.371000
6813   4   2   37.152000   3.734000  -0.364000
6814   4   2   40.953000   5.846000  -0.405000
6815   4   2   39.737000   3.687000  -0.382000
6816   4   2   34.567000   3.719000  -0.355000
6817   4   2   35.873000   5.985000  -0.324000
6818   4   2   38.443000   5.962000  -0.336000
6819   4   2   41.268000   14.226000  1.178000
6820   4   2   33.341000   14.387000  1.177000
6821   4   2   35.971000   14.332000  1.203000
6822   4   2   38.599000   14.288000  1.204000
6823   4   2   33.184000   8.413000  -0.267000
6824   4   2   35.874000   8.417000  -0.291000
6825   4   2   33.388000   5.824000  4.503000
6826   4   2   38.462000   5.877000  4.426000
6827   4   2   39.759000   3.597000  4.375000
6828   4   2   40.972000   5.757000  4.469000
6829   4   2   34.593000   3.637000  4.402000
6830   4   2   37.176000   3.65000  4.384000
6831   4   2   35.892000   5.908000  4.435000
6832   4   2   38.603000   14.256000  3.163000
6833   4   2   41.271000   14.193000  3.181000
6834   4   2   35.978000   14.303000  3.157000
6835   4   2   33.349000   14.361000  3.165000
6836   4   2   38.475000   8.301000  4.472000
6837   4   2   41.148000   8.206000  4.445000
6838   4   2   33.199000   8.35000  4.466000
6839   4   2   35.886000   8.345000  4.477000
6840   4   2   38.63000   14.606000  -0.877000
6841   4   2   41.361000   14.466000  -0.929000
6842   4   2   35.952000   14.653000  -0.875000
6843   4   2   33.26000   14.64000  -0.922000
6844   4   2   35.93000   9.868000  -1.49000
6845   4   2   33.412000   9.827000  -1.471000
6846   4   2   40.904000   9.683000  -1.48000
6847   4   2   41.143000   8.285000  -0.283000
6848   4   2   38.442000   9.828000  -1.494000
6849   4   2   38.464000   8.381000  -0.298000
6850   4   2   44.382000   13.653000  1.178000
6851   4   2   44.383000   13.623000  3.145000
6852   4   2   43.886000   9.39000  0.989000
6853   4   2   43.893000   9.354000  3.203000
6854   4   2   33.229000   14.843000  -3.294000
6855   4   2   41.397000   14.667000  -3.293000
6856   4   2   35.939000   14.89000  -3.251000
6857   4   2   38.649000   14.842000  -3.248000
6858   4   2   10.63000   14.66000  1.22000
6859   4   2   55.141000   0.878000  -3.94000
6860   4   2   33.401000   9.911000  -3.724000
6861   4   2   38.437000   9.943000  -3.745000
6862   4   2   40.922000   9.76000  -3.744000
6863   4   2   35.934000   9.983000  -3.736000
6864   4   2   41.366000   14.362000  5.295000
6865   4   2   33.279000   14.561000  5.27000
6866   4   2   35.965000   14.558000  5.244000
6867   4   2   38.638000   14.503000  5.253000
6868   4   2   40.917000   9.564000  5.689000
6869   4   2   33.388000   9.738000  5.702000
6870   4   2   35.918000   9.759000  5.717000
6871   4   2   38.443000   9.71000  5.715000
6872   4   2   58.9000   3.317000  0.979000
6873   4   2   60.266000   1.019000  0.976000
6874   4   2   33.254000   14.705000  7.65000
6875   4   2   38.663000   14.662000  7.634000
6876   4   2   41.408000   14.486000  7.666000
6877   4   2   35.957000   14.725000  7.63000
6878   4   2   33.367000   9.762000  7.953000
6879   4   2   40.941000   9.567000  7.955000
6880   4   2   35.917000   9.807000  7.964000
6881   4   2   38.439000   9.751000  7.967000
6882   4   2   44.474000   13.662000  5.388000
6883   4   2   43.79000   9.406000  5.507000
6884   4   2   44.029000   12.908000  8.89000
6885   4   2   44.508000   13.755000  7.437000
6886   4   2   43.803000   9.461000  7.586000
6887   4   2   43.64000   10.526000  8.964000
6888   4   2   43.77000   9.511000  -1.313000
6889   4   2   44.469000   13.761000  -1.063000
6890   4   2   43.604000   10.742000  -4.734000
6891   4   2   43.768000   9.632000  -3.39000
6892   4   2   44.004000   13.121000  -4.585000
6893   4   2   44.498000   13.915000  -3.107000
6894   4   2   41.903000   3.839000  3.142000
6895   4   2   41.947000   8.417000  1.15000
6896   4   2   41.952000   6.32000  0.931000
6897   4   2   41.96000   6.281000  3.143000
6898   4   2   41.893000   3.88000  0.842000
6899   4   2   41.952000   8.385000  3.018000
6900   4   2   32.376000   8.568000  1.164000
6901   4   2   32.436000   3.9000  3.188000
6902   4   2   32.39000   6.357000  3.188000
6903   4   2   32.377000   8.535000  3.047000
6904   4   2   32.425000   3.937000  0.891000
6905   4   2   64.129000   -6.607000  5.075000
6906   4   2   32.38000   6.393000  0.973000
6907   4   2   35.854000   1.585000  -0.458000
6908   4   2   38.436000   1.572000  -0.474000
6909   4   2   38.463000   1.482000  4.399000
6910   4   2   35.883000   1.5000  4.415000
6911   4   2   40.579000   1.67000  0.806000
6912   4   2   40.592000   1.628000  3.1000
6913   4   2   33.726000   1.706000  0.847000
6914   4   2   33.741000   1.665000  3.14000
6915   4   2   38.444000   0.395000  3.052000
6916   4   2   35.872000   0.412000  3.069000
6917   4   2   38.433000   0.436000  0.831000
6918   4   2   35.86000   0.452000  0.849000
6919   4   2   30.29000   14.053000  3.127000
6920   4   2   30.276000   14.066000  1.18000
6921   4   2   30.346000   9.746000  3.222000
6922   4   2   30.355000   9.766000  1.003000
6923   4   2   30.183000   14.184000  -1.049000
6924   4   2   30.46000   9.884000  -1.303000
6925   4   2   30.568000   13.498000  -4.568000
6926   4   2   30.157000   14.341000  -3.092000
6927   4   2   30.469000   10.008000  -3.37000
6928   4   2   30.74000   11.088000  -4.72000
6929   4   2   30.43000   9.83000  5.53000
6930   4   2   30.205000   14.136000  5.357000
6931   4   2   30.702000   10.964000  8.967000
6932   4   2   30.419000   9.915000  7.596000
6933   4   2   30.573000   13.378000  8.864000
6934   4   2   30.191000   14.26000  7.404000
6935   4   2   -50.039000   9.78000  7.301000
6936   4   2   -50.403000   8.404000  6.12000
6937   4   2   -47.556000   9.76000  7.27000
6938   4   2   -73.718000   -5.392000  -1.239000
6939   4   2   -47.711000   8.323000  6.09000
6940   4   2   60.234000   -8.272000  7.3000
6941   4   2   -53.26000   13.989000  4.682000
6942   4   2   -59.22000   -7.238000  3.262000
6943   4   2   -53.291000   13.953000  2.713000
6944   4   2   60.178000   -8.168000  -1.604000
6945   4   2   -53.095000   9.7000  4.885000
6946   4   2   61.057000   -7.567000  8.675000
6947   4   2   -53.149000   9.658000  2.676000
6948   4   2   64.174000   -6.558000  -1.359000
6949   4   2   61.135000   -7.373000  -5.024000
6950   4   2   60.273000   -8.092000  -3.681000
6951   4   2   56.552000   5.22000  -4.748000
6952   4   2   64.316000   -6.501000  -3.404000
6953   4   2   -42.037000   14.476000  8.909000
6954   4   2   -50.141000   14.783000  9.108000
6955   4   2   58.773000   -5.752000  5.411000
6956   4   2   -44.717000   14.66000  8.945000
6957   4   2   -47.405000   14.773000  9.009000
6958   4   2   55.435000   -7.714000  4.134000
6959   4   2   53.094000   -3.14000  -0.617000
6960   4   2   53.473000   3.137000  5.336000
6961   4   2   -62.908000   2.151000  4.966000
6962   4   2   53.716000   0.223000  4.237000
6963   4   2   60.96000   -1.733000  8.67000
6964   4   2   58.28000   -7.173000  0.865000
6965   4   2   -42.429000   9.558000  9.378000
6966   4   2   56.443000   -8.228000  0.598000
6967   4   2   -47.496000   9.869000  9.508000
6968   4   2   56.4000   -8.282000  2.808000
6969   4   2   -50.01000   9.855000  9.556000
6970   4   2   54.307000   -9.388000  0.463000
6971   4   2   -44.973000   9.761000  9.446000
6972   4   2   58.248000   -7.218000  2.74000
6973   4   2   53.503000   1.083000  0.961000
6974   4   2   52.99000   -3.266000  4.147000
6975   4   2   49.536000   -1.247000  2.891000
6976   4   2   51.63000   0.004000  2.931000
6977   4   2   10.617000   14.885000  -0.873000
6978   4   2   -33.636000   13.013000  10.06000
6979   4   2   53.465000   1.041000  2.828000
6980   4   2   49.583000   -1.185000  0.591000
6981   4   2   -50.282000   14.436000  0.496000
6982   4   2   56.894000   5.749000  1.021000
6983   4   2   -42.275000   14.089000  0.318000
6984   4   2   -44.931000   14.25000  0.412000
6985   4   2   -47.577000   14.375000  0.472000
6986   4   2   63.097000   -3.611000  5.005000
6987   4   2   -50.216000   9.612000  0.139000
6988   4   2   -42.669000   9.272000  -0.024000
6989   4   2   -45.202000   9.452000  0.016000
6990   4   2   -47.73000   9.574000  0.07000
6991   4   2   53.539000   3.243000  -1.471000
6992   4   2   51.672000   0.062000  0.716000
6993   4   2   51.655000   -1.146000  4.23000
6994   4   2   57.788000   -3.344000  -4.009000
6995   4   2   -42.295000   14.187000  -2.071000
6996   4   2   -47.635000   14.502000  -1.919000
6997   4   2   -50.354000   14.538000  -1.883000
6998   4   2   -44.962000   14.376000  -1.983000
6999   4   2   -62.255000   6.623000  -1.653000
7000   4   2   55.015000   0.684000  5.479000
7001   4   2   -42.703000   9.253000  -2.267000
7002   4   2   58.99000   3.415000  5.103000
7003   4   2   -50.288000   9.59000  -2.116000
7004   4   2   -45.251000   9.458000  -2.222000
7005   4   2   -47.775000   9.579000  -2.173000
7006   4   2   48.248000   -5.946000  2.673000
7007   4   2   50.373000   -3.262000  4.082000
7008   4   2   -53.415000   13.993000  0.47000
7009   4   2   -53.098000   9.691000  0.37000
7010   4   2   -53.092000   13.184000  -3.037000
7011   4   2   -44.916000   14.029000  2.509000
7012   4   2   -53.152000   9.738000  -1.707000
7013   4   2   52.949000   -7.742000  4.013000
7014   4   2   -52.916000   10.774000  -3.099000
7015   4   2   61.802000   -1.215000  4.995000
7016   4   2   -52.931000   9.82000  7.182000
7017   4   2   -53.299000   14.109000  6.925000
7018   4   2   -52.61000   11.039000  10.594000
7019   4   2   -52.885000   9.944000  9.256000
7020   4   2   53.373000   3.228000  3.034000
7021   4   2   -52.826000   13.441000  10.443000
7022   4   2   -53.281000   14.27000  8.972000
7023   4   2   -51.503000   3.991000  2.787000
7024   4   2   14.031000   4.243000  1.282000
7025   4   2   51.689000   -5.484000  4.045000
7026   4   2   -51.216000   8.585000  4.698000
7027   4   2   -51.354000   6.499000  4.957000
7028   4   2   -51.403000   6.429000  2.744000
7029   4   2   -51.451000   4.066000  5.086000
7030   4   2   -51.261000   8.529000  2.833000
7031   4   2   -41.638000   8.117000  4.506000
7032   4   2   -42.044000   3.479000  2.593000
7033   4   2   -41.848000   5.901000  2.547000
7034   4   2   -41.681000   8.059000  2.629000
7035   4   2   63.376000   -6.485000  -4.878000
7036   4   2   -41.996000   3.549000  4.893000
7037   4   2   -41.796000   5.969000  4.76000
7038   4   2   52.235000   9.699000  -4.781000
7039   4   2   -45.559000   1.435000  6.335000
7040   4   2   -48.13000   1.576000  6.39000
7041   4   2   49.287000   -5.294000  -0.825000
7042   4   2   50.575000   -7.523000  -0.862000
7043   4   2   -48.243000   1.405000  1.517000
7044   4   2   -45.672000   1.272000  1.461000
7045   4   2   60.156000   -8.283000  5.223000
7046   4   2   -50.283000   1.784000  5.14000
7047   4   2   -50.336000   1.706000  2.846000
7048   4   2   50.419000   12.073000  1.022000
7049   4   2   52.974000   10.37000  0.986000
7050   4   2   -43.458000   1.396000  4.997000
7051   4   2   -43.51000   1.324000  2.699000
7052   4   2   52.98000   10.342000  3.139000
7053   4   2   50.424000   12.05000  3.173000
7054   4   2   -48.273000   0.351000  2.891000
7055   4   2   -45.716000   0.216000  2.834000
7056   4   2   52.963000   10.409000  -1.226000
7057   4   2   50.418000   12.105000  -1.19000
7058   4   2   54.835000   7.888000  0.959000
7059   4   2   -48.219000   0.424000  5.102000
7060   4   2   54.832000   7.852000  3.094000
7061   4   2   -45.663000   0.287000  5.044000
7062   4   2   57.027000   6.022000  -3.268000
7063   4   2   50.448000   12.205000  -3.398000
7064   4   2   53.002000   10.506000  -3.439000
7065   4   2   50.441000   12.03000  5.386000
7066   4   2   52.994000   10.318000  5.351000
7067   4   2   -39.304000   13.47000  2.394000
7068   4   2   49.171000   -5.436000  4.047000
7069   4   2   50.492000   12.078000  7.594000
7070   4   2   53.053000   10.352000  7.561000
7071   4   2   -39.258000   13.522000  4.344000
7072   4   2   54.838000   7.835000  5.313000
7073   4   2   53.945000   7.357000  8.85000
7074   4   2   54.837000   7.958000  -1.259000
7075   4   2   -39.553000   9.169000  2.383000
7076   4   2   54.92000   8.066000  -3.436000
7077   4   2   51.662000   -9.41000  2.697000
7078   4   2   47.342000   12.757000  3.19000
7079   4   2   -39.502000   9.228000  4.592000
7080   4   2   47.359000   12.832000  -1.158000
7081   4   2   47.333000   11.917000  -4.715000
7082   4   2   47.38000   12.973000  -3.32000
7083   4   2   47.372000   12.748000  5.412000
7084   4   2   47.385000   11.74000  8.945000
7085   4   2   47.406000   12.832000  7.578000
7086   4   2   48.309000   -3.415000  0.498000
7087   4   2   50.265000   9.033000  3.119000
7088   4   2   48.328000   9.888000  5.446000
7089   4   2   50.258000   9.058000  1.001000
7090   4   2   51.839000   7.61000  -1.328000
7091   4   2   46.138000   9.927000  5.423000
7092   4   2   50.273000   9.015000  5.406000
7093   4   2   46.087000   10.175000  -3.499000
7094   4   2   48.31000   9.93000  1.031000
7095   4   2   48.303000   9.968000  -1.276000
7096   4   2   52.982000   5.668000  -3.613000
7097   4   2   50.278000   9.17000  -3.425000
7098   4   2   50.316000   9.046000  7.545000
7099   4   2   51.905000   7.544000  7.514000
7100   4   2   52.819000   5.508000  5.297000
7101   4   2   49.528000   -8.167000  2.637000
7102   4   2   52.816000   5.567000  0.862000
7103   4   2   -39.11000   13.673000  6.57000
7104   4   2   51.831000   7.553000  3.083000
7105   4   2   48.346000   9.948000  7.574000
7106   4   2   46.114000   10.019000  -1.228000
7107   4   2   52.86000   5.597000  -1.336000
7108   4   2   50.252000   9.088000  -1.284000
7109   4   2   51.837000   7.531000  5.379000
7110   4   2   48.321000   9.904000  3.139000
7111   4   2   51.907000   7.677000  -3.464000
7112   4   2   -39.534000   9.388000  6.895000
7113   4   2   48.296000   -5.887000  0.462000
7114   4   2   52.92000   5.509000  7.58000
7115   4   2   46.134000   9.957000  0.98000
7116   4   2   -11.676000   -39.256000  1.184000
7117   4   2   -39.427000   13.04000  10.11000
7118   4   2   -39.034000   13.855000  8.613000
7119   4   2   -39.477000   9.536000  8.954000
7120   4   2   -39.675000   10.639000  10.298000
7121   4   2   -22.86000   -35.925000  11.006000
7122   4   2   49.975000   11.206000  -4.748000
7123   4   2   52.292000   9.52000  8.892000
7124   4   2   50.04000   11.047000  8.927000
7125   4   2   38.487000   11.324000  -4.788000
7126   4   2   58.997000   -2.668000  -5.047000
7127   4   2   60.152000   -4.974000  -5.076000
7128   4   2   57.704000   -0.461000  -5.022000
7129   4   2   33.272000   13.709000  -4.609000
7130   4   2   38.6000   13.742000  -4.585000
7131   4   2   41.288000   13.548000  -4.614000
7132   4   2   35.945000   13.784000  -4.584000
7133   4   2   58.253000   3.056000  -4.816000
7134   4   2   61.116000   -1.506000  -4.841000
7135   4   2   62.337000   -3.926000  -4.891000
7136   4   2   59.761000   0.807000  -4.817000
7137   4   2   33.345000   11.279000  -4.79000
7138   4   2   41.052000   11.133000  -4.799000
7139   4   2   35.932000   11.36000  -4.785000
7140   4   2   33.324000   11.103000  9.053000
7141   4   2   38.494000   11.095000  9.056000
7142   4   2   41.074000   10.903000  9.054000
7143   4   2   35.925000   11.15000  9.055000
7144   4   2   -39.263000   13.505000  0.158000
7145   4   2   58.12000   2.802000  8.752000
7146   4   2   56.957000   5.822000  7.289000
7147   4   2   33.276000   13.534000  8.931000
7148   4   2   59.608000   0.56000  8.701000
7149   4   2   56.115000   1.428000  8.848000
7150   4   2   60.019000   -5.196000  8.775000
7151   4   2   38.611000   13.515000  8.93000
7152   4   2   57.545000   -0.715000  8.819000
7153   4   2   41.305000   13.319000  8.946000
7154   4   2   35.95000   13.574000  8.925000
7155   4   2   -39.999000   10.285000  -3.376000
7156   4   2   -39.733000   9.252000  -1.988000
7157   4   2   -39.749000   12.692000  -3.325000
7158   4   2   -39.284000   13.583000  -1.893000
7159   4   2   57.66000   -3.557000  7.704000
7160   4   2   54.263000   -9.452000  2.763000
7161   4   2   56.397000   -1.408000  7.724000
7162   4   2   10.715000   15.044000  5.261000
7163   4   2   -61.144000   8.673000  9.394000
7164   4   2   -47.438000   11.247000  10.552000
7165   4   2   -47.397000   13.665000  10.342000
7166   4   2   -50.087000   13.654000  10.425000
7167   4   2   -44.751000   13.551000  10.277000
7168   4   2   -42.28000   10.925000  10.435000
7169   4   2   56.258000   1.678000  -5.0000
7170   4   2   7.743000   -39.731000  0.966000
7171   4   2   -47.449000   14.53000  6.625000
7172   4   2   -44.87000   11.134000  10.493000
7173   4   2   -42.61000   10.563000  -3.4000
7174   4   2   -47.756000   10.903000  -3.288000
7175   4   2   61.882000   -1.116000  -1.131000
7176   4   2   -50.334000   10.917000  -3.235000
7177   4   2   -45.196000   10.774000  -3.343000
7178   4   2   -50.165000   14.576000  6.734000
7179   4   2   -42.42000   12.992000  -3.327000
7180   4   2   -47.697000   13.331000  -3.195000
7181   4   2   62.199000   -4.118000  8.659000
7182   4   2   -50.372000   13.351000  -3.15000
7183   4   2   -45.063000   13.201000  -3.255000
7184   4   2   -44.793000   14.412000  6.557000
7185   4   2   -60.131000   -6.7000  1.889000
7186   4   2   -59.383000   12.976000  4.923000
7187   4   2   -42.13000   14.254000  6.527000
7188   4   2   64.243000   -6.582000  7.122000
7189   4   2   -62.124000   11.428000  2.822000
7190   4   2   -45.031000   9.646000  7.214000
7191   4   2   63.283000   -6.628000  8.584000
7192   4   2   -59.42000   12.971000  2.778000
7193   4   2   -42.503000   9.464000  7.14000
7194   4   2   -62.047000   11.471000  7.181000
7195   4   2   58.807000   -5.778000  7.676000
7196   4   2   -64.097000   8.984000  2.856000
7197   4   2   54.661000   3.725000  -4.894000
7198   4   2   -59.356000   13.083000  9.337000
7199   4   2   -62.06000   11.563000  9.387000
7200   4   2   -61.238000   -0.016000  6.582000
7201   4   2   -61.396000   -4.36000  6.619000
7202   4   2   -65.177000   -6.479000  6.643000
7203   4   2   -62.712000   -6.578000  6.648000
7204   4   2   -62.621000   -2.104000  6.539000
7205   4   2   -63.954000   -4.292000  6.56000
7206   4   2   -59.466000   12.978000  0.563000
7207   4   2   -62.171000   11.419000  0.606000
7208   4   2   -72.413000   -2.382000  5.015000
7209   4   2   -68.26000   4.502000  4.944000
7210   4   2   -69.674000   2.225000  4.943000
7211   4   2   -71.052000   -0.053000  4.966000
7212   4   2   -64.648000   -0.848000  6.465000
7213   4   2   -61.122000   -0.126000  1.704000
7214   4   2   -63.844000   -4.406000  1.794000
7215   4   2   -65.066000   -6.601000  1.766000
7216   4   2   -59.915000   -2.284000  1.843000
7217   4   2   -61.285000   -4.475000  1.866000
7218   4   2   -62.511000   -2.214000  1.773000
7219   4   2   -59.539000   13.051000  -1.639000
7220   4   2   -62.255000   11.473000  -1.599000
7221   4   2   -64.125000   8.972000  0.636000
7222   4   2   -71.024000   -0.083000  3.0000
7223   4   2   -72.384000   -2.403000  3.002000
7224   4   2   -68.24000   4.463000  2.936000
7225   4   2   -65.907000   -3.141000  1.717000
7226   4   2   -67.226000   -5.447000  1.748000
7227   4   2   -63.138000   1.301000  1.69000
7228   4   2   -64.574000   -0.942000  1.698000
7229   4   2   -63.263000   8.495000  -2.911000
7230   4   2   -64.222000   9.01000  -1.542000
7231   4   2   -71.331000   0.097000  7.052000
7232   4   2   -72.654000   -2.333000  7.126000
7233   4   2   -68.408000   4.724000  7.052000
7234   4   2   -65.896000   -0.127000  7.65000
7235   4   2   -64.513000   1.922000  7.605000
7236   4   2   -68.341000   -4.427000  7.661000
7237   4   2   -67.316000   -5.398000  6.471000
7238   4   2   -65.986000   -3.057000  6.486000
7239   4   2   -73.553000   -5.354000  5.031000
7240   4   2   -73.534000   -5.36000  3.056000
7241   4   2   -64.065000   9.091000  7.204000
7242   4   2   -69.659000   -7.152000  5.199000
7243   4   2   -69.647000   -7.186000  2.994000
7244   4   2   -63.19000   8.677000  10.749000
7245   4   2   -68.543000   4.877000  9.426000
7246   4   2   -72.829000   -2.257000  9.497000
7247   4   2   -70.102000   2.58000  9.407000
7248   4   2   -71.529000   0.214000  9.431000
7249   4   2   -64.134000   9.203000  9.376000
7250   4   2   -64.546000   1.992000  9.858000
7251   4   2   -67.257000   -2.188000  9.915000
7252   4   2   -68.393000   -4.403000  9.921000
7253   4   2   -65.974000   -0.06000  9.894000
7254   4   2   -72.574000   -2.401000  0.886000
7255   4   2   -68.348000   4.603000  0.819000
7256   4   2   -71.246000   0.003000  0.905000
7257   4   2   -68.268000   -4.558000  0.501000
7258   4   2   -64.417000   1.811000  0.444000
7259   4   2   -65.793000   -0.253000  0.449000
7260   4   2   -67.087000   -2.389000  0.468000
7261   4   2   -56.266000   13.378000  2.723000
7262   4   2   -68.44000   4.671000  -1.559000
7263   4   2   -71.387000   0.051000  -1.478000
7264   4   2   -72.698000   -2.381000  -1.487000
7265   4   2   -69.97000   2.391000  -1.502000
7266   4   2   -56.234000   13.397000  4.847000
7267   4   2   -64.408000   1.808000  -1.812000
7268   4   2   -68.28000   -4.596000  -1.76000
7269   4   2   -65.825000   -0.258000  -1.8000
7270   4   2   -67.116000   -2.388000  -1.784000
7271   4   2   -73.62000   -5.415000  0.812000
7272   4   2   -69.647000   -7.088000  0.692000
7273   4   2   -72.747000   -5.441000  -2.692000
7274   4   2   -69.708000   -7.081000  -1.384000
7275   4   2   -70.523000   -6.381000  -2.766000
7276   4   2   -69.679000   -6.983000  7.496000
7277   4   2   -73.672000   -5.371000  7.273000
7278   4   2   -70.616000   -6.206000  10.921000
7279   4   2   -72.855000   -5.312000  10.79000
7280   4   2   -73.803000   -5.319000  9.321000
7281   4   2   -67.848000   -5.999000  5.032000
7282   4   2   -66.093000   -7.101000  5.303000
7283   4   2   -66.047000   -7.149000  3.089000
7284   4   2   -64.004000   -8.322000  5.433000
7285   4   2   -67.814000   -6.041000  3.169000
7286   4   2   -59.028000   -0.291000  3.05000
7287   4   2   -61.068000   1.014000  3.013000
7288   4   2   -62.869000   2.113000  3.098000
7289   4   2   -59.077000   -0.242000  5.354000
7290   4   2   -61.112000   1.063000  5.226000
7291   4   2   -56.231000   13.44000  7.068000
7292   4   2   -58.898000   -4.383000  6.742000
7293   4   2   -56.252000   12.525000  10.622000
7294   4   2   -58.791000   -4.499000  1.865000
7295   4   2   -61.438000   -8.362000  5.492000
7296   4   2   -61.389000   -8.418000  3.193000
7297   4   2   -57.871000   -2.523000  5.431000
7298   4   2   -57.825000   -2.573000  3.129000
7299   4   2   -56.216000   13.581000  9.229000
7300   4   2   -57.887000   -5.05000  3.237000
7301   4   2   -59.264000   -7.188000  5.47000
7302   4   2   -57.928000   -4.997000  5.446000
7303   4   2   -66.2000   6.859000  2.94000
7304   4   2   -66.208000   6.899000  4.908000
7305   4   2   -62.735000   4.318000  2.891000
7306   4   2   -62.756000   4.347000  5.097000
7307   4   2   -56.314000   13.383000  0.5000
7308   4   2   -66.239000   7.051000  7.148000
7309   4   2   -62.902000   4.33000  7.397000
7310   4   2   -65.877000   6.362000  10.675000
7311   4   2   -66.336000   7.174000  9.195000
7312   4   2   -62.989000   4.407000  9.469000
7313   4   2   -64.015000   4.83000  10.82000
7314   4   2   -56.483000   12.4000  -3.038000
7315   4   2   -62.836000   4.244000  0.589000
7316   4   2   -66.207000   6.934000  0.695000
7317   4   2   -56.361000   13.478000  -1.665000
7318   4   2   -63.899000   4.623000  -2.867000
7319   4   2   -62.887000   4.265000  -1.484000
7320   4   2   -65.787000   6.131000  -2.802000
7321   4   2   -66.285000   6.982000  -1.356000
7322   4   2   -68.453000   -1.501000  10.959000
7323   4   2   -65.648000   2.809000  10.92000
7324   4   2   -69.628000   -3.803000  10.982000
7325   4   2   -67.129000   0.691000  10.939000
7326   4   2   -70.559000   -0.317000  10.762000
7327   4   2   -71.804000   -2.741000  10.809000
7328   4   2   -69.168000   1.99000  10.74000
7329   4   2   -70.388000   -0.529000  -2.768000
7330   4   2   -67.481000   3.98000  -2.83000
7331   4   2   -59.498000   9.957000  2.801000
7332   4   2   -69.002000   1.756000  -2.79000
7333   4   2   -65.495000   2.576000  -2.925000
7334   4   2   -68.282000   -1.729000  -2.882000
7335   4   2   -69.482000   -4.009000  -2.866000
7336   4   2   -66.956000   0.454000  -2.901000
7337   4   2   -55.428000   10.532000  -1.807000
7338   4   2   -57.566000   10.65000  0.459000
7339   4   2   -59.466000   9.961000  4.916000
7340   4   2   -42.788000   5.572000  6.129000
7341   4   2   -46.711000   3.651000  6.221000
7342   4   2   -50.362000   5.982000  6.284000
7343   4   2   -49.291000   3.759000  6.28000
7344   4   2   -61.086000   8.612000  7.261000
7345   4   2   -45.285000   5.807000  6.119000
7346   4   2   -47.853000   5.94000  6.172000
7347   4   2   -55.402000   10.439000  0.476000
7348   4   2   -59.539000   9.964000  0.507000
7349   4   2   -55.17000   10.68000  9.398000
7350   4   2   -57.474000   10.655000  4.878000
7351   4   2   -50.131000   14.325000  4.623000
7352   4   2   -42.266000   13.984000  4.429000
7353   4   2   -44.874000   14.082000  4.476000
7354   4   2   -47.482000   14.205000  4.539000
7355   4   2   -57.429000   10.678000  7.191000
7356   4   2   -45.118000   8.2000  6.035000
7357   4   2   -62.293000   6.728000  9.542000
7358   4   2   -59.434000   10.046000  9.349000
7359   4   2   -42.899000   5.409000  1.255000
7360   4   2   -47.959000   5.779000  1.411000
7361   4   2   -59.602000   10.021000  -1.623000
7362   4   2   -50.473000   5.82000  1.412000
7363   4   2   -44.24000   3.314000  1.415000
7364   4   2   -46.819000   3.488000  1.472000
7365   4   2   -45.393000   5.648000  1.359000
7366   4   2   -61.22000   8.623000  -1.586000
7367   4   2   -62.149000   6.606000  0.629000
7368   4   2   -62.134000   6.636000  5.065000
7369   4   2   -62.129000   6.615000  2.828000
7370   4   2   -47.519000   14.154000  2.57000
7371   4   2   -50.166000   14.278000  2.612000
7372   4   2   -61.113000   8.587000  2.846000
7373   4   2   -42.31000   13.931000  2.432000
7374   4   2   -47.814000   8.192000  1.33000
7375   4   2   -50.485000   8.281000  1.401000
7376   4   2   -42.547000   7.899000  1.234000
7377   4   2   -45.228000   8.066000  1.277000
7378   4   2   -57.61000   10.726000  -1.661000
7379   4   2   -55.243000   10.523000  7.126000
7380   4   2   -62.174000   6.66000  7.268000
7381   4   2   55.383000   -19.738000  -0.66000
7382   4   2   51.513000   -21.697000  -0.596000
7383   4   2   51.176000   -26.03000  -0.507000
7384   4   2   50.059000   -23.823000  -0.55000
7385   4   2   52.918000   -19.533000  -0.659000
7386   4   2   54.066000   -21.871000  -0.547000
7387   4   2   52.643000   -24.005000  -0.493000
7388   4   2   58.04000   -30.803000  1.178000
7389   4   2   62.421000   -24.221000  0.987000
7390   4   2   60.953000   -26.44000  1.072000
7391   4   2   59.495000   -28.617000  1.134000
7392   4   2   57.485000   -20.933000  -0.485000
7393   4   2   56.033000   -23.204000  -0.462000
7394   4   2   55.3000   -19.55000  4.21000
7395   4   2   52.56000   -23.828000  4.271000
7396   4   2   49.979000   -23.652000  4.214000
7397   4   2   51.087000   -25.854000  4.375000
7398   4   2   52.833000   -19.346000  4.098000
7399   4   2   51.432000   -21.516000  4.155000
7400   4   2   53.982000   -21.691000  4.216000
7401   4   2   59.479000   -28.552000  3.106000
7402   4   2   58.03000   -30.732000  3.187000
7403   4   2   60.935000   -26.382000  3.045000
7404   4   2   62.403000   -24.172000  3.003000
7405   4   2   54.544000   -25.196000  4.352000
7406   4   2   53.019000   -27.391000  4.397000
7407   4   2   57.421000   -20.817000  4.233000
7408   4   2   55.98000   -23.053000  4.299000
7409   4   2   59.723000   -28.858000  -0.952000
7410   4   2   58.174000   -31.06000  -0.929000
7411   4   2   61.209000   -26.631000  -1.018000
7412   4   2   62.647000   -24.31000  -1.126000
7413   4   2   57.177000   -24.08000  -1.642000
7414   4   2   58.455000   -21.972000  -1.668000
7415   4   2   54.321000   -28.194000  -1.508000
7416   4   2   53.05000   -27.573000  -0.315000
7417   4   2   55.785000   -26.164000  -1.587000
7418   4   2   54.594000   -25.358000  -0.406000
7419   4   2   56.017000   -33.123000  1.266000
7420   4   2   56.021000   -33.051000  3.228000
7421   4   2   52.546000   -30.588000  1.054000
7422   4   2   52.536000   -30.525000  3.254000
7423   4   2   62.801000   -24.425000  -3.503000
7424   4   2   58.289000   -31.25000  -3.318000
7425   4   2   61.381000   -26.789000  -3.407000
7426   4   2   59.875000   -29.047000  -3.345000
7427   4   2   58.493000   -22.026000  -3.924000
7428   4   2   55.836000   -26.261000  -3.818000
7429   4   2   54.335000   -28.295000  -3.743000
7430   4   2   57.227000   -24.179000  -3.88000
7431   4   2   58.146000   -30.841000  5.306000
7432   4   2   62.601000   -24.159000  5.121000
7433   4   2   61.156000   -26.451000  5.145000
7434   4   2   59.676000   -28.655000  5.206000
7435   4   2   54.263000   -27.964000  5.652000
7436   4   2   58.426000   -21.739000  5.49000
7437   4   2   57.123000   -23.84000  5.557000
7438   4   2   55.722000   -25.923000  5.61000
7439   4   2   62.729000   -24.156000  7.499000
7440   4   2   59.801000   -28.692000  7.606000
7441   4   2   58.242000   -30.87000  7.701000
7442   4   2   61.297000   -26.471000  7.535000
7443   4   2   58.449000   -21.672000  7.748000
7444   4   2   54.259000   -27.921000  7.893000
7445   4   2   57.156000   -23.805000  7.8000
7446   4   2   55.754000   -25.88000  7.847000
7447   4   2   56.04000   -33.095000  5.475000
7448   4   2   52.646000   -30.429000  5.558000
7449   4   2   55.627000   -32.234000  8.964000
7450   4   2   56.126000   -33.109000  7.53000
7451   4   2   52.705000   -30.418000  7.624000
7452   4   2   53.723000   -30.736000  9.013000
7453   4   2   -62.087000   11.442000  4.969000
7454   4   2   52.676000   -30.624000  -1.25000
7455   4   2   56.035000   -33.32000  -0.972000
7456   4   2   53.766000   -31.168000  -4.669000
7457   4   2   52.749000   -30.736000  -3.312000
7458   4   2   55.642000   -32.69000  -4.51000
7459   4   2   56.117000   -33.478000  -3.02000
7460   4   2   -59.355000   12.99000  7.134000
7461   4   2   -64.082000   9.018000  4.986000
7462   4   2   49.008000   -25.622000  3.034000
7463   4   2   52.739000   -28.284000  1.138000
7464   4   2   51.006000   -27.09000  0.862000
7465   4   2   50.976000   -27.011000  3.082000
7466   4   2   49.042000   -25.7000  0.729000
7467   4   2   52.714000   -28.22000  3.006000
7468   4   2   58.055000   -20.341000  0.941000
7469   4   2   54.248000   -17.739000  2.831000
7470   4   2   56.297000   -19.067000  2.877000
7471   4   2   58.033000   -20.271000  2.804000
7472   4   2   54.283000   -17.826000  0.532000
7473   4   2   56.331000   -19.145000  0.668000
7474   4   2   50.437000   -19.441000  -0.766000
7475   4   2   49.01000   -21.583000  -0.706000
7476   4   2   48.944000   -21.407000  4.171000
7477   4   2   50.357000   -19.251000  4.108000
7478   4   2   47.929000   -23.392000  0.635000
7479   4   2   47.897000   -23.309000  2.935000
7480   4   2   51.705000   -17.689000  0.476000
7481   4   2   51.668000   -17.6000  2.774000
7482   4   2   48.043000   -20.85000  2.799000
7483   4   2   49.455000   -18.706000  2.733000
7484   4   2   48.073000   -20.929000  0.596000
7485   4   2   49.49000   -18.786000  0.526000
7486   4   2   63.721000   -21.314000  2.907000
7487   4   2   63.73000   -21.346000  0.932000
7488   4   2   59.954000   -19.247000  2.961000
7489   4   2   59.951000   -19.309000  0.756000
7490   4   2   63.838000   -21.361000  -1.315000
7491   4   2   59.95000   -19.508000  -1.541000
7492   4   2   62.999000   -21.411000  -4.829000
7493   4   2   63.954000   -21.443000  -3.365000
7494   4   2   60.015000   -19.604000  -3.616000
7495   4   2   60.817000   -20.383000  -4.961000
7496   4   2   59.961000   -19.314000  5.267000
7497   4   2   63.823000   -21.236000  5.153000
7498   4   2   60.804000   -20.034000  8.733000
7499   4   2   60.031000   -19.298000  7.343000
7500   4   2   62.966000   -21.112000  8.663000
7501   4   2   63.927000   -21.239000  7.205000
7502   4   2   56.948000   -27.064000  -4.872000
7503   4   2   59.68000   -22.711000  -4.988000
7504   4   2   55.404000   -29.143000  -4.812000
7505   4   2   58.375000   -24.937000  -4.93000
7506   4   2   61.796000   -23.893000  -4.814000
7507   4   2   58.944000   -28.433000  -4.672000
7508   4   2   57.356000   -30.589000  -4.627000
7509   4   2   60.423000   -26.219000  -4.733000
7510   4   2   58.852000   -27.992000  8.878000
7511   4   2   61.723000   -23.536000  8.771000
7512   4   2   57.291000   -30.131000  8.955000
7513   4   2   60.33000   -25.814000  8.815000
7514   4   2   59.615000   -22.317000  8.862000
7515   4   2   56.851000   -26.613000  8.968000
7516   4   2   55.325000   -28.687000  9.029000
7517   4   2   58.283000   -24.507000  8.913000
7518   4   2   -65.508000   -18.973000  6.537000
7519   4   2   -61.663000   -20.962000  6.474000
7520   4   2   -61.365000   -25.301000  6.382000
7521   4   2   -60.228000   -23.101000  6.428000
7522   4   2   -63.049000   -18.786000  6.535000
7523   4   2   -64.211000   -21.119000  6.424000
7524   4   2   -62.812000   -23.266000  6.369000
7525   4   2   -68.261000   -30.027000  4.681000
7526   4   2   -72.592000   -23.325000  4.9000
7527   4   2   -71.155000   -25.599000  4.808000
7528   4   2   -69.711000   -27.814000  4.737000
7529   4   2   -67.598000   -20.15000  6.364000
7530   4   2   -66.187000   -22.439000  6.34000
7531   5   1   -56.353000   -7.567000  3.391000
7532   5   1   -57.686000   -9.752000  3.386000
7533   5   1   -57.666000   -9.77000  4.939000
7534   5   1   -59.085000   -11.941000  3.36000
7535   5   1   -59.066000   -11.959000  4.943000
7536   5   1   -56.337000   -7.585000  4.948000
7537   5   1   -33.361000   -12.317000  2.923000
7538   5   1   -33.333000   -12.341000  4.521000
7539   5   1   -34.649000   -11.589000  2.409000
7540   5   1   -33.393000   -13.789000  2.366000
7541   5   1   -34.601000   -11.631000  5.106000
7542   5   1   -33.344000   -13.83000  5.034000
7543   5   1   -34.669000   -14.479000  2.937000
7544   5   1   -34.642000   -14.503000  4.49000
7545   5   1   -30.818000   -12.372000  2.885000
7546   5   1   -30.789000   -12.396000  4.463000
7547   5   1   -32.077000   -11.613000  2.343000
7548   5   1   -30.847000   -13.814000  2.275000
7549   5   1   -32.027000   -11.655000  5.074000
7550   5   1   -30.797000   -13.856000  5.029000
7551   5   1   -32.103000   -14.525000  2.88000
7552   5   1   -32.075000   -14.549000  4.45000
7553   5   1   -39.512000   -1.187000  3.198000
7554   5   1   -39.501000   -1.195000  4.797000
7555   5   1   -40.77000   -0.404000  2.674000
7556   5   1   -39.613000   -2.641000  2.638000
7557   5   1   -40.753000   -0.419000  5.348000
7558   5   1   -39.585000   -2.658000  5.338000
7559   5   1   -42.042000   -1.119000  3.244000
7560   5   1   -42.031000   -1.131000  4.799000
7561   5   1   -38.225000   -0.48000  2.628000
7562   5   1   -38.209000   -0.489000  5.361000
7563   5   1   -40.666000   1.055000  3.23000
7564   5   1   -40.663000   1.05000  4.802000
7565   5   1   -54.99000   -0.826000  3.396000
7566   5   1   -54.991000   -0.847000  4.995000
7567   5   1   -52.474000   -0.904000  3.411000
7568   5   1   -52.47000   -0.92000  4.966000
7569   5   1   -53.695000   -0.108000  2.867000
7570   5   1   -53.694000   -0.141000  5.537000
7571   5   1   -54.991000   -2.287000  2.83000
7572   5   1   -54.985000   -2.323000  5.533000
7573   5   1   -53.69000   1.358000  3.436000
7574   5   1   -53.691000   1.339000  5.006000
7575   5   1   -56.222000   -0.029000  2.833000
7576   5   1   -56.23000   -0.068000  5.571000
7577   5   1   -60.38000   -11.218000  2.823000
7578   5   1   -60.349000   -11.245000  5.524000
7579   5   1   -61.674000   -11.901000  3.381000
7580   5   1   -61.657000   -11.916000  4.98000
7581   5   1   -61.678000   -13.402000  5.498000
7582   5   1   -60.435000   -14.099000  3.365000
7583   5   1   -60.417000   -14.118000  4.919000
7584   5   1   -61.709000   -13.374000  2.829000
7585   5   1   -62.951000   -11.161000  2.834000
7586   5   1   -62.923000   -11.187000  5.569000
7587   5   1   -63.009000   -14.06000  3.385000
7588   5   1   -62.991000   -14.079000  4.956000
7589   5   1   -55.301000   -24.707000  2.562000
7590   5   1   -54.024000   -25.456000  3.083000
7591   5   1   -55.272000   -23.256000  3.144000
7592   5   1   -55.29000   -24.738000  5.237000
7593   5   1   -54.016000   -25.475000  4.682000
7594   5   1   -55.263000   -23.273000  4.699000
7595   5   1   -52.787000   -24.676000  2.532000
7596   5   1   -52.767000   -24.714000  5.232000
7597   5   1   -56.545000   -25.475000  3.109000
7598   5   1   -56.544000   -25.493000  4.682000
7599   5   1   -54.056000   -26.92000  2.499000
7600   5   1   -54.042000   -26.953000  5.233000
7601   5   1   -39.917000   -24.769000  2.306000
7602   5   1   -39.895000   -24.838000  4.978000
7603   5   1   -42.428000   -24.796000  5.023000
7604   5   1   -41.195000   -25.506000  2.837000
7605   5   1   -39.948000   -23.333000  2.897000
7606   5   1   -39.931000   -23.373000  4.452000
7607   5   1   -41.184000   -25.55000  4.438000
7608   5   1   -42.453000   -24.731000  2.317000
7609   5   1   -41.16000   -27.025000  4.972000
7610   5   1   -38.657000   -25.552000  2.828000
7611   5   1   -38.645000   -25.594000  4.399000
7612   5   1   -41.175000   -26.947000  2.227000
7613   5   7   -47.524000   -11.378000  2.658000
7614   5   7   -48.805000   -12.107000  3.21000
7615   5   7   -47.48000   -11.416000  5.323000
7616   5   7   -48.779000   -12.129000  4.798000
7617   5   7   -43.723000   -13.648000  2.56000
7618   5   7   -42.43000   -14.406000  3.077000
7619   5   7   -43.693000   -12.186000  3.115000
7620   5   7   -45.004000   -14.372000  3.104000
7621   5   7   -43.676000   -13.689000  5.208000
7622   5   7   -44.976000   -14.397000  4.689000
7623   5   1   -53.833000   -7.583000  3.352000
7624   5   1   -55.099000   -6.822000  2.832000
7625   5   1   -53.869000   -9.063000  2.822000
7626   5   1   -53.813000   -7.603000  4.923000
7627   5   1   -55.067000   -6.855000  5.487000
7628   5   1   -53.834000   -9.096000  5.425000
7629   5   7   -42.402000   -14.431000  4.625000
7630   5   7   -42.4000   -15.927000  5.085000
7631   5   1   -40.893000   -3.369000  3.201000
7632   5   1   -40.875000   -3.384000  4.784000
7633   5   1   -54.046000   -22.451000  2.602000
7634   5   1   -52.751000   -23.205000  3.107000
7635   5   1   -54.055000   -20.967000  3.164000
7636   5   1   -54.019000   -22.488000  5.246000
7637   5   1   -52.735000   -23.228000  4.691000
7638   5   7   -46.28000   -13.612000  2.596000
7639   5   7   -45.032000   -15.836000  2.551000
7640   5   7   -46.234000   -13.652000  5.265000
7641   5   7   -44.985000   -15.878000  5.197000
7642   5   1   -55.161000   -9.791000  3.346000
7643   5   1   -55.14000   -9.811000  4.916000
7644   5   7   -50.08000   -11.341000  2.714000
7645   5   7   -50.039000   -9.871000  3.27000
7646   5   7   -51.36000   -12.071000  3.262000
7647   5   7   -50.038000   -11.378000  5.364000
7648   5   7   -51.336000   -12.093000  4.839000
7649   5   1   -38.653000   -18.133000  2.38000
7650   5   1   -39.906000   -18.869000  2.953000
7651   5   1   -38.607000   -18.179000  5.078000
7652   5   1   -39.879000   -18.899000  4.528000
7653   5   7   -48.797000   -13.615000  5.312000
7654   5   1   -44.736000   -2.594000  5.407000
7655   5   7   -50.016000   -9.892000  4.848000
7656   5   7   -51.272000   -9.133000  5.402000
7657   5   1   -42.165000   -2.581000  2.693000
7658   5   1   -40.957000   -4.845000  2.655000
7659   5   1   -42.135000   -2.606000  5.337000
7660   5   1   -40.919000   -4.873000  5.294000
7661   5   1   -56.424000   -9.021000  2.827000
7662   5   1   -56.389000   -9.054000  5.481000
7663   5   7   -46.31000   -16.562000  3.096000
7664   5   7   -46.282000   -16.588000  4.678000
7665   5   1   -55.177000   -11.3000  5.415000
7666   5   1   -41.147000   -18.16000  5.071000
7667   5   1   -42.444000   -18.88000  4.56000
7668   5   7   -52.638000   -11.309000  2.769000
7669   5   7   -51.395000   -13.542000  2.714000
7670   5   7   -52.599000   -11.344000  5.393000
7671   5   7   -51.354000   -13.579000  5.345000
7672   5   1   -39.905000   -20.359000  5.066000
7673   5   1   -38.519000   -7.869000  3.11000
7674   5   1   -38.494000   -7.89000  4.668000
7675   5   1   -53.76000   -3.104000  3.38000
7676   5   1   -53.751000   -3.122000  4.963000
7677   5   1   -47.328000   -2.521000  2.752000
7678   5   1   -47.297000   -2.549000  5.451000
7679   5   1   -42.255000   -5.549000  3.202000
7680   5   1   -42.232000   -5.567000  4.77000
7681   5   1   -42.47000   -18.852000  3.008000
7682   5   7   -43.759000   -18.087000  2.536000
7683   5   1   -42.488000   -20.321000  2.457000
7684   5   7   -43.714000   -18.131000  5.098000
7685   5   1   -42.445000   -20.369000  5.064000
7686   5   7   -52.689000   -14.27000  3.268000
7687   5   7   -52.666000   -14.291000  4.811000
7688   5   7   -47.592000   -15.805000  2.593000
7689   5   7   -47.562000   -14.338000  3.15000
7690   5   7   -48.869000   -16.533000  3.147000
7691   5   7   -47.545000   -15.846000  5.252000
7692   5   7   -48.843000   -16.557000  4.727000
7693   5   1   -57.784000   -11.214000  2.827000
7694   5   1   -57.751000   -11.246000  5.464000
7695   5   7   -46.283000   -18.072000  5.182000
7696   5   1   -43.521000   -4.768000  2.713000
7697   5   1   -43.474000   -3.287000  3.243000
7698   5   1   -44.814000   -5.49000  3.253000
7699   5   1   -43.484000   -4.798000  5.317000
7700   5   1   -44.793000   -5.509000  4.804000
7701   5   1   -42.271000   -7.061000  5.268000
7702   5   1   -39.766000   -7.099000  2.593000
7703   5   1   -38.531000   -9.313000  2.537000
7704   5   1   -39.723000   -7.133000  5.251000
7705   5   1   -38.486000   -9.351000  5.194000
7706   5   1   -48.617000   -3.208000  3.327000
7707   5   1   -48.601000   -3.225000  4.902000
7708   5   7   -53.982000   -13.506000  2.793000
7709   5   7   -53.934000   -12.029000  3.311000
7710   5   1   -55.272000   -14.238000  3.302000
7711   5   7   -53.945000   -13.54000  5.345000
7712   5   1   -55.252000   -14.259000  4.852000
7713   5   1   -43.771000   -21.048000  2.986000
7714   5   1   -43.747000   -21.078000  4.555000
7715   5   7   -52.692000   -15.795000  5.269000
7716   5   7   -50.149000   -15.774000  2.656000
7717   5   7   -48.899000   -18.001000  2.6000
7718   5   7   -50.106000   -15.813000  5.29000
7719   5   7   -48.855000   -18.043000  5.23000
7720   5   1   -35.948000   -12.282000  2.98000
7721   5   1   -35.92000   -12.306000  4.563000
7722   5   1   -46.093000   -4.727000  2.762000
7723   5   7   -44.859000   -6.97000  2.733000
7724   5   1   -46.058000   -4.757000  5.354000
7725   5   7   -44.821000   -7.003000  5.287000
7726   5   1   -49.881000   -2.47000  2.792000
7727   5   1   -51.188000   -3.143000  3.362000
7728   5   1   -49.854000   -2.498000  5.486000
7729   5   1   -51.175000   -3.159000  4.936000
7730   5   1   -39.806000   -10.038000  3.091000
7731   5   1   -39.779000   -10.06000  4.662000
7732   5   1   -48.632000   -4.711000  5.395000
7733   5   1   -41.209000   -22.541000  2.38000
7734   5   1   -41.174000   -22.599000  5.026000
7735   5   1   -48.908000   -20.965000  3.082000
7736   5   1   -48.884000   -20.992000  4.652000
7737   5   7   -50.174000   -18.75000  3.149000
7738   5   7   -50.15000   -18.775000  4.705000
7739   5   1   -59.091000   -13.459000  5.455000
7740   5   1   -45.016000   -20.319000  5.109000
7741   5   1   -46.32000   -21.021000  4.603000
7742   5   1   -56.552000   -13.468000  2.802000
7743   5   1   -55.29000   -15.716000  2.76000
7744   5   1   -43.756000   -22.567000  5.063000
7745   5   1   -41.09000   -9.278000  2.605000
7746   5   1   -41.047000   -7.809000  3.148000
7747   5   7   -42.377000   -10.001000  3.134000
7748   5   1   -41.046000   -9.315000  5.215000
7749   5   7   -42.351000   -10.023000  4.707000
7750   5   1   -52.461000   -2.375000  2.849000
7751   5   1   -51.234000   -4.626000  2.832000
7752   5   1   -52.444000   -2.403000  5.491000
7753   5   1   -51.205000   -4.654000  5.436000
7754   5   1   -39.778000   -11.542000  5.156000
7755   5   1   -37.243000   -11.523000  2.488000
7756   5   1   -35.974000   -13.763000  2.428000
7757   5   1   -37.197000   -11.563000  5.126000
7758   5   1   -35.927000   -13.804000  5.069000
7759   5   7   -46.152000   -7.71000  3.25000
7760   5   7   -46.13000   -7.73000  4.795000
7761   5   7   -51.427000   -18.043000  5.237000
7762   5   1   -52.731000   -18.768000  4.745000
7763   5   1   -50.16000   -20.262000  5.204000
7764   5   1   -46.345000   -20.994000  3.033000
7765   5   1   -47.63000   -20.227000  2.552000
7766   5   1   -46.368000   -22.454000  2.464000
7767   5   1   -47.587000   -20.271000  5.158000
7768   5   1   -46.327000   -22.5000  5.12000
7769   5   7   -43.651000   -9.229000  2.636000
7770   5   7   -42.407000   -11.468000  2.577000
7771   5   7   -43.607000   -9.265000  5.273000
7772   5   7   -42.361000   -11.506000  5.216000
7773   5   1   -56.569000   -16.449000  3.274000
7774   5   1   -55.256000   -15.753000  5.351000
7775   5   1   -56.55000   -16.473000  4.85000
7776   5   7   -45.047000   -18.805000  3.05000
7777   5   7   -45.021000   -18.832000  4.609000
7778   5   1   -52.522000   -5.357000  3.358000
7779   5   1   -52.505000   -5.375000  4.927000
7780   5   7   -47.429000   -6.922000  2.801000
7781   5   1   -47.388000   -5.444000  3.301000
7782   5   7   -48.724000   -7.664000  3.293000
7783   5   7   -47.393000   -6.954000  5.308000
7784   5   7   -48.703000   -7.684000  4.839000
7785   5   1   -37.259000   -14.499000  2.974000
7786   5   1   -37.231000   -14.524000  4.548000
7787   5   7   -46.161000   -9.224000  5.321000
7788   5   1   -57.816000   -15.667000  2.742000
7789   5   1   -57.844000   -14.203000  3.323000
7790   5   1   -57.784000   -15.708000  5.437000
7791   5   1   -47.644000   -23.152000  3.027000
7792   5   1   -47.62000   -23.181000  4.585000
7793   5   1   -56.529000   -17.948000  5.39000
7794   5   1   -42.498000   -23.279000  2.914000
7795   5   1   -52.753000   -18.745000  3.196000
7796   5   1   -54.033000   -17.972000  2.708000
7797   5   1   -52.771000   -20.222000  2.645000
7798   5   1   -53.996000   -18.01000  5.297000
7799   5   1   -52.734000   -20.262000  5.247000
7800   5   1   -38.547000   -13.728000  2.493000
7801   5   1   -38.525000   -12.259000  3.035000
7802   5   1   -39.838000   -14.451000  3.031000
7803   5   1   -38.501000   -13.768000  5.098000
7804   5   1   -39.81000   -14.476000  4.582000
7805   5   7   -50.001000   -6.88000  2.816000
7806   5   7   -48.757000   -9.145000  2.729000
7807   5   7   -49.967000   -6.911000  5.372000
7808   5   7   -48.717000   -9.18000  5.365000
7809   5   1   -37.296000   -16.0000  5.087000
7810   5   1   -53.796000   -4.593000  2.843000
7811   5   1   -55.043000   -5.368000  3.396000
7812   5   1   -53.772000   -4.623000  5.481000
7813   5   1   -55.029000   -5.387000  4.949000
7814   5   7   -43.665000   -12.209000  4.699000
7815   5   1   -52.519000   -6.875000  5.43000
7816   5   1   -48.919000   -22.423000  2.514000
7817   5   1   -50.178000   -23.14000  3.078000
7818   5   1   -48.879000   -22.469000  5.17000
7819   5   1   -50.157000   -23.167000  4.631000
7820   5   1   -41.158000   -16.649000  3.024000
7821   5   1   -41.131000   -16.676000  4.566000
7822   5   7   -41.127000   -13.687000  2.561000
7823   5   1   -39.876000   -15.919000  2.487000
7824   5   7   -41.082000   -13.727000  5.119000
7825   5   1   -39.83000   -15.961000  5.081000
7826   5   1   -54.036000   -20.988000  4.739000
7827   5   7   -44.967000   -11.421000  2.609000
7828   5   7   -44.932000   -9.956000  3.175000
7829   5   7   -46.248000   -12.145000  3.158000
7830   5   7   -44.921000   -11.459000  5.275000
7831   5   7   -46.222000   -12.168000  4.75000
7832   5   1   -55.273000   -20.199000  5.331000
7833   5   1   -51.479000   -22.445000  2.57000
7834   5   1   -51.444000   -22.488000  5.209000
7835   5   7   -51.31000   -9.099000  2.776000
7836   5   7   -51.283000   -7.619000  3.326000
7837   5   7   -52.595000   -9.833000  3.314000
7838   5   7   -52.572000   -9.853000  4.883000
7839   5   1   -56.562000   -17.905000  2.69000
7840   5   1   -55.317000   -18.703000  3.222000
7841   5   7   -47.535000   -14.362000  4.74000
7842   5   7   -42.444000   -15.886000  2.57000
7843   5   7   -43.746000   -16.609000  3.066000
7844   5   7   -43.719000   -16.635000  4.614000
7845   5   1   -39.731000   -5.659000  3.167000
7846   5   1   -39.708000   -5.677000  4.72000
7847   5   1   -43.456000   -3.303000  4.817000
7848   5   7   -53.912000   -12.049000  4.867000
7849   5   7   -48.842000   -13.576000  2.65000
7850   5   7   -50.118000   -14.304000  3.205000
7851   5   7   -50.093000   -14.327000  4.785000
7852   5   1   -44.767000   -2.567000  2.712000
7853   5   1   -46.054000   -3.254000  3.286000
7854   5   1   -46.036000   -3.271000  4.861000
7855   5   1   -45.06000   -20.273000  2.503000
7856   5   1   -56.519000   -13.503000  5.405000
7857   5   1   -55.212000   -11.267000  2.814000
7858   5   1   -56.513000   -11.991000  3.338000
7859   5   1   -56.493000   -12.011000  4.906000
7860   5   1   -39.948000   -20.307000  2.37000
7861   5   1   -41.193000   -21.077000  2.94000
7862   5   1   -41.168000   -21.11000  4.515000
7863   5   1   -37.276000   -10.068000  3.055000
7864   5   1   -37.249000   -10.09000  4.608000
7865   5   1   -41.022000   -7.829000  4.719000
7866   5   7   -51.432000   -16.519000  3.214000
7867   5   7   -51.408000   -16.541000  4.757000
7868   5   1   -41.191000   -18.115000  2.475000
7869   5   7   -46.329000   -18.029000  2.548000
7870   5   7   -47.611000   -18.757000  3.093000
7871   5   7   -47.585000   -18.783000  4.664000
7872   5   1   -42.312000   -7.028000  2.663000
7873   5   7   -43.595000   -7.755000  3.198000
7874   5   7   -43.571000   -7.775000  4.756000
7875   5   1   -47.368000   -5.462000  4.842000
7876   5   7   -52.73000   -15.76000  2.769000
7877   5   1   -54.017000   -16.494000  3.257000
7878   5   1   -53.995000   -16.516000  4.796000
7879   5   1   -42.478000   -23.315000  4.498000
7880   5   1   -57.825000   -14.225000  4.897000
7881   5   1   -48.665000   -4.682000  2.803000
7882   5   1   -49.961000   -5.399000  3.335000
7883   5   1   -49.943000   -5.416000  4.885000
7884   5   1   -38.498000   -12.283000  4.603000
7885   5   1   -59.122000   -13.426000  2.813000
7886   5   1   -45.073000   -23.222000  4.532000
7887   5   1   -55.307000   -20.162000  2.638000
7888   5   1   -39.823000   -11.504000  2.55000
7889   5   7   -41.113000   -12.22000  3.084000
7890   5   7   -41.086000   -12.243000  4.643000
7891   5   7   -44.906000   -9.978000  4.757000
7892   5   1   -50.2000   -20.22000  2.602000
7893   5   1   -51.48000   -20.973000  3.13000
7894   5   1   -51.458000   -20.998000  4.697000
7895   5   1   -45.095000   -23.192000  2.979000
7896   5   1   -55.296000   -18.725000  4.796000
7897   5   7   -51.263000   -7.639000  4.883000
7898   5   7   -46.203000   -9.188000  2.68000
7899   5   7   -47.485000   -9.913000  3.222000
7900   5   7   -47.461000   -9.934000  4.804000
7901   5   7   -51.467000   -18.005000  2.688000
7902   5   1   -37.343000   -15.957000  2.393000
7903   5   1   -38.597000   -16.687000  2.963000
7904   5   1   -38.57000   -16.713000  4.538000
7905   5   1   -43.795000   -22.516000  2.423000
7906   5   1   -52.551000   -6.844000  2.828000
7907   5   1   -56.287000   -7.63000  7.645000
7908   5   1   -57.614000   -9.821000  7.633000
7909   5   1   -59.018000   -12.002000  7.553000
7910   5   1   -33.307000   -12.397000  7.149000
7911   5   1   -34.585000   -11.664000  6.661000
7912   5   1   -33.33000   -13.865000  6.627000
7913   5   1   -34.617000   -14.545000  7.189000
7914   5   1   -30.766000   -12.44000  7.189000
7915   5   1   -32.014000   -11.685000  6.643000
7916   5   1   -30.783000   -13.883000  6.607000
7917   5   1   -32.053000   -14.598000  7.161000
7918   5   1   -39.509000   -1.217000  7.428000
7919   5   1   -40.762000   -0.431000  6.941000
7920   5   1   -39.585000   -2.67000  6.893000
7921   5   1   -42.025000   -1.166000  7.496000
7922   5   1   -38.215000   -0.502000  6.932000
7923   5   1   -40.681000   1.026000  7.512000
7924   5   1   -54.964000   -0.892000  7.624000
7925   5   1   -52.448000   -0.972000  7.665000
7926   5   1   -53.675000   -0.169000  7.13000
7927   5   1   -54.966000   -2.349000  7.087000
7928   5   1   -53.673000   1.284000  7.717000
7929   5   1   -56.22000   -0.101000  7.14000
7930   5   1   -60.32000   -11.273000  7.078000
7931   5   1   -61.606000   -11.962000  7.608000
7932   5   1   -60.362000   -14.152000  7.616000
7933   5   1   -61.645000   -13.432000  7.091000
7934   5   1   -62.891000   -11.211000  7.139000
7935   5   1   -62.932000   -14.121000  7.666000
7936   5   1   -55.291000   -24.739000  6.83000
7937   5   1   -54.009000   -25.479000  7.313000
7938   5   1   -55.242000   -23.284000  7.398000
7939   5   1   -52.762000   -24.72000  6.788000
7940   5   1   -56.541000   -25.5000  7.393000
7941   5   1   -54.034000   -26.954000  6.804000
7942   5   1   -39.88000   -24.861000  6.572000
7943   5   1   -41.161000   -25.594000  7.07000
7944   5   1   -39.914000   -23.416000  7.154000
7945   5   1   -42.414000   -24.821000  6.577000
7946   5   1   -38.63000   -25.637000  7.11000
7947   5   1   -41.153000   -27.059000  6.539000
7948   5   7   -47.457000   -11.429000  6.911000
7949   5   7   -48.743000   -12.167000  7.453000
7950   5   7   -43.632000   -13.727000  6.792000
7951   5   7   -42.304000   -14.514000  7.115000
7952   5   7   -43.612000   -12.261000  7.367000
7953   5   7   -44.91000   -14.455000  7.368000
7954   5   1   -53.765000   -7.641000  7.514000
7955   5   1   -55.043000   -6.877000  7.068000
7956   5   1   -53.814000   -9.115000  6.984000
7957   5   1   -40.864000   -3.416000  7.397000
7958   5   1   -54.005000   -22.496000  6.827000
7959   5   1   -52.71000   -23.243000  7.302000
7960   5   1   -53.983000   -21.01000  7.349000
7961   5   7   -46.202000   -13.682000  6.855000
7962   5   7   -44.939000   -15.914000  6.78000
7963   5   1   -55.092000   -9.853000  7.507000
7964   5   7   -50.019000   -11.398000  6.949000
7965   5   7   -49.975000   -9.915000  7.505000
7966   5   7   -51.309000   -12.141000  7.493000
7967   5   1   -38.601000   -18.192000  6.637000
7968   5   1   -39.869000   -18.923000  7.148000
7969   5   1   -42.13000   -2.626000  6.918000
7970   5   1   -40.907000   -4.892000  6.869000
7971   5   1   -56.364000   -9.079000  7.062000
7972   5   7   -46.228000   -16.636000  7.341000
7973   5   7   -52.583000   -11.368000  6.968000
7974   5   7   -51.351000   -13.615000  6.924000
7975   5   1   -38.475000   -7.941000  7.37000
7976   5   1   -53.717000   -3.162000  7.574000
7977   5   1   -47.278000   -2.59000  7.008000
7978   5   1   -42.207000   -5.606000  7.36000
7979   5   1   -42.408000   -18.916000  7.137000
7980   5   7   -43.679000   -18.161000  6.638000
7981   5   1   -42.425000   -20.389000  6.631000
7982   5   7   -52.686000   -14.373000  7.292000
7983   5   7   -47.523000   -15.875000  6.838000
7984   5   7   -47.496000   -14.406000  7.398000
7985   5   7   -48.82000   -16.602000  7.385000
7986   5   1   -57.724000   -11.271000  7.038000
7987   5   1   -43.467000   -4.823000  6.883000
7988   5   1   -43.426000   -3.357000  7.429000
7989   5   1   -44.758000   -5.551000  7.377000
7990   5   1   -39.706000   -7.155000  6.833000
7991   5   1   -38.466000   -9.379000  6.776000
7992   5   1   -48.568000   -3.295000  7.518000
7993   5   7   -53.933000   -13.568000  6.883000
7994   5   7   -53.886000   -12.105000  7.441000
7995   5   1   -55.206000   -14.292000  7.424000
7996   5   1   -43.705000   -21.11000  7.145000
7997   5   7   -50.104000   -15.847000  6.87000
7998   5   7   -48.836000   -18.072000  6.806000
7999   5   1   -35.892000   -12.358000  7.174000
8000   5   1   -46.037000   -4.787000  6.916000
8001   5   7   -44.796000   -7.011000  6.826000
8002   5   1   -49.834000   -2.536000  7.041000
8003   5   1   -51.145000   -3.214000  7.547000
8004   5   1   -39.75000   -10.109000  7.257000
8005   5   1   -41.156000   -22.618000  6.608000
8006   5   1   -48.845000   -21.017000  7.245000
8007   5   7   -50.133000   -18.814000  7.281000
8008   5   1   -56.489000   -13.524000  6.971000
8009   5   1   -55.224000   -15.771000  6.913000
8010   5   1   -41.019000   -9.336000  6.775000
8011   5   1   -40.997000   -7.871000  7.314000
8012   5   7   -42.29000   -10.05000  7.299000
8013   5   1   -52.422000   -2.43000  7.073000
8014   5   1   -51.183000   -4.681000  7.003000
8015   5   1   -37.178000   -11.593000  6.701000
8016   5   1   -35.913000   -13.834000  6.65000
8017   5   7   -46.1000   -7.69000  7.283000
8018   5   1   -46.276000   -21.048000  7.197000
8019   5   1   -47.563000   -20.298000  6.717000
8020   5   1   -46.302000   -22.52000  6.702000
8021   5   7   -43.582000   -9.28000  6.851000
8022   5   7   -42.329000   -11.533000  6.795000
8023   5   1   -56.481000   -16.493000  7.465000
8024   5   7   -44.955000   -18.873000  7.189000
8025   5   1   -52.464000   -5.412000  7.515000
8026   5   7   -47.37000   -6.952000  6.825000
8027   5   1   -47.331000   -5.505000  7.401000
8028   5   7   -48.652000   -7.645000  7.326000
8029   5   1   -37.211000   -14.554000  7.161000
8030   5   1   -57.745000   -15.724000  6.991000
8031   5   1   -57.767000   -14.251000  7.508000
8032   5   1   -47.577000   -23.204000  7.284000
8033   5   1   -42.445000   -23.352000  7.112000
8034   5   1   -52.684000   -18.799000  7.316000
8035   5   1   -53.963000   -18.026000  6.859000
8036   5   1   -52.707000   -20.278000  6.813000
8037   5   1   -38.484000   -13.792000  6.664000
8038   5   1   -38.467000   -12.331000  7.193000
8039   5   1   -39.776000   -14.513000  7.158000
8040   5   7   -49.945000   -6.919000  6.912000
8041   5   7   -48.692000   -9.178000  6.947000
8042   5   1   -53.749000   -4.645000  7.056000
8043   5   1   -54.979000   -5.427000  7.643000
8044   5   1   -48.858000   -22.49000  6.752000
8045   5   1   -50.125000   -23.185000  7.329000
8046   5   1   -41.097000   -16.711000  7.129000
8047   5   7   -41.046000   -13.755000  6.658000
8048   5   1   -39.814000   -15.981000  6.644000
8049   5   7   -44.894000   -11.481000  6.863000
8050   5   7   -44.87000   -10.0000  7.423000
8051   5   7   -46.179000   -12.207000  7.411000
8052   5   1   -51.427000   -22.503000  6.783000
8053   5   7   -51.251000   -9.147000  6.978000
8054   5   7   -51.215000   -7.651000  7.46000
8055   5   7   -52.555000   -9.876000  7.467000
8056   5   1   -56.488000   -17.962000  6.946000
8057   5   1   -55.224000   -18.743000  7.411000
8058   5   7   -42.356000   -15.961000  6.603000
8059   5   7   -43.609000   -16.698000  7.105000
8060   5   1   -39.696000   -5.716000  7.419000
8061   5   7   -48.782000   -13.644000  6.899000
8062   5   7   -50.079000   -14.38000  7.454000
8063   5   1   -44.721000   -2.63000  6.962000
8064   5   1   -46.002000   -3.341000  7.477000
8065   5   1   -44.989000   -20.34000  6.671000
8066   5   1   -55.152000   -11.325000  6.977000
8067   5   1   -56.446000   -12.052000  7.493000
8068   5   1   -39.896000   -20.374000  6.622000
8069   5   1   -41.149000   -21.142000  7.13000
8070   5   1   -37.225000   -10.151000  7.306000
8071   5   7   -51.438000   -16.605000  7.237000
8072   5   1   -41.13000   -18.18000  6.634000
8073   5   7   -46.253000   -18.102000  6.759000
8074   5   7   -47.544000   -18.846000  7.251000
8075   5   1   -42.252000   -7.082000  6.83000
8076   5   7   -43.543000   -7.79000  7.335000
8077   5   7   -52.688000   -15.828000  6.783000
8078   5   1   -53.947000   -16.548000  7.353000
8079   5   1   -48.611000   -4.741000  6.957000
8080   5   1   -49.907000   -5.457000  7.459000
8081   5   1   -59.059000   -13.485000  7.036000
8082   5   1   -55.238000   -20.207000  6.885000
8083   5   1   -39.755000   -11.57000  6.718000
8084   5   7   -41.032000   -12.304000  7.223000
8085   5   1   -50.138000   -20.282000  6.766000
8086   5   1   -51.42000   -21.023000  7.286000
8087   5   1   -45.028000   -23.246000  7.229000
8088   5   7   -46.139000   -9.222000  6.904000
8089   5   7   -47.422000   -9.944000  7.479000
8090   5   7   -51.414000   -18.072000  6.774000
8091   5   1   -37.289000   -16.017000  6.642000
8092   5   1   -38.56000   -16.735000  7.157000
8093   5   1   -43.733000   -22.588000  6.638000
8094   5   1   -52.493000   -6.894000  6.992000
8095   5   1   -57.698000   -9.74000  0.685000
8096   5   1   -59.098000   -11.923000  0.748000
8097   5   1   -56.361000   -7.552000  0.679000
8098   5   1   -33.432000   -12.292000  0.296000
8099   5   1   -34.689000   -11.575000  0.854000
8100   5   1   -33.437000   -13.775000  0.773000
8101   5   1   -34.743000   -14.438000  0.238000
8102   5   1   -30.894000   -12.333000  0.16000
8103   5   1   -32.121000   -11.595000  0.774000
8104   5   1   -30.891000   -13.793000  0.697000
8105   5   1   -32.18000   -14.491000  0.169000
8106   5   1   -39.557000   -1.184000  0.568000
8107   5   1   -40.8000   -0.4000  1.079000
8108   5   1   -39.645000   -2.637000  1.083000
8109   5   1   -42.081000   -1.118000  0.536000
8110   5   1   -38.249000   -0.484000  1.058000
8111   5   1   -40.697000   1.049000  0.499000
8112   5   1   -54.968000   -0.803000  0.763000
8113   5   1   -52.472000   -0.895000  0.71000
8114   5   1   -53.681000   -0.095000  1.273000
8115   5   1   -54.986000   -2.272000  1.273000
8116   5   1   -53.669000   1.372000  0.723000
8117   5   1   -56.211000   -0.016000  1.261000
8118   5   1   -60.387000   -11.211000  1.267000
8119   5   1   -61.683000   -11.891000  0.75000
8120   5   1   -61.713000   -13.368000  1.235000
8121   5   1   -60.441000   -14.069000  0.663000
8122   5   1   -62.955000   -11.153000  1.263000
8123   5   1   -63.014000   -14.037000  0.67000
8124   5   1   -55.314000   -24.67000  0.965000
8125   5   1   -54.041000   -25.397000  0.452000
8126   5   1   -55.283000   -23.202000  0.431000
8127   5   1   -52.802000   -24.637000  0.977000
8128   5   1   -56.542000   -25.428000  0.371000
8129   5   1   -54.06000   -26.885000  0.929000
8130   5   1   -39.931000   -24.714000  0.713000
8131   5   1   -42.47000   -24.688000  0.76000
8132   5   1   -39.992000   -23.25000  0.195000
8133   5   1   -41.218000   -25.419000  0.203000
8134   5   1   -41.191000   -26.901000  0.655000
8135   5   1   -38.685000   -25.454000  0.117000
8136   5   7   -47.556000   -11.346000  1.068000
8137   5   7   -48.862000   -12.066000  0.553000
8138   5   7   -43.736000   -13.638000  0.972000
8139   5   7   -45.035000   -14.349000  0.416000
8140   5   1   -53.849000   -7.562000  0.761000
8141   5   1   -55.111000   -6.806000  1.248000
8142   5   1   -53.892000   -9.044000  1.265000
8143   5   7   -42.419000   -14.408000  0.58000
8144   5   7   -42.454000   -15.87000  1.05000
8145   5   1   -40.947000   -3.354000  0.588000
8146   5   1   -54.064000   -22.413000  1.021000
8147   5   1   -52.782000   -23.144000  0.496000
8148   5   7   -46.306000   -13.594000  1.003000
8149   5   7   -45.044000   -15.822000  0.964000
8150   5   1   -55.18000   -9.772000  0.755000
8151   5   7   -50.114000   -11.316000  1.132000
8152   5   7   -51.42000   -12.043000  0.615000
8153   5   1   -38.701000   -18.094000  0.823000
8154   5   1   -39.987000   -18.802000  0.333000
8155   5   7   -48.883000   -13.557000  1.062000
8156   5   1   -44.794000   -2.568000  1.156000
8157   5   7   -50.085000   -9.82000  0.62000
8158   5   7   -51.337000   -9.072000  1.204000
8159   5   1   -42.197000   -2.574000  1.112000
8160   5   1   -40.991000   -4.832000  1.081000
8161   5   1   -56.438000   -9.008000  1.244000
8162   5   7   -46.352000   -16.527000  0.428000
8163   5   1   -55.23000   -11.252000  1.253000
8164   5   1   -41.229000   -18.081000  0.913000
8165   5   1   -42.523000   -18.799000  0.43000
8166   5   7   -52.67000   -11.29000  1.197000
8167   5   7   -51.443000   -13.532000  1.137000
8168   5   1   -39.991000   -20.264000  0.815000
8169   5   1   -38.59000   -7.845000  0.407000
8170   5   1   -53.76000   -3.086000  0.766000
8171   5   1   -47.35000   -2.527000  1.194000
8172   5   1   -42.31000   -5.525000  0.61000
8173   5   7   -43.777000   -18.066000  0.995000
8174   5   1   -42.52000   -20.284000  0.891000
8175   5   7   -52.783000   -14.286000  0.791000
8176   5   7   -47.625000   -15.785000  1.005000
8177   5   7   -48.941000   -16.495000  0.487000
8178   5   1   -57.796000   -11.201000  1.252000
8179   5   7   -46.354000   -18.008000  0.97000
8180   5   1   -43.55000   -4.758000  1.147000
8181   5   1   -44.857000   -5.47000  0.679000
8182   5   1   -42.344000   -7.009000  1.101000
8183   5   1   -39.801000   -7.082000  1.012000
8184   5   1   -38.565000   -9.296000  0.956000
8185   5   1   -48.651000   -3.222000  0.708000
8186   5   7   -54.014000   -13.492000  1.255000
8187   5   1   -55.296000   -14.201000  0.728000
8188   5   1   -43.816000   -20.986000  0.395000
8189   5   7   -52.772000   -15.751000  1.256000
8190   5   7   -50.201000   -15.759000  1.077000
8191   5   7   -48.934000   -17.98000  1.024000
8192   5   1   -36.013000   -12.254000  0.369000
8193   5   1   -46.116000   -4.72000  1.2000
8194   5   7   -44.882000   -6.94000  1.197000
8195   5   1   -49.895000   -2.475000  1.236000
8196   5   1   -51.211000   -3.144000  0.748000
8197   5   1   -39.865000   -10.01000  0.495000
8198   5   1   -48.685000   -4.676000  1.24000
8199   5   1   -41.234000   -22.496000  0.799000
8200   5   1   -48.955000   -20.903000  0.489000
8201   5   7   -50.244000   -18.709000  0.574000
8202   5   1   -59.128000   -13.413000  1.231000
8203   5   1   -45.084000   -20.241000  0.942000
8204   5   1   -46.388000   -20.931000  0.44000
8205   5   1   -43.818000   -22.478000  0.848000
8206   5   1   -41.117000   -9.256000  1.045000
8207   5   7   -42.406000   -9.952000  0.54000
8208   5   1   -52.463000   -2.366000  1.266000
8209   5   1   -51.248000   -4.619000  1.266000
8210   5   1   -39.854000   -11.485000  0.987000
8211   5   1   -37.279000   -11.505000  0.914000
8212   5   1   -36.016000   -13.744000  0.847000
8213   5   7   -46.198000   -7.605000  0.766000
8214   5   7   -51.502000   -17.988000  1.152000
8215   5   1   -52.785000   -18.698000  0.625000
8216   5   1   -50.228000   -20.189000  1.041000
8217   5   1   -47.657000   -20.202000  0.993000
8218   5   1   -46.392000   -22.419000  0.882000
8219   5   7   -43.68000   -9.2000  1.057000
8220   5   7   -42.431000   -11.447000  0.996000
8221   5   1   -55.302000   -15.69000  1.198000
8222   5   1   -56.569000   -16.394000  0.656000
8223   5   7   -45.072000   -18.761000  0.469000
8224   5   1   -52.538000   -5.339000  0.769000
8225   5   7   -47.449000   -6.882000  1.287000
8226   5   7   -48.743000   -7.562000  0.811000
8227   5   1   -37.331000   -14.448000  0.361000
8228   5   7   -46.234000   -9.143000  1.098000
8229   5   1   -57.818000   -15.642000  1.186000
8230   5   1   -47.687000   -23.076000  0.32000
8231   5   1   -56.565000   -17.874000  1.131000
8232   5   1   -54.047000   -17.943000  1.146000
8233   5   1   -52.79000   -20.19000  1.079000
8234   5   1   -38.585000   -13.703000  0.927000
8235   5   1   -39.893000   -14.407000  0.456000
8236   5   7   -50.021000   -6.851000  1.277000
8237   5   7   -48.782000   -9.1000  1.15000
8238   5   1   -37.39000   -15.924000  0.838000
8239   5   1   -53.804000   -4.579000  1.267000
8240   5   1   -55.045000   -5.347000  0.691000
8241   5   7   -43.734000   -12.158000  0.44000
8242   5   1   -52.566000   -6.827000  1.267000
8243   5   1   -48.945000   -22.389000  0.932000
8244   5   1   -50.224000   -23.065000  0.377000
8245   5   1   -41.213000   -16.6000  0.46000
8246   5   7   -41.146000   -13.667000  1.021000
8247   5   1   -39.914000   -15.888000  0.925000
8248   5   1   -54.071000   -20.909000  0.553000
8249   5   7   -44.995000   -11.396000  1.017000
8250   5   7   -46.301000   -12.104000  0.492000
8251   5   1   -55.314000   -20.126000  1.082000
8252   5   1   -51.502000   -22.409000  0.996000
8253   5   7   -52.653000   -9.789000  0.734000
8254   5   7   -47.619000   -14.301000  0.487000
8255   5   7   -43.726000   -16.59000  0.567000
8256   5   1   -39.803000   -5.636000  0.466000
8257   5   1   -43.517000   -3.285000  0.629000
8258   5   7   -53.981000   -12.017000  0.737000
8259   5   7   -50.198000   -14.277000  0.537000
8260   5   1   -46.093000   -3.265000  0.668000
8261   5   1   -56.563000   -13.447000  1.235000
8262   5   1   -56.532000   -11.966000  0.749000
8263   5   1   -41.258000   -21.011000  0.325000
8264   5   1   -37.344000   -10.047000  0.357000
8265   5   1   -41.108000   -7.781000  0.551000
8266   5   7   -51.542000   -16.511000  0.738000
8267   5   7   -47.661000   -18.736000  0.505000
8268   5   7   -43.651000   -7.7000  0.619000
8269   5   1   -47.424000   -5.426000  0.741000
8270   5   1   -54.044000   -16.452000  0.699000
8271   5   1   -42.535000   -23.205000  0.298000
8272   5   1   -57.851000   -14.16000  0.709000
8273   5   1   -49.991000   -5.381000  0.759000
8274   5   1   -38.584000   -12.227000  0.444000
8275   5   1   -45.132000   -23.116000  0.278000
8276   5   7   -41.148000   -12.201000  0.501000
8277   5   7   -44.989000   -9.901000  0.505000
8278   5   1   -51.52000   -20.915000  0.54000
8279   5   1   -55.319000   -18.644000  0.605000
8280   5   7   -51.305000   -7.57000  0.751000
8281   5   7   -47.539000   -9.845000  0.548000
8282   5   1   -38.678000   -16.624000  0.345000
8283   5   1   -47.629000   -11.324000  -1.593000
8284   5   1   -48.902000   -12.042000  -1.033000
8285   5   1   -43.926000   -13.546000  -1.835000
8286   5   1   -43.821000   -12.14000  -1.163000
8287   5   1   -45.118000   -14.313000  -1.202000
8288   5   1   -46.399000   -13.544000  -1.665000
8289   5   1   -45.242000   -15.732000  -1.838000
8290   5   1   -50.178000   -11.275000  -1.528000
8291   5   1   -50.115000   -9.838000  -0.966000
8292   5   1   -51.417000   -12.008000  -0.969000
8293   5   1   -46.429000   -16.47000  -1.169000
8294   5   1   -51.413000   -13.404000  -1.631000
8295   5   1   -47.707000   -15.739000  -1.67000
8296   5   1   -47.665000   -14.273000  -1.103000
8297   5   1   -48.974000   -16.43000  -1.105000
8298   5   1   -50.177000   -15.638000  -1.703000
8299   5   1   -48.881000   -9.184000  -1.626000
8300   5   1   -45.072000   -11.357000  -1.663000
8301   5   1   -45.061000   -9.909000  -1.093000
8302   5   1   -46.348000   -12.082000  -1.099000
8303   5   1   -48.937000   -13.501000  -1.596000
8304   5   1   -50.214000   -14.224000  -1.069000
8305   5   1   -46.329000   -9.223000  -1.694000
8306   5   1   -47.593000   -9.857000  -1.061000
8307   5   1   -47.684000   -11.307000  -3.185000
8308   5   1   -48.984000   -11.996000  -3.693000
8309   5   1   -43.974000   -13.525000  -3.376000
8310   5   1   -45.243000   -14.245000  -3.884000
8311   5   1   -46.462000   -13.511000  -3.26000
8312   5   1   -45.285000   -15.703000  -3.378000
8313   5   1   -50.231000   -11.245000  -3.12000
8314   5   1   -51.501000   -11.949000  -3.667000
8315   5   1   -48.982000   -13.467000  -3.188000
8316   5   1   -50.206000   -9.795000  -3.668000
8317   5   1   -46.54000   -16.416000  -3.901000
8318   5   1   -51.472000   -13.393000  -3.157000
8319   5   1   -47.764000   -15.704000  -3.272000
8320   5   1   -49.053000   -16.372000  -3.828000
8321   5   1   -50.242000   -15.614000  -3.234000
8322   5   1   -46.379000   -9.187000  -3.227000
8323   5   1   -48.919000   -9.142000  -3.155000
8324   5   1   -43.934000   -12.084000  -3.902000
8325   5   1   -45.134000   -11.334000  -3.267000
8326   5   1   -46.445000   -12.041000  -3.767000
8327   5   1   -47.754000   -14.217000  -3.77000
8328   5   1   -50.266000   -14.156000  -3.733000
8329   5   1   -45.152000   -9.886000  -3.82000
8330   5   1   -47.679000   -9.85000  -3.729000
8331   5   1   -47.78000   -11.26000  -5.834000
8332   5   1   -49.038000   -11.967000  -5.271000
8333   5   1   -44.065000   -13.488000  -6.053000
8334   5   1   -44.0000   -12.063000  -5.452000
8335   5   1   -45.293000   -14.22000  -5.456000
8336   5   1   -46.564000   -13.457000  -5.916000
8337   5   1   -45.367000   -15.651000  -6.045000
8338   5   1   -50.305000   -11.204000  -5.77000
8339   5   1   -50.251000   -9.766000  -5.209000
8340   5   1   -51.551000   -11.923000  -5.205000
8341   5   1   -46.595000   -16.377000  -5.448000
8342   5   1   -51.58000   -13.352000  -5.795000
8343   5   1   -47.861000   -15.625000  -5.935000
8344   5   1   -47.813000   -14.18000  -5.351000
8345   5   1   -49.114000   -16.332000  -5.373000
8346   5   1   -50.358000   -15.563000  -5.886000
8347   5   1   -49.004000   -9.074000  -5.802000
8348   5   1   -45.256000   -11.298000  -5.933000
8349   5   1   -45.218000   -9.86000  -5.364000
8350   5   1   -46.51000   -12.013000  -5.349000
8351   5   1   -49.075000   -13.411000  -5.836000
8352   5   1   -50.335000   -14.13000  -5.295000
8353   5   1   -46.481000   -9.123000  -5.875000
8354   5   1   -47.736000   -9.81000  -5.292000
8355   5   1   -47.84000   -11.243000  -7.41000
8356   5   1   -49.108000   -11.927000  -7.924000
8357   5   1   -44.188000   -13.444000  -7.599000
8358   5   1   -45.443000   -14.136000  -8.112000
8359   5   1   -46.639000   -13.412000  -7.493000
8360   5   1   -45.461000   -15.569000  -7.586000
8361   5   1   -50.321000   -11.197000  -7.347000
8362   5   1   -51.56000   -11.89000  -7.888000
8363   5   1   -49.119000   -13.368000  -7.411000
8364   5   1   -50.279000   -9.784000  -7.905000
8365   5   1   -46.72000   -16.228000  -8.142000
8366   5   1   -51.579000   -13.313000  -7.335000
8367   5   1   -47.918000   -15.539000  -7.513000
8368   5   1   -49.183000   -16.17000  -8.07000
8369   5   1   -50.377000   -15.478000  -7.431000
8370   5   1   -46.563000   -9.146000  -7.414000
8371   5   1   -49.037000   -9.099000  -7.348000
8372   5   1   -44.205000   -12.027000  -8.156000
8373   5   1   -45.362000   -11.287000  -7.511000
8374   5   1   -46.638000   -11.971000  -8.007000
8375   5   1   -47.91000   -14.089000  -8.007000
8376   5   1   -50.387000   -14.042000  -7.942000
8377   5   1   -45.386000   -9.869000  -8.053000
8378   5   1   -47.831000   -9.807000  -7.942000
8379   5   1   -47.934000   -11.205000  -10.081000
8380   5   1   -49.154000   -11.896000  -9.505000
8381   5   1   -44.363000   -13.367000  -10.331000
8382   5   1   -44.305000   -11.997000  -9.703000
8383   5   1   -45.529000   -14.088000  -9.703000
8384   5   1   -46.76000   -13.338000  -10.165000
8385   5   1   -45.594000   -15.467000  -10.321000
8386   5   1   -50.379000   -11.166000  -10.029000
8387   5   1   -50.307000   -9.781000  -9.453000
8388   5   1   -51.586000   -11.857000  -9.439000
8389   5   1   -46.789000   -16.161000  -9.694000
8390   5   1   -51.629000   -13.238000  -10.064000
8391   5   1   -48.008000   -15.424000  -10.196000
8392   5   1   -47.969000   -14.036000  -9.588000
8393   5   1   -49.224000   -16.089000  -9.616000
8394   5   1   -50.428000   -15.355000  -10.156000
8395   5   1   -49.111000   -9.105000  -10.078000
8396   5   1   -45.506000   -11.241000  -10.195000
8397   5   1   -45.459000   -9.854000  -9.603000
8398   5   1   -46.708000   -11.94000  -9.588000
8399   5   1   -49.195000   -13.291000  -10.08000
8400   5   1   -50.423000   -13.984000  -9.531000
8401   5   1   -46.676000   -9.123000  -10.143000
8402   5   1   -47.884000   -9.797000  -9.532000
8403   5   1   -47.991000   -11.18000  -11.656000
8404   5   1   -49.223000   -11.849000  -12.174000
8405   5   1   -44.448000   -13.322000  -11.882000
8406   5   1   -45.671000   -14.0000  -12.368000
8407   5   1   -46.829000   -13.293000  -11.74000
8408   5   1   -45.668000   -15.406000  -11.878000
8409   5   1   -50.414000   -11.142000  -11.625000
8410   5   1   -51.626000   -11.809000  -12.199000
8411   5   1   -49.24000   -13.247000  -11.656000
8412   5   1   -50.368000   -9.765000  -12.203000
8413   5   1   -46.906000   -16.034000  -12.455000
8414   5   1   -51.655000   -13.198000  -11.623000
8415   5   1   -48.066000   -15.361000  -11.792000
8416   5   1   -49.3000   -15.977000  -12.358000
8417   5   1   -50.461000   -15.296000  -11.708000
8418   5   1   -46.741000   -9.109000  -11.701000
8419   5   1   -49.158000   -9.096000  -11.632000
8420   5   1   -44.46000   -11.938000  -12.45000
8421   5   1   -45.584000   -11.212000  -11.791000
8422   5   1   -46.828000   -11.89000  -12.257000
8423   5   1   -48.065000   -13.945000  -12.257000
8424   5   1   -50.473000   -13.898000  -12.197000
8425   5   1   -45.595000   -9.826000  -12.36000
8426   5   1   -47.974000   -9.785000  -12.198000
8427   5   1   -47.424000   -11.497000  9.568000
8428   5   1   -48.72000   -12.195000  9.038000
8429   5   1   -43.717000   -13.714000  9.589000
8430   5   1   -44.93000   -14.465000  8.98000
8431   5   1   -46.191000   -13.713000  9.514000
8432   5   1   -45.027000   -15.901000  9.573000
8433   5   1   -49.976000   -11.447000  9.614000
8434   5   1   -51.242000   -12.164000  9.084000
8435   5   1   -48.727000   -13.672000  9.555000
8436   5   1   -49.936000   -9.984000  9.098000
8437   5   1   -46.239000   -16.624000  8.936000
8438   5   1   -51.198000   -13.587000  9.704000
8439   5   1   -47.493000   -15.907000  9.506000
8440   5   1   -48.781000   -16.585000  8.979000
8441   5   1   -49.956000   -15.816000  9.651000
8442   5   1   -46.117000   -9.4000  9.692000
8443   5   1   -48.666000   -9.36000  9.732000
8444   5   1   -43.639000   -12.29000  8.965000
8445   5   1   -44.869000   -11.528000  9.534000
8446   5   1   -46.164000   -12.235000  8.997000
8447   5   1   -47.477000   -14.426000  8.984000
8448   5   1   -50.024000   -14.381000  9.061000
8449   5   1   -44.878000   -10.063000  9.019000
8450   5   1   -47.408000   -10.012000  9.088000
8451   5   1   -47.406000   -11.54000  11.16000
8452   5   1   -48.671000   -12.249000  11.706000
8453   5   1   -43.706000   -13.745000  11.124000
8454   5   1   -43.657000   -12.327000  11.694000
8455   5   1   -44.951000   -14.481000  11.657000
8456   5   1   -46.187000   -13.731000  11.106000
8457   5   1   -45.004000   -15.917000  11.108000
8458   5   1   -49.943000   -11.484000  11.212000
8459   5   1   -49.886000   -10.07000  11.822000
8460   5   1   -51.174000   -12.207000  11.808000
8461   5   1   -46.232000   -16.64000  11.662000
8462   5   1   -51.179000   -13.624000  11.237000
8463   5   1   -47.474000   -15.915000  11.104000
8464   5   1   -47.445000   -14.45000  11.652000
8465   5   1   -48.725000   -16.594000  11.701000
8466   5   1   -49.945000   -15.833000  11.184000
8467   5   1   -48.636000   -9.386000  11.266000
8468   5   1   -44.871000   -11.563000  11.133000
8469   5   1   -44.863000   -10.145000  11.745000
8470   5   1   -46.152000   -12.289000  11.666000
8471   5   1   -48.695000   -13.69000  11.146000
8472   5   1   -49.943000   -14.394000  11.734000
8473   5   1   -46.105000   -9.423000  11.226000
8474   5   1   -47.373000   -10.115000  11.762000
8475   5   1   -47.37000   -11.608000  13.836000
8476   5   1   -48.635000   -12.286000  13.294000
8477   5   1   -43.741000   -13.789000  13.789000
8478   5   1   -44.957000   -14.5000  13.229000
8479   5   1   -46.175000   -13.765000  13.783000
8480   5   1   -44.983000   -15.926000  13.781000
8481   5   1   -49.854000   -11.57000  13.889000
8482   5   1   -51.111000   -12.247000  13.352000
8483   5   1   -48.641000   -13.722000  13.822000
8484   5   1   -49.819000   -10.143000  13.363000
8485   5   1   -46.223000   -16.619000  13.207000
8486   5   1   -51.111000   -13.675000  13.911000
8487   5   1   -47.431000   -15.891000  13.783000
8488   5   1   -48.689000   -16.555000  13.243000
8489   5   1   -49.88000   -15.822000  13.848000
8490   5   1   -46.095000   -9.496000  13.901000
8491   5   1   -48.567000   -9.487000  13.931000
8492   5   1   -43.704000   -12.371000  13.236000
8493   5   1   -44.903000   -11.634000  13.813000
8494   5   1   -46.151000   -12.325000  13.255000
8495   5   1   -47.425000   -14.456000  13.24000
8496   5   1   -49.907000   -14.404000  13.306000
8497   5   1   -44.881000   -10.203000  13.289000
8498   5   1   -47.347000   -10.165000  13.335000
8499   5   1   -47.346000   -11.644000  15.424000
8500   5   1   -48.572000   -12.342000  15.984000
8501   5   1   -43.753000   -13.812000  15.33000
8502   5   1   -43.727000   -12.432000  15.939000
8503   5   1   -44.947000   -14.527000  15.907000
8504   5   1   -46.16000   -13.786000  15.371000
8505   5   1   -44.979000   -15.924000  15.336000
8506   5   1   -49.802000   -11.615000  15.479000
8507   5   1   -49.731000   -10.234000  16.068000
8508   5   1   -51.002000   -12.313000  16.088000
8509   5   1   -46.195000   -16.598000  15.943000
8510   5   1   -51.05000   -13.697000  15.467000
8511   5   1   -47.405000   -15.885000  15.373000
8512   5   1   -47.385000   -14.477000  15.932000
8513   5   1   -48.631000   -16.535000  15.949000
8514   5   1   -49.837000   -15.817000  15.391000
8515   5   1   -48.528000   -9.545000  15.472000
8516   5   1   -44.907000   -11.674000  15.402000
8517   5   1   -44.887000   -10.292000  16.024000
8518   5   1   -46.131000   -12.38000  15.946000
8519   5   1   -48.608000   -13.742000  15.41000
8520   5   1   -49.835000   -14.43000  15.984000
8521   5   1   -46.085000   -9.553000  15.455000
8522   5   1   -47.305000   -10.244000  16.013000
8523   5   1   -47.305000   -11.699000  18.114000
8524   5   1   -48.542000   -12.372000  17.57000
8525   5   1   -43.708000   -13.851000  18.057000
8526   5   1   -44.923000   -14.542000  17.502000
8527   5   1   -46.122000   -13.82000  18.061000
8528   5   1   -44.958000   -15.933000  18.101000
8529   5   1   -49.734000   -11.662000  18.179000
8530   5   1   -50.956000   -12.345000  17.647000
8531   5   1   -48.55000   -13.784000  18.1000
8532   5   1   -49.705000   -10.265000  17.614000
8533   5   1   -46.172000   -16.605000  17.503000
8534   5   1   -50.956000   -13.737000  18.232000
8535   5   1   -47.368000   -15.908000  18.073000
8536   5   1   -48.6000   -16.558000  17.494000
8537   5   1   -49.784000   -15.86000  18.121000
8538   5   1   -46.056000   -9.637000  18.22000
8539   5   1   -48.485000   -9.594000  18.201000
8540   5   1   -43.704000   -12.453000  17.483000
8541   5   1   -44.875000   -11.734000  18.101000
8542   5   1   -46.108000   -12.406000  17.532000
8543   5   1   -47.355000   -14.498000  17.518000
8544   5   1   -49.796000   -14.458000  17.579000
8545   5   1   -44.874000   -10.329000  17.583000
8546   5   1   -47.285000   -10.278000  17.607000
8547   5   1   -47.275000   -11.734000  19.69000
8548   5   1   -48.474000   -12.42000  20.243000
8549   5   1   -43.689000   -13.873000  19.608000
8550   5   1   -43.653000   -12.504000  20.223000
8551   5   1   -44.895000   -14.545000  20.172000
8552   5   1   -46.103000   -13.842000  19.637000
8553   5   1   -44.95000   -15.935000  19.663000
8554   5   1   -49.684000   -11.684000  19.776000
8555   5   1   -49.65000   -10.306000  20.357000
8556   5   1   -50.824000   -12.399000  20.426000
8557   5   1   -46.157000   -16.572000  20.285000
8558   5   1   -50.898000   -13.756000  19.793000
8559   5   1   -47.354000   -15.917000  19.671000
8560   5   1   -47.317000   -14.52000  20.191000
8561   5   1   -48.559000   -16.598000  20.237000
8562   5   1   -49.75000   -15.878000  19.673000
8563   5   1   -48.455000   -9.628000  19.753000
8564   5   1   -44.852000   -11.78000  19.698000
8565   5   1   -44.875000   -10.44000  20.362000
8566   5   1   -46.076000   -12.466000  20.205000
8567   5   1   -48.515000   -13.803000  19.676000
8568   5   1   -49.705000   -14.504000  20.249000
8569   5   1   -46.038000   -9.691000  19.781000
8570   5   1   -47.265000   -10.358000  20.277000
8571   5   1   -54.909000   2.137000  1.274000
8572   5   1   -54.923000   2.126000  2.853000
8573   5   1   -54.928000   2.088000  5.608000
8574   5   1   -56.175000   1.437000  0.703000
8575   5   1   -56.194000   1.417000  3.431000
8576   5   1   -56.197000   1.395000  5.01000
8577   5   1   -56.186000   1.338000  7.736000
8578   5   1   -54.919000   2.055000  7.186000
8579   5   1   -38.193000   0.963000  0.486000
8580   5   1   -39.414000   1.741000  1.051000
8581   5   1   -39.397000   1.745000  2.631000
8582   5   1   -38.167000   0.972000  3.211000
8583   5   1   -38.16000   0.968000  4.791000
8584   5   1   -39.387000   1.736000  5.388000
8585   5   1   -39.396000   1.721000  6.967000
8586   5   1   -38.169000   0.94000  7.519000
8587   5   1   -38.677000   -26.928000  0.622000
8588   5   1   -38.664000   -26.985000  2.2000
8589   5   1   -38.646000   -27.059000  4.953000
8590   5   1   -38.636000   -27.084000  6.532000
8591   5   1   -39.948000   -27.618000  0.051000
8592   5   1   -39.926000   -27.709000  2.779000
8593   5   1   -39.916000   -27.753000  4.358000
8594   5   1   -39.9000   -27.803000  7.086000
8595   5   1   -56.552000   -26.954000  6.834000
8596   5   1   -55.315000   -27.606000  0.353000
8597   5   1   -56.573000   -26.887000  0.918000
8598   5   1   -55.316000   -27.651000  3.074000
8599   5   1   -56.571000   -26.914000  2.498000
8600   5   1   -55.308000   -27.669000  4.653000
8601   5   1   -56.56000   -26.948000  5.255000
8602   5   1   -55.287000   -27.677000  7.38000
8603   5   1   -64.264000   -13.299000  1.238000
8604   5   1   -64.26000   -13.311000  2.816000
8605   5   1   -64.228000   -13.342000  5.57000
8606   5   1   -64.194000   -13.366000  7.148000
8607   5   1   -64.229000   -11.843000  0.693000
8608   5   1   -64.22000   -11.867000  3.42000
8609   5   1   -64.203000   -11.885000  4.998000
8610   5   1   -64.147000   -11.922000  7.724000
8611   5   2   -34.551000   -10.586000  4.82000
8612   5   2   -34.647000   -15.512000  2.603000
8613   5   2   -34.607000   -15.545000  4.791000
8614   5   2   -34.588000   -10.553000  2.724000
8615   5   2   -32.006000   -10.606000  4.782000
8616   5   2   -32.119000   -15.563000  2.549000
8617   5   2   -32.078000   -15.596000  4.749000
8618   5   2   -32.043000   -10.574000  2.666000
8619   5   2   -42.888000   -0.558000  5.132000
8620   5   2   -38.705000   -3.157000  2.927000
8621   5   2   -38.681000   -3.168000  5.025000
8622   5   2   -42.906000   -0.548000  2.935000
8623   5   2   -41.533000   1.605000  5.136000
8624   5   2   -37.335000   -1.03000  2.928000
8625   5   2   -37.32000   -1.033000  5.048000
8626   5   2   -41.536000   1.608000  2.913000
8627   5   2   -55.912000   -2.762000  3.135000
8628   5   2   -55.913000   -2.791000  5.233000
8629   5   2   -51.585000   -0.366000  3.097000
8630   5   2   -51.581000   -0.386000  5.286000
8631   5   2   -57.132000   -0.527000  3.136000
8632   5   2   -57.149000   -0.554000  5.263000
8633   5   2   -52.778000   1.866000  3.126000
8634   5   2   -52.78000   1.842000  5.328000
8635   5   2   -60.474000   -15.157000  5.225000
8636   5   2   -60.392000   -10.184000  3.139000
8637   5   2   -60.372000   -10.201000  5.237000
8638   5   2   -60.494000   -15.129000  3.035000
8639   5   2   -63.017000   -15.123000  5.261000
8640   5   2   -62.933000   -10.126000  3.153000
8641   5   2   -62.919000   -10.14000  5.276000
8642   5   2   -63.044000   -15.094000  3.055000
8643   5   2   -56.181000   -22.766000  2.836000
8644   5   2   -56.172000   -22.792000  5.037000
8645   5   2   -51.903000   -25.232000  2.82000
8646   5   2   -51.889000   -25.267000  4.919000
8647   5   2   -57.422000   -24.935000  2.792000
8648   5   2   -64.195000   -11.849000  -0.396000
8649   5   2   -65.133000   -11.294000  0.951000
8650   5   2   -50.106000   -24.207000  4.936000
8651   5   2   -47.668000   -24.181000  2.685000
8652   5   2   -47.629000   -24.224000  4.892000
8653   5   2   -45.149000   -24.217000  2.638000
8654   5   2   -58.702000   -16.206000  3.047000
8655   5   2   -56.219000   -20.654000  2.944000
8656   5   2   -65.06000   -11.372000  7.504000
8657   5   2   -56.202000   -20.676000  5.045000
8658   5   2   -57.471000   -18.4000  2.999000
8659   5   2   -57.45000   -18.444000  5.109000
8660   5   2   -55.933000   -4.896000  5.29000
8661   5   2   -55.946000   -4.861000  3.089000
8662   5   2   -44.772000   -1.532000  3.025000
8663   5   2   -44.757000   -1.548000  5.127000
8664   5   2   -47.298000   -1.482000  3.061000
8665   5   2   -47.281000   -1.499000  5.171000
8666   5   2   -49.791000   -1.453000  5.201000
8667   5   2   -49.809000   -1.433000  3.099000
8668   5   2   -39.02000   -20.795000  2.642000
8669   5   2   -38.988000   -20.841000  4.744000
8670   5   2   -36.469000   -16.539000  2.665000
8671   5   2   -37.749000   -18.675000  2.65000
8672   5   2   -37.713000   -18.713000  4.759000
8673   5   2   -36.432000   -16.573000  4.766000
8674   5   2   -38.768000   -5.234000  5.033000
8675   5   2   -36.405000   -9.51000  2.727000
8676   5   2   -37.616000   -7.357000  2.781000
8677   5   2   -37.579000   -7.388000  4.981000
8678   5   2   -36.366000   -9.543000  4.923000
8679   5   2   -38.801000   -5.21000  2.835000
8680   5   2   -53.142000   -27.47000  7.163000
8681   5   2   -43.281000   -25.366000  6.944000
8682   5   2   -38.972000   -22.927000  6.935000
8683   5   2   -42.045000   -27.574000  6.898000
8684   5   2   -37.702000   -25.12000  6.873000
8685   5   2   -57.205000   -7.079000  7.451000
8686   5   2   -58.5000   -9.225000  7.443000
8687   5   2   -34.592000   -15.602000  6.95000
8688   5   2   -34.528000   -10.651000  7.049000
8689   5   2   -32.057000   -15.654000  6.901000
8690   5   2   -31.996000   -10.664000  7.028000
8691   5   2   -38.695000   -3.176000  7.257000
8692   5   2   -42.907000   -0.571000  7.284000
8693   5   2   -37.344000   -1.049000  7.295000
8694   5   2   -41.575000   1.601000  7.276000
8695   5   2   -55.876000   -2.816000  7.456000
8696   5   2   -51.541000   -0.418000  7.448000
8697   5   2   -57.119000   -0.603000  7.5000
8698   5   2   -52.752000   1.813000  7.481000
8699   5   2   -60.334000   -10.256000  7.464000
8700   5   2   -60.427000   -15.209000  7.383000
8701   5   2   -62.865000   -10.188000  7.519000
8702   5   2   -62.971000   -15.178000  7.41000
8703   5   2   -56.183000   -22.787000  7.19000
8704   5   2   -51.897000   -25.269000  7.15000
8705   5   2   -57.469000   -24.98000  7.161000
8706   5   2   -50.082000   -24.245000  7.102000
8707   5   2   -47.595000   -24.267000  7.054000
8708   5   2   -45.099000   -24.305000  7.001000
8709   5   2   -58.605000   -16.266000  7.379000
8710   5   2   -56.141000   -20.673000  7.275000
8711   5   2   -57.374000   -18.467000  7.334000
8712   5   2   -55.921000   -4.925000  7.451000
8713   5   2   -44.742000   -1.617000  7.358000
8714   5   2   -47.254000   -1.573000  7.404000
8715   5   2   -49.761000   -1.526000  7.437000
8716   5   2   -38.99000   -20.853000  6.985000
8717   5   2   -36.438000   -16.588000  7.005000
8718   5   2   -37.719000   -18.722000  6.999000
8719   5   2   -36.329000   -9.579000  7.091000
8720   5   2   -37.546000   -7.418000  7.151000
8721   5   2   -38.74000   -5.252000  7.203000
8722   5   2   -57.542000   -9.879000  8.718000
8723   5   2   -59.001000   -12.005000  8.644000
8724   5   2   -56.211000   -7.678000  8.731000
8725   5   2   -33.304000   -12.393000  8.24000
8726   5   2   -34.61000   -14.503000  8.278000
8727   5   2   -30.798000   -12.474000  8.277000
8728   5   2   -32.04000   -14.574000  8.25000
8729   5   2   -39.495000   -1.25000  8.518000
8730   5   2   -41.974000   -1.213000  8.583000
8731   5   2   -40.647000   0.995000  8.601000
8732   5   2   -54.974000   -0.927000  8.714000
8733   5   2   -52.491000   -1.026000  8.752000
8734   5   2   -53.705000   1.244000  8.805000
8735   5   2   -61.577000   -11.956000  8.699000
8736   5   2   -60.336000   -14.105000  8.704000
8737   5   2   -62.911000   -14.094000  8.755000
8738   5   2   -53.977000   -25.487000  8.403000
8739   5   2   -55.177000   -23.317000  8.485000
8740   5   2   -56.498000   -25.528000  8.482000
8741   5   2   -39.963000   -23.459000  8.241000
8742   5   2   -41.176000   -25.617000  8.16000
8743   5   2   -38.66000   -25.678000  8.199000
8744   5   2   -53.73000   -7.664000  8.604000
8745   5   8   -42.072000   -14.676000  8.122000
8746   5   2   -40.847000   -3.438000  8.487000
8747   5   2   -52.685000   -23.257000  8.392000
8748   5   2   -55.058000   -9.88000  8.596000
8749   5   2   -39.862000   -18.936000  8.238000
8750   5   2   -42.401000   -18.927000  8.228000
8751   5   2   -38.522000   -7.995000  8.458000
8752   5   2   -53.719000   -3.179000  8.664000
8753   5   2   -42.206000   -5.626000  8.45000
8754   5   8   -52.886000   -14.552000  8.302000
8755   5   2   -44.741000   -5.578000  8.467000
8756   5   2   -48.556000   -3.319000  8.608000
8757   5   2   -55.179000   -14.3000  8.514000
8758   5   2   -43.685000   -21.114000  8.236000
8759   5   2   -35.876000   -12.364000  8.264000
8760   5   2   -51.13000   -3.235000  8.637000
8761   5   2   -39.753000   -10.141000  8.347000
8762   5   2   -48.827000   -21.01000  8.336000
8763   5   8   -50.17000   -18.852000  8.366000
8764   5   2   -46.254000   -21.042000  8.288000
8765   5   8   -42.21000   -10.032000  8.379000
8766   5   8   -46.095000   -7.441000  8.299000
8767   5   2   -52.655000   -18.81000  8.407000
8768   5   2   -56.456000   -16.501000  8.556000
8769   5   8   -44.885000   -18.911000  8.273000
8770   5   2   -52.438000   -5.428000  8.605000
8771   5   8   -48.591000   -7.398000  8.342000
8772   5   2   -37.201000   -14.569000  8.251000
8773   5   2   -47.556000   -23.15000  8.372000
8774   5   2   -39.769000   -14.523000  8.248000
8775   5   2   -54.898000   -5.467000  8.728000
8776   5   2   -50.115000   -23.128000  8.417000
8777   5   2   -41.094000   -16.718000  8.221000
8778   5   2   -53.96000   -21.021000  8.439000
8779   5   8   -52.605000   -9.852000  8.548000
8780   5   8   -43.347000   -16.808000  8.112000
8781   5   2   -39.75000   -5.76000  8.507000
8782   5   2   -43.412000   -3.378000  8.519000
8783   5   8   -53.917000   -12.154000  8.526000
8784   5   2   -45.984000   -3.366000  8.568000
8785   5   2   -56.421000   -12.075000  8.583000
8786   5   2   -41.138000   -21.153000  8.22000
8787   5   2   -37.267000   -10.214000  8.393000
8788   5   2   -41.002000   -7.898000  8.404000
8789   5   8   -51.667000   -16.732000  8.249000
8790   5   8   -47.53000   -18.938000  8.33000
8791   5   8   -43.534000   -7.749000  8.421000
8792   5   2   -47.315000   -5.537000  8.492000
8793   5   2   -53.914000   -16.555000  8.443000
8794   5   2   -42.442000   -23.378000  8.202000
8795   5   2   -57.744000   -14.263000  8.597000
8796   5   2   -49.893000   -5.482000  8.549000
8797   5   2   -38.46000   -12.358000  8.283000
8798   5   2   -44.999000   -23.193000  8.316000
8799   5   8   -40.971000   -12.358000  8.307000
8800   5   2   -51.404000   -21.024000  8.376000
8801   5   2   -55.195000   -18.756000  8.501000
8802   5   8   -51.191000   -7.609000  8.546000
8803   5   2   -38.55000   -16.744000  8.248000
8804   5   2   -53.176000   -27.391000  0.545000
8805   5   2   -43.337000   -25.211000  0.371000
8806   5   2   -39.05000   -22.767000  0.422000
8807   5   2   -42.084000   -27.377000  0.257000
8808   5   2   -37.757000   -24.945000  0.368000
8809   5   2   -58.583000   -9.156000  0.903000
8810   5   2   -57.27000   -7.001000  0.883000
8811   5   2   -34.646000   -10.551000  0.494000
8812   5   2   -34.709000   -15.502000  0.443000
8813   5   2   -32.116000   -10.563000  0.42000
8814   5   2   -32.176000   -15.555000  0.396000
8815   5   2   -42.959000   -0.526000  0.753000
8816   5   2   -38.766000   -3.144000  0.696000
8817   5   2   -41.587000   1.627000  0.708000
8818   5   2   -37.387000   -1.037000  0.682000
8819   5   2   -55.892000   -2.725000  0.885000
8820   5   2   -51.562000   -0.353000  0.936000
8821   5   2   -57.096000   -0.508000  0.867000
8822   5   2   -52.745000   1.887000  0.972000
8823   5   2   -60.497000   -15.13000  0.868000
8824   5   2   -60.405000   -10.192000  0.896000
8825   5   2   -63.05000   -15.098000  0.891000
8826   5   2   -62.927000   -10.131000  0.892000
8827   5   2   -56.222000   -22.712000  0.639000
8828   5   2   -51.938000   -25.166000  0.587000
8829   5   2   -57.459000   -24.894000  0.569000
8830   5   2   -45.181000   -24.181000  0.459000
8831   5   2   -50.169000   -24.13000  0.561000
8832   5   2   -47.697000   -24.146000  0.5000
8833   5   2   -58.685000   -16.166000  0.798000
8834   5   2   -56.219000   -20.587000  0.697000
8835   5   2   -57.458000   -18.354000  0.737000
8836   5   2   -55.973000   -4.833000  0.899000
8837   5   2   -44.818000   -1.552000  0.774000
8838   5   2   -47.334000   -1.507000  0.812000
8839   5   2   -49.827000   -1.459000  0.858000
8840   5   2   -39.097000   -20.723000  0.403000
8841   5   2   -37.833000   -18.612000  0.412000
8842   5   2   -36.554000   -16.484000  0.427000
8843   5   2   -38.838000   -5.186000  0.665000
8844   5   2   -37.653000   -7.329000  0.612000
8845   5   2   -36.442000   -9.482000  0.559000
8846   5   2   -53.838000   -7.565000  -0.329000
8847   5   2   -40.953000   -3.352000  -0.502000
8848   5   2   -52.784000   -23.131000  -0.594000
8849   5   2   -54.08000   -20.881000  -0.537000
8850   5   2   -55.172000   -9.775000  -0.336000
8851   5   2   -40.017000   -18.782000  -0.758000
8852   5   2   -38.673000   -7.865000  -0.679000
8853   5   2   -53.773000   -3.088000  -0.325000
8854   5   2   -42.343000   -5.516000  -0.48000
8855   5   2   -42.553000   -18.776000  -0.66000
8856   5   8   -53.006000   -14.464000  -0.213000
8857   5   2   -43.54000   -3.283000  -0.461000
8858   5   2   -44.876000   -5.47000  -0.411000
8859   5   2   -48.67000   -3.223000  -0.383000
8860   5   8   -54.046000   -12.039000  -0.347000
8861   5   2   -55.298000   -14.178000  -0.363000
8862   5   2   -43.833000   -20.951000  -0.695000
8863   5   2   -36.038000   -12.226000  -0.721000
8864   5   2   -51.222000   -3.144000  -0.343000
8865   5   2   -39.905000   -10.008000  -0.595000
8866   5   2   -48.977000   -20.859000  -0.601000
8867   5   8   -50.322000   -18.714000  -0.509000
8868   5   2   -41.15000   -7.775000  -0.539000
8869   5   8   -42.365000   -9.9000  -0.541000
8870   5   8   -46.212000   -7.325000  -0.24000
8871   5   2   -46.407000   -20.886000  -0.65000
8872   5   2   -56.573000   -16.369000  -0.434000
8873   5   8   -45.041000   -18.764000  -0.618000
8874   5   2   -52.536000   -5.336000  -0.322000
8875   5   2   -47.441000   -5.432000  -0.351000
8876   5   8   -48.684000   -7.284000  -0.195000
8877   5   2   -37.361000   -14.429000  -0.729000
8878   5   2   -57.854000   -14.143000  -0.381000
8879   5   2   -47.706000   -22.975000  -0.764000
8880   5   2   -42.563000   -23.181000  -0.792000
8881   5   2   -52.791000   -18.673000  -0.466000
8882   5   2   -38.616000   -12.22000  -0.646000
8883   5   2   -39.923000   -14.384000  -0.635000
8884   5   2   -54.983000   -5.374000  -0.396000
8885   5   2   -50.254000   -22.967000  -0.707000
8886   5   2   -41.248000   -16.574000  -0.63000
8887   5   8   -51.313000   -7.499000  -0.333000
8888   5   8   -52.741000   -9.734000  -0.342000
8889   5   2   -55.321000   -18.621000  -0.485000
8890   5   8   -43.504000   -16.66000  -0.454000
8891   5   2   -39.893000   -5.649000  -0.62000
8892   5   2   -46.11000   -3.267000  -0.423000
8893   5   2   -56.533000   -11.962000  -0.342000
8894   5   2   -41.284000   -20.986000  -0.765000
8895   5   2   -37.424000   -10.076000  -0.729000
8896   5   8   -51.804000   -16.622000  -0.266000
8897   5   8   -47.689000   -18.795000  -0.576000
8898   5   8   -43.679000   -7.625000  -0.465000
8899   5   2   -54.043000   -16.427000  -0.392000
8900   5   2   -50.007000   -5.385000  -0.332000
8901   5   8   -41.125000   -12.22000  -0.585000
8902   5   2   -51.541000   -20.882000  -0.55000
8903   5   2   -45.143000   -23.016000  -0.807000
8904   5   2   -38.707000   -16.599000  -0.745000
8905   5   2   -56.299000   -7.587000  -0.408000
8906   5   2   -57.65000   -9.776000  -0.402000
8907   5   2   -59.105000   -11.9000  -0.342000
8908   5   2   -33.469000   -12.255000  -0.794000
8909   5   2   -34.776000   -14.363000  -0.848000
8910   5   2   -30.968000   -12.333000  -0.928000
8911   5   2   -32.209000   -14.434000  -0.918000
8912   5   2   -39.555000   -1.204000  -0.523000
8913   5   2   -42.042000   -1.162000  -0.551000
8914   5   2   -40.65000   1.008000  -0.589000
8915   5   2   -54.977000   -0.815000  -0.328000
8916   5   2   -52.522000   -0.921000  -0.378000
8917   5   2   -53.7000   1.36000  -0.366000
8918   5   2   -61.678000   -11.86000  -0.34000
8919   5   2   -60.44000   -13.994000  -0.424000
8920   5   2   -63.018000   -13.978000  -0.418000
8921   5   2   -54.018000   -25.382000  -0.639000
8922   5   2   -55.215000   -23.21000  -0.656000
8923   5   2   -56.473000   -25.45000  -0.716000
8924   5   2   -41.253000   -25.386000  -0.888000
8925   5   2   -40.059000   -23.245000  -0.892000
8926   5   2   -38.731000   -25.439000  -0.971000
8927   5   8   -42.224000   -14.527000  -0.442000
8928   5   2   -29.915000   -11.857000  2.557000
8929   5   2   -29.875000   -11.891000  4.772000
8930   5   2   -29.842000   -11.919000  6.943000
8931   5   2   -29.962000   -11.819000  0.386000
8932   5   2   -29.944000   -14.353000  2.558000
8933   5   2   -29.898000   -14.415000  6.955000
8934   5   2   -30.019000   -14.314000  0.3000
8935   5   2   -54.88000   3.166000  0.916000
8936   5   2   -54.906000   3.136000  5.314000
8937   5   2   -57.083000   1.984000  0.948000
8938   5   2   -56.134000   1.417000  -0.386000
8939   5   2   -57.087000   1.957000  3.118000
8940   5   2   -57.09000   1.928000  5.334000
8941   5   2   -56.147000   1.289000  8.824000
8942   5   2   -57.094000   1.89000  7.504000
8943   5   2   -54.896000   3.075000  7.572000
8944   5   2   -38.235000   0.934000  -0.603000
8945   5   2   -37.253000   1.456000  0.726000
8946   5   2   -39.381000   2.768000  0.684000
8947   5   2   -39.361000   2.787000  2.943000
8948   5   2   -37.246000   1.458000  2.89000
8949   5   2   -37.238000   1.453000  5.108000
8950   5   2   -39.354000   2.78000  5.082000
8951   5   2   -39.362000   2.745000  7.341000
8952   5   2   -37.234000   1.442000  7.281000
8953   5   2   -38.209000   0.901000  8.607000
8954   5   2   -37.794000   -27.433000  0.23000
8955   5   2   -37.75000   -27.582000  4.624000
8956   5   2   -37.748000   -27.61000  6.883000
8957   5   2   -39.964000   -27.538000  -1.036000
8958   5   2   -39.958000   -28.685000  0.263000
8959   5   2   -39.948000   -28.741000  2.431000
8960   5   2   -39.93000   -28.803000  4.648000
8961   5   2   -39.911000   -28.858000  6.819000
8962   5   2   -39.899000   -27.78000  8.175000
8963   5   2   -57.44000   -27.469000  7.202000
8964   5   2   -55.315000   -28.668000  0.59000
8965   5   2   -55.307000   -27.554000  -0.735000
8966   5   2   -57.467000   -27.388000  0.545000
8967   5   2   -55.318000   -28.689000  2.745000
8968   5   2   -57.479000   -27.43000  2.806000
8969   5   2   -55.307000   -28.714000  4.96000
8970   5   2   -57.469000   -27.46000  4.942000
8971   5   2   -55.273000   -27.636000  8.469000
8972   5   2   -55.291000   -28.736000  7.132000
8973   5   2   -65.165000   -13.793000  0.871000
8974   5   2   -65.171000   -13.819000  3.13000
8975   5   2   -65.146000   -13.843000  5.267000
8976   5   2   -65.086000   -13.868000  7.525000
8977   5   2   -57.434000   -24.972000  5.019000
8978   5   2   -45.124000   -24.26000  4.839000
8979   5   2   -50.139000   -24.167000  2.736000
8980   5   2   -65.113000   -11.32000  3.117000
8981   5   2   -65.09000   -11.348000  5.333000
8982   5   2   -58.679000   -16.245000  5.149000
8983   5   2   -64.085000   -11.953000  8.812000
8984   5   2   -43.026000   -14.09000  -1.782000
8985   5   2   -42.936000   -11.656000  -1.548000
8986   5   2   -49.095000   -17.422000  -3.54000
8987   5   2   -44.364000   -16.311000  -1.784000
8988   5   2   -46.316000   -8.177000  -1.596000
8989   5   2   -50.988000   -9.303000  -1.302000
8990   5   2   -52.299000   -11.487000  -1.305000
8991   5   2   -52.391000   -13.894000  -3.468000
8992   5   2   -51.163000   -16.112000  -3.547000
8993   5   2   -46.441000   -17.479000  -1.552000
8994   5   2   -52.354000   -13.857000  -1.534000
8995   5   2   -44.243000   -9.358000  -3.534000
8996   5   2   -46.523000   -17.466000  -3.613000
8997   5   2   -48.927000   -8.139000  -1.525000
8998   5   2   -46.369000   -8.142000  -3.541000
8999   5   2   -48.906000   -8.096000  -3.468000
9000   5   2   -49.011000   -17.436000  -1.491000
9001   5   2   -42.997000   -11.608000  -3.618000
9002   5   2   -44.191000   -9.397000  -1.477000
9003   5   2   -51.089000   -16.15000  -1.611000
9004   5   2   -43.095000   -14.053000  -3.75000
9005   5   2   -44.406000   -16.231000  -3.75000
9006   5   2   -52.402000   -11.443000  -3.322000
9007   5   2   -51.077000   -9.238000  -3.325000
9008   5   2   -43.157000   -14.031000  -5.811000
9009   5   2   -43.103000   -11.559000  -5.789000
9010   5   2   -49.163000   -17.188000  -7.784000
9011   5   2   -44.46000   -16.2000  -5.805000
9012   5   2   -46.453000   -8.08000  -5.571000
9013   5   2   -51.148000   -9.222000  -5.481000
9014   5   2   -52.455000   -11.384000  -5.472000
9015   5   2   -52.446000   -13.832000  -7.645000
9016   5   2   -51.277000   -15.919000  -7.77000
9017   5   2   -46.62000   -17.41000  -5.781000
9018   5   2   -52.49000   -13.864000  -5.492000
9019   5   2   -44.475000   -9.428000  -7.73000
9020   5   2   -46.773000   -17.242000  -7.822000
9021   5   2   -48.979000   -8.033000  -5.497000
9022   5   2   -46.603000   -8.137000  -7.722000
9023   5   2   -48.987000   -8.101000  -7.695000
9024   5   2   -49.149000   -17.363000  -5.709000
9025   5   2   -43.329000   -11.513000  -7.865000
9026   5   2   -44.321000   -9.349000  -5.697000
9027   5   2   -51.264000   -16.08000  -5.583000
9028   5   2   -43.376000   -13.983000  -8.007000
9029   5   2   -44.591000   -16.039000  -7.958000
9030   5   2   -52.387000   -11.344000  -7.505000
9031   5   2   -51.151000   -9.299000  -7.554000
9032   5   2   -50.387000   -9.748000  -13.294000
9033   5   2   -51.635000   -11.814000  -13.29000
9034   5   2   -48.104000   -13.897000  -13.35000
9035   5   2   -49.343000   -15.948000  -13.448000
9036   5   2   -46.888000   -11.878000  -13.35000
9037   5   2   -45.715000   -13.972000  -13.462000
9038   5   2   -44.512000   -11.926000  -13.541000
9039   5   2   -45.671000   -9.811000  -13.449000
9040   5   2   -48.008000   -9.766000  -13.292000
9041   5   2   -46.936000   -15.964000  -13.544000
9042   5   2   -49.239000   -11.84000  -13.268000
9043   5   2   -50.506000   -13.875000  -13.291000
9044   5   2   -43.529000   -13.923000  -10.046000
9045   5   2   -43.495000   -11.47000  -10.098000
9046   5   2   -49.243000   -16.96000  -12.033000
9047   5   2   -44.692000   -15.922000  -10.025000
9048   5   2   -46.721000   -8.137000  -9.777000
9049   5   2   -51.181000   -9.319000  -9.79000
9050   5   2   -52.4000   -11.268000  -9.747000
9051   5   2   -52.455000   -13.74000  -12.031000
9052   5   2   -51.335000   -15.679000  -12.113000
9053   5   2   -46.908000   -17.137000  -10.067000
9054   5   2   -52.453000   -13.791000  -9.711000
9055   5   2   -44.666000   -9.434000  -12.088000
9056   5   2   -47.014000   -17.034000  -12.184000
9057   5   2   -49.035000   -8.124000  -9.736000
9058   5   2   -46.84000   -8.141000  -12.093000
9059   5   2   -49.086000   -8.146000  -12.05000
9060   5   2   -49.202000   -17.056000  -10.007000
9061   5   2   -43.619000   -11.418000  -12.141000
9062   5   2   -44.567000   -9.442000  -9.974000
9063   5   2   -51.302000   -15.801000  -9.805000
9064   5   2   -43.696000   -13.859000  -12.355000
9065   5   2   -44.813000   -15.795000  -12.342000
9066   5   2   -52.417000   -11.216000  -11.864000
9067   5   2   -51.228000   -9.315000  -11.84000
9068   5   2   -48.615000   -8.354000  11.617000
9069   5   2   -42.815000   -14.246000  9.488000
9070   5   2   -43.994000   -9.565000  9.387000
9071   5   2   -44.149000   -16.471000  9.47000
9072   5   2   -52.111000   -11.658000  9.476000
9073   5   2   -42.812000   -14.281000  11.439000
9074   5   2   -42.729000   -11.836000  11.405000
9075   5   2   -50.793000   -9.458000  9.49000
9076   5   2   -46.093000   -8.351000  9.628000
9077   5   2   -46.086000   -8.391000  11.578000
9078   5   2   -44.107000   -16.453000  11.422000
9079   5   2   -46.235000   -17.644000  9.291000
9080   5   2   -50.777000   -9.502000  11.559000
9081   5   2   -52.092000   -11.687000  11.536000
9082   5   2   -43.964000   -9.607000  11.449000
9083   5   2   -52.13000   -14.065000  9.631000
9084   5   2   -46.228000   -17.684000  11.352000
9085   5   2   -52.08000   -14.137000  11.576000
9086   5   2   -48.687000   -8.31000  9.667000
9087   5   2   -48.776000   -17.639000  11.401000
9088   5   2   -42.741000   -11.818000  9.335000
9089   5   2   -48.802000   -17.603000  9.337000
9090   5   2   -50.847000   -16.345000  11.523000
9091   5   2   -50.864000   -16.339000  9.58000
9092   5   2   -48.463000   -8.563000  15.822000
9093   5   2   -42.891000   -14.321000  13.45000
9094   5   2   -43.968000   -9.764000  13.615000
9095   5   2   -44.092000   -16.404000  13.435000
9096   5   2   -51.948000   -11.69000  13.704000
9097   5   2   -42.925000   -14.362000  15.646000
9098   5   2   -42.893000   -11.908000  15.58000
9099   5   2   -50.681000   -9.652000  13.729000
9100   5   2   -46.132000   -8.472000  13.593000
9101   5   2   -46.141000   -8.575000  15.844000
9102   5   2   -44.09000   -16.369000  15.687000
9103   5   2   -46.288000   -17.633000  13.523000
9104   5   2   -50.607000   -9.761000  15.733000
9105   5   2   -51.828000   -11.734000  15.791000
9106   5   2   -43.983000   -9.866000  15.694000
9107   5   2   -51.986000   -14.204000  13.594000
9108   5   2   -46.291000   -17.591000  15.608000
9109   5   2   -51.866000   -14.246000  15.845000
9110   5   2   -48.537000   -8.472000  13.629000
9111   5   2   -48.609000   -17.517000  15.577000
9112   5   2   -42.841000   -11.872000  13.583000
9113   5   2   -48.68000   -17.558000  13.573000
9114   5   2   -50.717000   -16.263000  15.732000
9115   5   2   -50.778000   -16.293000  13.535000
9116   5   2   -48.433000   -12.447000  21.336000
9117   5   2   -44.863000   -14.538000  21.266000
9118   5   2   -50.739000   -12.452000  21.513000
9119   5   2   -49.629000   -10.302000  21.448000
9120   5   2   -46.142000   -16.51000  21.375000
9121   5   2   -48.563000   -16.625000  21.328000
9122   5   2   -43.614000   -12.535000  21.313000
9123   5   2   -46.078000   -12.499000  21.298000
9124   5   2   -47.303000   -14.513000  21.285000
9125   5   2   -49.673000   -14.546000  21.343000
9126   5   2   -44.925000   -10.499000  21.451000
9127   5   2   -47.275000   -10.376000  21.372000
9128   5   2   -48.33000   -8.672000  20.148000
9129   5   2   -42.905000   -14.405000  17.673000
9130   5   2   -43.983000   -9.931000  17.969000
9131   5   2   -44.076000   -16.383000  17.773000
9132   5   2   -51.741000   -11.79000  18.066000
9133   5   2   -42.905000   -14.46000  19.967000
9134   5   2   -42.85000   -11.943000  19.855000
9135   5   2   -50.586000   -9.817000  17.953000
9136   5   2   -46.11000   -8.637000  17.932000
9137   5   2   -46.093000   -8.76000  20.256000
9138   5   2   -44.097000   -16.358000  20.099000
9139   5   2   -46.257000   -17.579000  17.885000
9140   5   2   -50.543000   -9.88000  20.016000
9141   5   2   -51.655000   -11.826000  20.202000
9142   5   2   -43.969000   -10.003000  20.115000
9143   5   2   -51.799000   -14.272000  17.932000
9144   5   2   -46.24000   -17.573000  20.032000
9145   5   2   -51.67000   -14.287000  20.256000
9146   5   2   -48.408000   -8.607000  17.855000
9147   5   2   -48.484000   -17.57000  19.857000
9148   5   2   -42.862000   -11.919000  17.794000
9149   5   2   -48.546000   -17.558000  17.794000
9150   5   2   -50.637000   -16.263000  20.063000
9151   5   2   -50.682000   -16.273000  17.768000
9152   5   2   -29.906000   -14.385000  4.697000
9153   5   2   -54.899000   3.166000  3.176000
9154   5   2   -37.763000   -27.523000  2.489000
9155   5   2   -53.164000   -27.461000  2.796000
9156   5   2   -53.148000   -27.486000  4.918000
9157   5   2   -43.333000   -25.272000  2.624000
9158   5   2   -43.318000   -25.328000  4.724000
9159   5   2   -39.031000   -22.849000  2.582000
9160   5   2   -39.006000   -22.906000  4.772000
9161   5   2   -42.077000   -27.44000  2.542000
9162   5   2   -42.072000   -27.518000  4.675000
9163   5   2   -37.75000   -25.032000  2.52000
9164   5   2   -37.733000   -25.093000  4.72000
9165   5   2   -58.524000   -9.201000  5.28000
9166   5   2   -57.22000   -7.053000  5.292000
9167   5   2   -57.24000   -7.027000  3.087000
9168   5   2   -58.554000   -9.182000  3.083000
9169   6   1   -41.512000   -16.2000  28.214000
9170   6   1   -40.996000   -14.871000  28.224000
9171   6   1   -40.997000   -14.099000  27.021000
9172   6   1   -40.964000   -12.659000  27.043000
9173   6   3   -41.157000   -11.946000  25.824000
9174   6   3   -41.613000   -10.595000  25.854000
9175   6   3   -41.982000   -9.955000  24.639000
9176   6   3   -42.871000   -8.844000  24.676000
9177   6   3   -43.404000   -8.32000  23.464000
9178   6   3   -44.631000   -7.579000  23.503000
9179   6   1   -45.297000   -7.218000  22.294000
9180   6   1   -46.725000   -6.941000  22.332000
9181   6   1   -47.485000   -6.788000  21.127000
9182   6   1   -48.953000   -6.993000  21.163000
9183   6   1   -49.724000   -7.115000  19.949000
9184   6   1   -51.039000   -7.834000  19.967000
9185   6   1   -51.684000   -8.252000  18.743000
9186   6   1   -52.671000   -9.409000  18.742000
9187   6   1   -53.107000   -10.03000  17.508000
9188   6   1   -53.682000   -11.44000  17.496000
9189   6   1   -53.88000   -12.162000  16.259000
9190   6   1   -53.913000   -13.687000  16.236000
9191   6   1   -53.876000   -14.425000  14.987000
9192   6   1   -53.358000   -15.893000  14.954000
9193   6   1   -53.106000   -16.655000  13.737000
9194   6   1   -52.21000   -17.838000  13.706000
9195   6   1   -40.927000   -11.924000  28.269000
9196   6   1   -41.382000   -10.574000  28.3000
9197   6   1   -41.873000   -9.962000  27.105000
9198   6   1   -42.773000   -8.839000  27.142000
9199   6   3   -43.375000   -8.396000  25.928000
9200   6   3   -44.594000   -7.657000  25.967000
9201   6   3   -45.284000   -7.384000  24.753000
9202   6   3   -46.68000   -7.109000  24.789000
9203   6   3   -47.419000   -7.03000  23.575000
9204   6   3   -48.838000   -7.243000  23.607000
9205   6   1   -49.581000   -7.362000  22.395000
9206   6   1   -50.857000   -8.059000  22.413000
9207   6   1   -51.533000   -8.403000  21.198000
9208   6   1   -52.501000   -9.528000  21.197000
9209   6   1   -53.0000   -10.098000  19.968000
9210   6   1   -53.569000   -11.493000  19.957000
9211   6   1   -53.788000   -12.207000  18.72000
9212   6   1   -53.818000   -13.719000  18.697000
9213   6   1   -53.749000   -14.454000  17.45000
9214   6   1   -53.239000   -15.891000  17.419000
9215   6   1   -52.92000   -16.552000  16.172000
9216   6   1   -51.984000   -17.765000  16.138000
9217   6   1   -51.484000   -18.296000  14.883000
9218   6   1   -50.161000   -19.1000  14.841000
9219   6   1   -49.477000   -19.508000  13.62000
9220   6   1   -48.015000   -19.766000  13.577000
9221   6   1   -43.223000   -8.275000  28.376000
9222   6   1   -44.442000   -7.536000  28.415000
9223   6   1   -45.207000   -7.364000  27.22000
9224   6   1   -46.619000   -7.085000  27.257000
9225   6   1   -47.359000   -7.11000  26.039000
9226   6   1   -48.769000   -7.327000  26.069000
9227   6   3   -49.469000   -7.534000  24.848000
9228   6   3   -50.719000   -8.216000  24.866000
9229   6   3   -51.333000   -8.604000  23.642000
9230   6   3   -52.278000   -9.684000  23.644000
9231   6   1   -52.756000   -10.235000  22.416000
9232   6   1   -53.292000   -11.588000  22.407000
9233   6   1   -53.589000   -12.265000  21.177000
9234   6   1   -53.615000   -13.743000  21.154000
9235   6   1   -53.626000   -14.478000  19.911000
9236   6   1   -53.121000   -15.897000  19.879000
9237   6   1   -52.826000   -16.565000  18.634000
9238   6   1   -51.895000   -17.765000  18.599000
9239   6   1   -51.371000   -18.269000  17.347000
9240   6   1   -50.076000   -19.054000  17.306000
9241   6   1   -49.402000   -19.33000  16.056000
9242   6   1   -47.894000   -19.605000  16.013000
9243   6   1   -47.165000   -19.666000  14.758000
9244   6   1   -45.622000   -19.452000  14.726000
9245   6   1   -44.827000   -19.31000  13.512000
9246   6   1   -43.531000   -18.593000  13.493000
9247   6   1   -47.331000   -6.966000  28.491000
9248   6   1   -48.739000   -7.184000  28.52000
9249   6   1   -49.433000   -7.518000  27.316000
9250   6   1   -50.696000   -8.209000  27.334000
9251   6   1   -51.243000   -8.679000  26.104000
9252   6   1   -52.186000   -9.749000  26.107000
9253   6   3   -52.582000   -10.335000  24.873000
9254   6   3   -53.099000   -11.661000  24.863000
9255   6   3   -53.313000   -12.331000  23.625000
9256   6   3   -53.342000   -13.764000  23.603000
9257   6   1   -53.347000   -14.469000  22.362000
9258   6   1   -52.873000   -15.845000  22.331000
9259   6   1   -52.651000   -16.527000  21.091000
9260   6   1   -51.738000   -17.696000  21.058000
9261   6   1   -51.271000   -18.25000  19.809000
9262   6   1   -49.992000   -19.029000  19.768000
9263   6   1   -49.332000   -19.325000  18.517000
9264   6   1   -47.837000   -19.599000  18.475000
9265   6   1   -47.105000   -19.616000  17.224000
9266   6   1   -45.597000   -19.407000  17.191000
9267   6   1   -44.895000   -19.17000  15.95000
9268   6   1   -43.558000   -18.435000  15.931000
9269   6   1   -42.957000   -17.985000  14.688000
9270   6   1   -41.942000   -16.801000  14.685000
9271   6   1   -41.423000   -16.152000  13.486000
9272   6   1   -40.845000   -14.784000  13.501000
9273   6   1   -51.324000   -8.598000  28.557000
9274   6   1   -52.266000   -9.667000  28.561000
9275   6   1   -52.578000   -10.345000  27.342000
9276   6   1   -53.101000   -11.686000  27.332000
9277   6   1   -53.21000   -12.375000  26.088000
9278   6   1   -53.24000   -13.8000  26.066000
9279   6   3   -53.158000   -14.481000  24.82000
9280   6   3   -52.699000   -15.828000  24.789000
9281   6   3   -52.423000   -16.454000  23.541000
9282   6   3   -51.529000   -17.577000  23.506000
9283   6   1   -51.079000   -18.107000  22.261000
9284   6   1   -49.838000   -18.864000  22.221000
9285   6   1   -49.227000   -19.224000  20.977000
9286   6   1   -47.77000   -19.499000  20.935000
9287   6   1   -47.052000   -19.591000  19.685000
9288   6   1   -45.56000   -19.384000  19.654000
9289   6   1   -44.857000   -19.165000  18.411000
9290   6   1   -43.533000   -18.435000  18.393000
9291   6   1   -42.954000   -17.958000  17.154000
9292   6   1   -41.965000   -16.797000  17.152000
9293   6   1   -41.571000   -16.141000  15.925000
9294   6   1   -40.986000   -14.723000  15.939000
9295   6   1   -40.795000   -13.973000  14.712000
9296   6   1   -40.76000   -12.421000  14.736000
9297   6   1   -40.768000   -11.571000  13.551000
9298   6   1   -41.279000   -10.175000  13.578000
9299   6   1   -53.338000   -12.41000  28.541000
9300   6   1   -53.369000   -13.835000  28.519000
9301   6   1   -53.162000   -14.531000  27.288000
9302   6   1   -52.698000   -15.894000  27.257000
9303   6   1   -52.332000   -16.469000  26.005000
9304   6   1   -51.44000   -17.581000  25.969000
9305   6   3   -50.936000   -18.03000  24.717000
9306   6   3   -49.721000   -18.771000  24.679000
9307   6   3   -49.103000   -19.056000  23.428000
9308   6   3   -47.696000   -19.334000  23.39000
9309   6   1   -47.005000   -19.419000  22.143000
9310   6   1   -45.567000   -19.205000  22.114000
9311   6   1   -44.857000   -19.069000  20.874000
9312   6   1   -43.565000   -18.353000  20.856000
9313   6   1   -42.95000   -17.94000  19.617000
9314   6   1   -41.974000   -16.795000  19.614000
9315   6   1   -41.566000   -16.154000  18.387000
9316   6   1   -40.991000   -14.749000  18.402000
9317   6   1   -40.838000   -13.991000  17.178000
9318   6   1   -40.805000   -12.476000  17.201000
9319   6   1   -40.921000   -11.702000  15.986000
9320   6   1   -41.439000   -10.258000  16.015000
9321   6   1   -41.773000   -9.542000  14.796000
9322   6   1   -42.732000   -8.312000  14.836000
9323   6   1   -43.278000   -7.643000  13.66000
9324   6   1   -44.546000   -6.88000  13.7000
9325   6   1   -52.419000   -16.622000  28.455000
9326   6   1   -51.527000   -17.732000  28.419000
9327   6   1   -50.917000   -18.113000  27.184000
9328   6   1   -49.687000   -18.862000  27.145000
9329   6   1   -49.032000   -19.047000  25.892000
9330   6   3   -47.634000   -19.328000  25.855000
9331   6   3   -46.955000   -19.324000  24.605000
9332   6   3   -45.548000   -19.109000  24.576000
9333   6   3   -44.887000   -18.906000  23.332000
9334   6   3   -43.631000   -18.214000  23.314000
9335   6   1   -43.044000   -17.812000  22.078000
9336   6   1   -42.089000   -16.714000  22.074000
9337   6   1   -41.636000   -16.127000  20.849000
9338   6   1   -41.079000   -14.753000  20.864000
9339   6   1   -40.86000   -14.019000  19.641000
9340   6   1   -40.825000   -12.522000  19.664000
9341   6   1   -40.921000   -11.749000  18.447000
9342   6   1   -41.43000   -10.318000  18.476000
9343   6   1   -41.803000   -9.623000  17.261000
9344   6   1   -42.738000   -8.421000  17.299000
9345   6   1   -43.317000   -7.877000  16.091000
9346   6   1   -44.622000   -7.087000  16.132000
9347   6   1   -45.336000   -6.74000  14.918000
9348   6   1   -46.869000   -6.457000  14.957000
9349   6   1   -47.712000   -6.286000  13.78000
9350   6   1   -49.184000   -6.474000  13.817000
9351   6   1   -49.011000   -19.264000  28.338000
9352   6   1   -47.614000   -19.545000  28.301000
9353   6   1   -46.897000   -19.422000  27.071000
9354   6   1   -45.474000   -19.205000  27.042000
9355   6   3   -44.848000   -18.902000  25.797000
9356   6   3   -43.599000   -18.215000  25.779000
9357   6   3   -43.077000   -17.75000  24.541000
9358   6   3   -42.139000   -16.679000  24.537000
9359   6   3   -41.76000   -16.073000  23.306000
9360   6   3   -41.235000   -14.738000  23.317000
9361   6   1   -41.026000   -14.03000  22.098000
9362   6   1   -40.991000   -12.576000  22.12000
9363   6   1   -41.011000   -11.815000  20.908000
9364   6   1   -41.501000   -10.415000  20.935000
9365   6   1   -41.806000   -9.695000  19.722000
9366   6   1   -42.729000   -8.507000  19.76000
9367   6   1   -43.294000   -7.954000  18.552000
9368   6   1   -44.587000   -7.171000  18.593000
9369   6   1   -45.314000   -6.856000  17.381000
9370   6   1   -46.813000   -6.579000  17.421000
9371   6   1   -47.601000   -6.516000  16.211000
9372   6   1   -49.121000   -6.721000  16.247000
9373   6   1   -49.888000   -6.883000  15.026000
9374   6   1   -51.246000   -7.629000  15.045000
9375   6   1   -51.996000   -8.014000  13.856000
9376   6   1   -52.948000   -9.154000  13.853000
9377   6   1   -44.703000   -19.102000  28.241000
9378   6   1   -43.453000   -18.416000  28.223000
9379   6   1   -42.979000   -17.836000  27.006000
9380   6   1   -42.03000   -16.752000  27.002000
9381   6   3   -41.741000   -16.094000  25.771000
9382   6   3   -41.223000   -14.765000  25.781000
9383   6   3   -41.112000   -14.05000  24.557000
9384   6   3   -41.078000   -12.627000  24.579000
9385   6   3   -41.166000   -11.897000  23.36000
9386   6   3   -41.629000   -10.539000  23.39000
9387   6   1   -41.926000   -9.845000  22.178000
9388   6   1   -42.83000   -8.706000  22.216000
9389   6   1   -43.328000   -8.107000  21.011000
9390   6   1   -44.593000   -7.346000  21.051000
9391   6   1   -45.282000   -6.966000  19.841000
9392   6   1   -46.763000   -6.692000  19.88000
9393   6   1   -47.546000   -6.607000  18.671000
9394   6   1   -49.05000   -6.812000  18.707000
9395   6   1   -49.806000   -7.008000  17.488000
9396   6   1   -51.134000   -7.738000  17.506000
9397   6   1   -51.767000   -8.178000  16.283000
9398   6   1   -52.758000   -9.347000  16.282000
9399   6   1   -53.23000   -9.944000  15.045000
9400   6   1   -53.814000   -11.387000  15.034000
9401   6   1   -54.137000   -12.142000  13.83000
9402   6   1   -54.165000   -13.621000  13.806000
9403   6   2   -42.933000   -18.274000  29.163000
9404   6   2   -41.582000   -16.729000  29.157000
9405   6   2   -52.007000   -18.3000  12.742000
9406   6   2   -50.025000   -19.516000  12.681000
9407   6   2   -40.694000   -14.445000  29.174000
9408   6   2   -40.647000   -12.392000  29.205000
9409   6   2   -47.556000   -19.947000  12.608000
9410   6   2   -45.238000   -19.648000  12.564000
9411   6   2   -41.429000   -10.071000  29.258000
9412   6   2   -42.711000   -8.468000  29.311000
9413   6   2   -43.048000   -18.437000  12.532000
9414   6   2   -41.541000   -16.646000  12.524000
9415   6   2   -44.805000   -7.199000  29.378000
9416   6   2   -46.818000   -6.804000  29.431000
9417   6   2   -40.558000   -14.338000  12.552000
9418   6   2   -40.5000   -12.0000  12.588000
9419   6   2   -49.239000   -7.178000  29.482000
9420   6   2   -51.039000   -8.163000  29.508000
9421   6   2   -41.369000   -9.646000  12.632000
9422   6   2   -42.798000   -7.788000  12.695000
9423   6   2   -52.658000   -10.001000  29.515000
9424   6   2   -53.406000   -11.911000  29.5000
9425   6   2   -44.942000   -6.498000  12.762000
9426   6   2   -47.245000   -6.101000  12.816000
9427   6   2   -53.459000   -14.359000  29.463000
9428   6   2   -52.797000   -16.3000  29.419000
9429   6   2   -49.732000   -6.414000  12.879000
9430   6   2   -51.774000   -7.53000  12.907000
9431   6   2   -51.263000   -18.209000  29.356000
9432   6   2   -49.511000   -19.275000  29.3000
9433   6   2   -53.376000   -9.458000  12.901000
9434   6   2   -54.264000   -11.614000  12.887000
9435   6   2   -47.11000   -19.758000  29.236000
9436   6   2   -45.081000   -19.452000  29.194000
9437   6   2   -54.31000   -14.114000  12.848000
9438   6   2   -53.515000   -16.301000  12.794000
9439   7   1   -41.89000   -15.821000  -7.715000
9440   7   1   -41.311000   -14.452000  -7.694000
9441   7   1   -41.324000   -13.582000  -8.867000
9442   7   1   -41.287000   -12.029000  -8.82000
9443   7   1   -41.521000   -11.253000  -10.022000
9444   7   1   -42.036000   -9.812000  -9.959000
9445   7   1   -42.49000   -9.135000  -11.154000
9446   7   1   -43.422000   -7.943000  -11.09000
9447   7   1   -44.071000   -7.459000  -12.285000
9448   7   1   -45.344000   -6.69000  -12.22000
9449   7   1   -46.119000   -6.489000  -13.415000
9450   7   1   -47.563000   -6.209000  -13.357000
9451   7   3   -48.333000   -6.253000  -14.559000
9452   7   3   -49.764000   -6.462000  -14.52000
9453   7   3   -50.46000   -6.719000  -15.736000
9454   7   3   -51.716000   -7.402000  -15.717000
9455   7   3   -52.285000   -7.838000  -16.944000
9456   7   3   -53.224000   -8.904000  -16.947000
9457   7   3   -53.623000   -9.475000  -18.186000
9458   7   1   -54.139000   -10.796000  -18.211000
9459   7   1   -54.338000   -11.447000  -19.46000
9460   7   1   -54.371000   -12.872000  -19.503000
9461   7   1   -54.373000   -13.546000  -20.759000
9462   7   1   -53.914000   -14.911000  -20.817000
9463   7   1   -53.709000   -15.589000  -22.06000
9464   7   1   -52.821000   -16.703000  -22.123000
9465   7   1   -41.231000   -11.233000  -7.597000
9466   7   1   -41.739000   -9.836000  -7.534000
9467   7   1   -42.297000   -9.148000  -8.696000
9468   7   1   -43.253000   -7.916000  -8.631000
9469   7   1   -43.912000   -7.435000  -9.829000
9470   7   1   -45.212000   -6.646000  -9.763000
9471   7   1   -45.982000   -6.394000  -10.959000
9472   7   1   -47.468000   -6.113000  -10.899000
9473   7   1   -48.263000   -6.119000  -12.103000
9474   7   1   -49.746000   -6.315000  -12.063000
9475   7   1   -50.453000   -6.622000  -13.277000
9476   7   1   -51.743000   -7.323000  -13.258000
9477   7   3   -52.282000   -7.829000  -14.481000
9478   7   3   -53.234000   -8.919000  -14.484000
9479   7   3   -53.586000   -9.53000  -15.722000
9480   7   3   -54.107000   -10.861000  -15.748000
9481   7   3   -54.248000   -11.527000  -16.997000
9482   7   3   -54.28000   -12.947000  -17.04000
9483   7   1   -54.204000   -13.606000  -18.297000
9484   7   1   -53.752000   -14.949000  -18.354000
9485   7   1   -53.473000   -15.541000  -19.616000
9486   7   1   -52.586000   -16.655000  -19.679000
9487   7   1   -52.138000   -17.138000  -20.944000
9488   7   1   -50.909000   -17.888000  -21.007000
9489   7   1   -50.301000   -18.241000  -22.253000
9490   7   1   -48.904000   -18.521000  -22.307000
9491   7   1   -43.726000   -7.293000  -7.399000
9492   7   1   -44.99000   -6.522000  -7.335000
9493   7   1   -45.85000   -6.332000  -8.499000
9494   7   1   -47.383000   -6.048000  -8.436000
9495   7   1   -48.185000   -6.069000  -9.644000
9496   7   1   -49.702000   -6.27000  -9.602000
9497   7   1   -50.442000   -6.529000  -10.817000
9498   7   1   -51.765000   -7.25000  -10.796000
9499   7   1   -52.354000   -7.734000  -12.023000
9500   7   1   -53.326000   -8.874000  -12.025000
9501   7   1   -53.66000   -9.527000  -13.262000
9502   7   1   -54.204000   -10.893000  -13.29000
9503   7   3   -54.281000   -11.589000  -14.536000
9504   7   3   -54.312000   -13.034000  -14.58000
9505   7   3   -54.171000   -13.693000  -15.834000
9506   7   3   -53.714000   -15.047000  -15.891000
9507   7   3   -53.382000   -15.614000  -17.152000
9508   7   3   -52.499000   -16.725000  -17.216000
9509   7   1   -52.002000   -17.146000  -18.479000
9510   7   1   -50.794000   -17.885000  -18.542000
9511   7   1   -50.183000   -18.123000  -19.803000
9512   7   1   -48.786000   -18.403000  -19.857000
9513   7   1   -48.117000   -18.449000  -21.115000
9514   7   1   -46.693000   -18.231000  -21.153000
9515   7   1   -45.984000   -18.075000  -22.386000
9516   7   1   -44.733000   -17.391000  -22.404000
9517   7   1   -48.16000   -5.923000  -7.206000
9518   7   1   -49.635000   -6.113000  -7.166000
9519   7   1   -50.407000   -6.473000  -8.352000
9520   7   1   -51.768000   -7.219000  -8.33000
9521   7   1   -52.35000   -7.719000  -9.56000
9522   7   1   -53.34000   -8.886000  -9.563000
9523   7   1   -53.73000   -9.524000  -10.801000
9524   7   1   -54.298000   -10.927000  -10.829000
9525   7   1   -54.423000   -11.639000  -12.079000
9526   7   1   -54.453000   -13.127000  -12.125000
9527   7   1   -54.266000   -13.807000  -13.38000
9528   7   1   -53.791000   -15.198000  -13.436000
9529   7   3   -53.393000   -15.75000  -14.693000
9530   7   3   -52.499000   -16.886000  -14.758000
9531   7   3   -51.954000   -17.265000  -16.018000
9532   7   3   -50.736000   -18.011000  -16.081000
9533   7   3   -50.1000   -18.192000  -17.34000
9534   7   3   -48.708000   -18.471000  -17.393000
9535   7   1   -48.04000   -18.437000  -18.647000
9536   7   1   -46.639000   -18.222000  -18.686000
9537   7   1   -46.002000   -17.976000  -19.932000
9538   7   1   -44.751000   -17.292000  -19.951000
9539   7   1   -44.192000   -16.864000  -21.19000
9540   7   1   -43.238000   -15.783000  -21.187000
9541   7   1   -42.778000   -15.176000  -22.397000
9542   7   1   -42.256000   -13.848000  -22.373000
9543   7   1   -52.457000   -7.658000  -7.121000
9544   7   1   -53.411000   -8.8000  -7.122000
9545   7   1   -53.755000   -9.536000  -8.335000
9546   7   1   -54.342000   -10.979000  -8.364000
9547   7   1   -54.463000   -11.698000  -9.618000
9548   7   1   -54.498000   -13.218000  -9.665000
9549   7   1   -54.364000   -13.92000  -10.921000
9550   7   1   -53.868000   -15.35000  -10.98000
9551   7   1   -53.496000   -15.944000  -12.242000
9552   7   1   -52.587000   -17.133000  -12.311000
9553   7   1   -51.992000   -17.496000  -13.569000
9554   7   1   -50.74000   -18.263000  -13.633000
9555   7   3   -50.057000   -18.381000  -14.884000
9556   7   3   -48.639000   -18.66000  -14.938000
9557   7   3   -47.959000   -18.564000  -16.187000
9558   7   3   -46.546000   -18.349000  -16.226000
9559   7   3   -45.926000   -18.044000  -17.469000
9560   7   3   -44.68000   -17.361000  -17.487000
9561   7   1   -44.173000   -16.873000  -18.722000
9562   7   1   -43.235000   -15.809000  -18.719000
9563   7   1   -42.887000   -15.178000  -19.944000
9564   7   1   -42.366000   -13.852000  -19.92000
9565   7   1   -42.196000   -13.13000  -21.138000
9566   7   1   -42.159000   -11.69000  -21.094000
9567   7   1   -42.182000   -10.896000  -22.284000
9568   7   1   -42.638000   -9.545000  -22.227000
9569   7   1   -54.611000   -11.789000  -7.182000
9570   7   1   -54.647000   -13.269000  -7.228000
9571   7   1   -54.417000   -14.018000  -8.458000
9572   7   1   -53.901000   -15.487000  -8.518000
9573   7   1   -53.518000   -16.082000  -9.784000
9574   7   1   -52.589000   -17.297000  -9.854000
9575   7   1   -52.027000   -17.721000  -11.116000
9576   7   1   -50.74000   -18.507000  -11.182000
9577   7   1   -50.053000   -18.682000  -12.442000
9578   7   1   -48.579000   -18.953000  -12.495000
9579   7   1   -47.873000   -18.819000  -13.741000
9580   7   1   -46.417000   -18.605000  -13.783000
9581   7   3   -45.803000   -18.229000  -15.017000
9582   7   3   -44.536000   -17.532000  -15.036000
9583   7   3   -44.062000   -16.986000  -16.263000
9584   7   3   -43.118000   -15.912000  -16.259000
9585   7   3   -42.818000   -15.248000  -17.481000
9586   7   3   -42.297000   -13.927000  -17.457000
9587   7   1   -42.206000   -13.193000  -18.671000
9588   7   1   -42.169000   -11.777000  -18.628000
9589   7   1   -42.294000   -11.036000  -19.835000
9590   7   1   -42.749000   -9.686000  -19.778000
9591   7   1   -43.068000   -8.991000  -20.981000
9592   7   1   -43.969000   -7.866000  -20.917000
9593   7   1   -44.482000   -7.24000  -22.095000
9594   7   1   -45.699000   -6.498000  -22.032000
9595   7   1   -53.591000   -16.307000  -7.351000
9596   7   1   -52.694000   -17.489000  -7.42000
9597   7   1   -52.03000   -17.892000  -8.655000
9598   7   1   -50.706000   -18.698000  -8.722000
9599   7   1   -50.013000   -18.868000  -9.985000
9600   7   1   -48.507000   -19.142000  -10.04000
9601   7   1   -47.786000   -19.07000  -11.292000
9602   7   1   -46.286000   -18.859000  -11.335000
9603   7   1   -45.633000   -18.516000  -12.578000
9604   7   1   -44.329000   -17.797000  -12.598000
9605   7   1   -43.862000   -17.2000  -13.821000
9606   7   1   -42.894000   -16.089000  -13.815000
9607   7   3   -42.642000   -15.375000  -15.027000
9608   7   3   -42.106000   -14.032000  -15.004000
9609   7   3   -42.075000   -13.277000  -16.211000
9610   7   3   -42.037000   -11.849000  -16.168000
9611   7   3   -42.224000   -11.114000  -17.372000
9612   7   3   -42.677000   -9.769000  -17.315000
9613   7   1   -43.066000   -9.115000  -18.516000
9614   7   1   -43.951000   -8.009000  -18.453000
9615   7   1   -44.508000   -7.488000  -19.653000
9616   7   1   -45.725000   -6.748000  -19.59000
9617   7   1   -46.401000   -6.385000  -20.791000
9618   7   1   -47.814000   -6.101000  -20.737000
9619   7   1   -48.594000   -5.915000  -21.92000
9620   7   1   -50.005000   -6.128000  -21.882000
9621   7   1   -49.955000   -19.158000  -7.56000
9622   7   1   -48.492000   -19.416000  -7.611000
9623   7   1   -47.709000   -19.263000  -8.834000
9624   7   1   -46.166000   -19.051000  -8.88000
9625   7   1   -45.509000   -18.706000  -10.126000
9626   7   1   -44.173000   -17.974000  -10.147000
9627   7   1   -43.659000   -17.414000  -11.376000
9628   7   1   -42.67000   -16.266000  -11.37000
9629   7   1   -42.369000   -15.552000  -12.588000
9630   7   1   -41.796000   -14.168000  -12.566000
9631   7   1   -41.804000   -13.379000  -13.768000
9632   7   1   -41.765000   -11.91000  -13.724000
9633   7   3   -42.029000   -11.168000  -14.918000
9634   7   3   -42.496000   -9.8000  -14.859000
9635   7   3   -42.944000   -9.167000  -16.055000
9636   7   3   -43.836000   -8.052000  -15.992000
9637   7   3   -44.436000   -7.574000  -17.19000
9638   7   3   -45.649000   -6.837000  -17.128000
9639   7   1   -46.351000   -6.55000  -18.329000
9640   7   1   -47.741000   -6.27000  -18.275000
9641   7   1   -48.487000   -6.192000  -19.483000
9642   7   1   -49.896000   -6.404000  -19.444000
9643   7   1   -50.631000   -6.526000  -20.659000
9644   7   1   -51.897000   -7.216000  -20.64000
9645   7   1   -52.599000   -7.542000  -21.843000
9646   7   1   -53.542000   -8.613000  -21.846000
9647   7   1   -45.304000   -18.967000  -7.707000
9648   7   1   -44.004000   -18.258000  -7.727000
9649   7   1   -43.494000   -17.595000  -8.922000
9650   7   1   -42.476000   -16.411000  -8.915000
9651   7   1   -42.181000   -15.687000  -10.137000
9652   7   1   -41.593000   -14.273000  -10.114000
9653   7   1   -41.538000   -13.48000  -11.323000
9654   7   1   -41.501000   -11.972000  -11.277000
9655   7   1   -41.719000   -11.198000  -12.477000
9656   7   1   -42.222000   -9.787000  -12.414000
9657   7   1   -42.715000   -9.15000  -13.606000
9658   7   1   -43.628000   -7.997000  -13.543000
9659   7   3   -44.285000   -7.561000  -14.734000
9660   7   3   -45.521000   -6.812000  -14.67000
9661   7   3   -46.256000   -6.582000  -15.868000
9662   7   3   -47.658000   -6.302000  -15.812000
9663   7   3   -48.408000   -6.282000  -17.02000
9664   7   3   -49.813000   -6.493000  -16.982000
9665   7   1   -50.52000   -6.688000  -18.199000
9666   7   1   -51.765000   -7.366000  -18.18000
9667   7   1   -52.37000   -7.752000  -19.407000
9668   7   1   -53.313000   -8.822000  -19.41000
9669   7   1   -53.781000   -9.355000  -20.647000
9670   7   1   -54.305000   -10.697000  -20.672000
9671   7   1   -54.616000   -11.365000  -21.898000
9672   7   1   -54.65000   -12.791000  -21.942000
9673   7   2   -43.465000   -18.15000  -6.789000
9674   7   2   -41.954000   -16.362000  -6.774000
9675   7   2   -52.614000   -17.14000  -23.093000
9676   7   2   -50.856000   -18.213000  -23.184000
9677   7   2   -40.969000   -14.052000  -6.742000
9678   7   2   -40.909000   -11.706000  -6.672000
9679   7   2   -48.452000   -18.695000  -23.276000
9680   7   2   -46.415000   -18.384000  -23.331000
9681   7   2   -41.775000   -9.348000  -6.563000
9682   7   2   -43.189000   -7.473000  -6.472000
9683   7   2   -44.262000   -17.208000  -23.363000
9684   7   2   -42.897000   -15.663000  -23.358000
9685   7   2   -45.328000   -6.172000  -6.363000
9686   7   2   -47.639000   -5.774000  -6.263000
9687   7   2   -42.001000   -13.38000  -23.316000
9688   7   2   -41.949000   -11.319000  -23.254000
9689   7   2   -50.131000   -6.087000  -6.199000
9690   7   2   -52.189000   -7.213000  -6.166000
9691   7   2   -42.732000   -8.995000  -23.156000
9692   7   2   -44.019000   -7.386000  -23.064000
9693   7   2   -53.793000   -9.146000  -6.165000
9694   7   2   -54.694000   -11.305000  -6.213000
9695   7   2   -46.113000   -6.111000  -22.956000
9696   7   2   -48.133000   -5.703000  -22.878000
9697   7   2   -54.753000   -13.807000  -6.29000
9698   7   2   -53.954000   -15.998000  -6.374000
9699   7   2   -50.558000   -6.07000  -22.812000
9700   7   2   -52.369000   -7.058000  -22.785000
9701   7   2   -52.443000   -17.997000  -6.492000
9702   7   2   -50.451000   -19.209000  -6.594000
9703   7   2   -53.99000   -8.899000  -22.79000
9704   7   2   -54.74000   -10.82000  -22.827000
9705   7   2   -47.98000   -19.641000  -6.679000
9706   7   2   -45.663000   -19.351000  -6.755000
9707   7   2   -54.798000   -13.271000  -22.901000
9708   7   2   -54.142000   -15.224000  -22.984000
9709   8   1   -78.099000   -11.946000  -8.011000
9710   8   1   -78.083000   -11.942000  -6.434000
9711   8   1   -78.14000   -14.933000  -8.526000
9712   8   1   -78.106000   -14.926000  -5.896000
9713   8   3   -79.427000   -12.651000  -5.878000
9714   8   3   -79.468000   -14.154000  -7.988000
9715   8   3   -79.448000   -14.155000  -6.405000
9716   8   3   -79.456000   -12.649000  -8.511000
9717   8   1   -75.465000   -12.01000  -8.043000
9718   8   1   -75.448000   -12.004000  -6.477000
9719   8   1   -75.495000   -14.955000  -8.547000
9720   8   1   -75.464000   -14.941000  -5.94000
9721   8   1   -76.774000   -12.712000  -5.934000
9722   8   1   -76.812000   -14.205000  -8.017000
9723   8   1   -76.794000   -14.199000  -6.445000
9724   8   1   -76.804000   -12.723000  -8.542000
9725   8   1   -72.851000   -12.041000  -8.073000
9726   8   1   -72.834000   -12.034000  -6.51000
9727   8   1   -72.874000   -14.981000  -8.577000
9728   8   1   -72.844000   -14.966000  -5.971000
9729   8   1   -74.142000   -12.748000  -5.969000
9730   8   1   -74.175000   -14.235000  -8.046000
9731   8   1   -74.157000   -14.226000  -6.482000
9732   8   1   -74.172000   -12.761000  -8.575000
9733   8   1   -70.251000   -12.061000  -8.1000
9734   8   1   -70.233000   -12.055000  -6.535000
9735   8   1   -70.269000   -15.002000  -8.608000
9736   8   1   -70.239000   -14.988000  -5.998000
9737   8   1   -71.533000   -12.773000  -5.997000
9738   8   1   -71.563000   -14.258000  -8.076000
9739   8   1   -71.544000   -14.25000  -6.511000
9740   8   1   -71.56000   -12.786000  -8.605000
9741   8   1   -67.659000   -12.078000  -8.123000
9742   8   1   -67.641000   -12.072000  -6.559000
9743   8   1   -67.675000   -15.018000  -8.635000
9744   8   1   -67.643000   -15.007000  -6.024000
9745   8   1   -68.935000   -12.793000  -6.022000
9746   8   1   -68.964000   -14.277000  -8.103000
9747   8   1   -68.944000   -14.268000  -6.538000
9748   8   1   -68.964000   -12.804000  -8.632000
9749   8   1   -65.077000   -12.09000  -8.142000
9750   8   1   -65.055000   -12.087000  -6.579000
9751   8   1   -65.087000   -15.035000  -8.663000
9752   8   1   -65.053000   -15.026000  -6.052000
9753   8   1   -66.345000   -12.81000  -6.044000
9754   8   1   -66.373000   -14.292000  -8.129000
9755   8   1   -66.352000   -14.287000  -6.564000
9756   8   1   -66.376000   -12.818000  -8.655000
9757   8   1   -62.496000   -12.103000  -8.157000
9758   8   1   -62.471000   -12.101000  -6.602000
9759   8   1   -63.759000   -12.828000  -6.068000
9760   8   1   -63.787000   -14.308000  -8.154000
9761   8   1   -63.763000   -14.303000  -6.591000
9762   8   1   -63.795000   -12.832000  -8.672000
9763   8   1   -31.549000   -12.291000  -8.773000
9764   8   1   -31.529000   -12.29000  -7.219000
9765   8   1   -28.967000   -12.308000  -8.821000
9766   8   1   -28.947000   -12.306000  -7.257000
9767   8   1   -28.996000   -15.253000  -9.343000
9768   8   1   -28.965000   -15.244000  -6.733000
9769   8   1   -30.235000   -13.031000  -6.718000
9770   8   1   -30.277000   -14.51000  -8.805000
9771   8   1   -30.257000   -14.505000  -7.242000
9772   8   1   -30.27000   -13.035000  -9.321000
9773   8   1   -26.382000   -12.327000  -8.855000
9774   8   1   -26.365000   -12.322000  -7.29000
9775   8   1   -26.408000   -15.27000  -9.37000
9776   8   1   -26.384000   -15.258000  -6.76000
9777   8   1   -27.656000   -13.045000  -6.751000
9778   8   1   -27.69000   -14.526000  -8.837000
9779   8   1   -27.673000   -14.52000  -7.272000
9780   8   1   -27.686000   -13.052000  -9.362000
9781   8   1   -23.787000   -12.345000  -8.878000
9782   8   1   -23.775000   -12.338000  -7.315000
9783   8   1   -23.813000   -15.289000  -9.389000
9784   8   1   -23.797000   -15.277000  -6.78000
9785   8   1   -25.071000   -13.061000  -6.779000
9786   8   1   -25.1000   -14.544000  -8.861000
9787   8   1   -25.087000   -14.537000  -7.297000
9788   8   1   -25.093000   -13.07000  -9.389000
9789   8   1   -21.177000   -12.365000  -8.888000
9790   8   1   -21.172000   -12.358000  -7.322000
9791   8   1   -21.208000   -15.313000  -9.398000
9792   8   1   -21.204000   -15.301000  -6.787000
9793   8   1   -22.478000   -13.079000  -6.796000
9794   8   1   -22.499000   -14.564000  -8.876000
9795   8   1   -22.494000   -14.557000  -7.312000
9796   8   1   -22.49000   -13.091000  -9.403000
9797   8   1   -18.55000   -12.379000  -8.879000
9798   8   1   -18.551000   -12.377000  -7.301000
9799   8   1   -18.588000   -15.364000  -9.399000
9800   8   1   -18.599000   -15.358000  -6.765000
9801   8   1   -19.868000   -13.104000  -6.792000
9802   8   1   -19.881000   -14.596000  -8.879000
9803   8   1   -19.882000   -14.589000  -7.306000
9804   8   1   -19.865000   -13.114000  -9.402000
9805   8   3   -17.246000   -13.153000  -6.741000
9806   8   3   -17.252000   -14.649000  -8.856000
9807   8   3   -17.261000   -14.651000  -7.272000
9808   8   3   -17.229000   -13.149000  -9.378000
9809   8   1   -77.985000   -10.476000  -8.582000
9810   8   1   -77.959000   -10.467000  -5.89000
9811   8   1   -75.348000   -7.572000  -8.077000
9812   8   1   -75.332000   -7.568000  -6.494000
9813   8   1   -75.421000   -10.533000  -8.578000
9814   8   1   -75.394000   -10.523000  -5.961000
9815   8   1   -76.6000   -8.292000  -5.917000
9816   8   1   -76.688000   -9.763000  -8.048000
9817   8   1   -76.674000   -9.758000  -6.467000
9818   8   1   -76.625000   -8.301000  -8.619000
9819   8   1   -72.773000   -7.615000  -8.095000
9820   8   1   -72.758000   -7.612000  -6.528000
9821   8   1   -72.829000   -10.567000  -8.603000
9822   8   1   -72.803000   -10.556000  -5.994000
9823   8   1   -74.052000   -8.329000  -5.985000
9824   8   1   -74.107000   -9.815000  -8.071000
9825   8   1   -74.09000   -9.809000  -6.505000
9826   8   1   -74.077000   -8.337000  -8.606000
9827   8   1   -70.198000   -7.642000  -8.116000
9828   8   1   -70.182000   -7.639000  -6.551000
9829   8   1   -70.238000   -10.588000  -8.629000
9830   8   1   -70.213000   -10.58000  -6.019000
9831   8   1   -71.474000   -8.361000  -6.015000
9832   8   1   -71.519000   -9.843000  -8.097000
9833   8   1   -71.503000   -9.838000  -6.533000
9834   8   1   -71.499000   -8.368000  -8.627000
9835   8   1   -67.623000   -7.658000  -8.135000
9836   8   1   -67.607000   -7.657000  -6.569000
9837   8   1   -67.653000   -10.604000  -8.651000
9838   8   1   -67.626000   -10.598000  -6.039000
9839   8   1   -68.897000   -8.382000  -6.036000
9840   8   1   -68.934000   -9.862000  -8.12000
9841   8   1   -68.917000   -9.858000  -6.554000
9842   8   1   -68.922000   -8.388000  -8.648000
9843   8   1   -65.05000   -7.669000  -8.149000
9844   8   1   -65.033000   -7.668000  -6.584000
9845   8   1   -65.075000   -10.616000  -8.667000
9846   8   1   -65.045000   -10.611000  -6.057000
9847   8   1   -66.319000   -8.396000  -6.052000
9848   8   1   -66.354000   -9.875000  -8.137000
9849   8   1   -66.335000   -9.872000  -6.572000
9850   8   1   -66.345000   -8.4000  -8.665000
9851   8   1   -62.48000   -7.673000  -8.157000
9852   8   1   -62.458000   -7.675000  -6.598000
9853   8   1   -62.5000   -10.625000  -8.673000
9854   8   1   -62.463000   -10.623000  -6.079000
9855   8   1   -63.743000   -8.407000  -6.067000
9856   8   1   -63.779000   -9.883000  -8.15000
9857   8   1   -63.757000   -9.882000  -6.588000
9858   8   1   -63.774000   -8.409000  -8.676000
9859   8   1   -59.908000   -7.681000  -8.164000
9860   8   1   -59.879000   -7.683000  -6.619000
9861   8   1   -61.166000   -8.415000  -6.089000
9862   8   1   -61.204000   -9.891000  -8.155000
9863   8   1   -61.176000   -9.892000  -6.607000
9864   8   1   -61.205000   -8.413000  -8.675000
9865   8   1   -34.113000   -7.844000  -8.693000
9866   8   1   -34.09000   -7.85000  -7.148000
9867   8   1   -31.536000   -7.864000  -8.758000
9868   8   1   -31.513000   -7.867000  -7.198000
9869   8   1   -31.549000   -10.811000  -9.286000
9870   8   1   -31.512000   -10.815000  -6.691000
9871   8   1   -32.793000   -8.595000  -6.658000
9872   8   1   -32.827000   -10.066000  -8.732000
9873   8   1   -32.807000   -10.069000  -7.185000
9874   8   1   -32.833000   -8.586000  -9.245000
9875   8   1   -28.962000   -7.884000  -8.813000
9876   8   1   -28.939000   -7.886000  -7.249000
9877   8   1   -28.971000   -10.832000  -9.341000
9878   8   1   -28.936000   -10.832000  -6.731000
9879   8   1   -30.218000   -8.614000  -6.703000
9880   8   1   -30.25000   -10.087000  -8.792000
9881   8   1   -30.228000   -10.088000  -7.231000
9882   8   1   -30.26000   -8.609000  -9.312000
9883   8   1   -26.386000   -7.899000  -8.857000
9884   8   1   -26.364000   -7.899000  -7.292000
9885   8   1   -26.386000   -10.851000  -9.379000
9886   8   1   -26.356000   -10.845000  -6.769000
9887   8   1   -27.645000   -8.629000  -6.749000
9888   8   1   -27.67000   -10.106000  -8.838000
9889   8   1   -27.65000   -10.105000  -7.274000
9890   8   1   -27.682000   -8.628000  -9.36000
9891   8   1   -23.805000   -7.91000  -8.893000
9892   8   1   -23.788000   -7.908000  -7.326000
9893   8   1   -23.796000   -10.869000  -9.406000
9894   8   1   -23.773000   -10.86000  -6.797000
9895   8   1   -25.07000   -8.641000  -6.787000
9896   8   1   -25.086000   -10.123000  -8.873000
9897   8   1   -25.07000   -10.118000  -7.309000
9898   8   1   -25.101000   -8.644000  -9.398000
9899   8   1   -21.226000   -7.912000  -8.926000
9900   8   1   -21.209000   -7.909000  -7.343000
9901   8   1   -21.202000   -10.886000  -9.421000
9902   8   1   -21.187000   -10.875000  -6.806000
9903   8   1   -22.493000   -8.649000  -6.811000
9904   8   1   -22.497000   -10.137000  -8.897000
9905   8   1   -22.486000   -10.132000  -7.33000
9906   8   1   -22.52000   -8.657000  -9.429000
9907   8   1   -18.632000   -10.898000  -9.455000
9908   8   1   -18.625000   -10.893000  -6.765000
9909   8   1   -19.941000   -8.665000  -6.786000
9910   8   1   -19.909000   -10.142000  -8.912000
9911   8   1   -19.9000   -10.139000  -7.33000
9912   8   1   -19.965000   -8.671000  -9.487000
9913   8   1   -75.298000   -6.111000  -8.646000
9914   8   1   -75.274000   -6.105000  -5.94000
9915   8   1   -72.717000   -3.184000  -8.11000
9916   8   1   -72.702000   -3.185000  -6.527000
9917   8   1   -72.753000   -6.139000  -8.627000
9918   8   1   -72.73000   -6.135000  -6.004000
9919   8   1   -73.962000   -3.916000  -5.955000
9920   8   1   -74.026000   -5.379000  -8.097000
9921   8   1   -74.012000   -5.377000  -6.515000
9922   8   1   -73.985000   -3.919000  -8.662000
9923   8   1   -70.148000   -3.215000  -8.122000
9924   8   1   -70.134000   -3.218000  -6.554000
9925   8   1   -70.182000   -6.165000  -8.644000
9926   8   1   -70.159000   -6.164000  -6.03000
9927   8   1   -71.418000   -3.941000  -6.017000
9928   8   1   -71.455000   -5.415000  -8.112000
9929   8   1   -71.441000   -5.415000  -6.544000
9930   8   1   -71.442000   -3.939000  -8.641000
9931   8   1   -67.581000   -3.233000  -8.14000
9932   8   1   -67.565000   -3.237000  -6.574000
9933   8   1   -67.611000   -6.183000  -8.662000
9934   8   1   -67.586000   -6.182000  -6.049000
9935   8   1   -68.851000   -3.965000  -6.041000
9936   8   1   -68.885000   -5.438000  -8.13000
9937   8   1   -68.872000   -5.439000  -6.564000
9938   8   1   -68.873000   -3.962000  -8.655000
9939   8   1   -65.014000   -3.242000  -8.158000
9940   8   1   -64.997000   -3.248000  -6.593000
9941   8   1   -65.041000   -6.192000  -8.676000
9942   8   1   -65.015000   -6.192000  -6.064000
9943   8   1   -66.282000   -3.979000  -6.06000
9944   8   1   -66.317000   -5.451000  -8.147000
9945   8   1   -66.3000   -5.453000  -6.582000
9946   8   1   -66.307000   -3.976000  -8.673000
9947   8   1   -62.45000   -3.247000  -8.177000
9948   8   1   -62.43000   -3.252000  -6.613000
9949   8   1   -62.474000   -6.198000  -8.687000
9950   8   1   -62.443000   -6.199000  -6.079000
9951   8   1   -63.712000   -3.986000  -6.076000
9952   8   1   -63.748000   -5.459000  -8.161000
9953   8   1   -63.73000   -5.461000  -6.597000
9954   8   1   -63.742000   -3.982000  -8.69000
9955   8   1   -59.886000   -3.25000  -8.197000
9956   8   1   -59.861000   -3.254000  -6.637000
9957   8   1   -59.909000   -6.203000  -8.692000
9958   8   1   -59.867000   -6.205000  -6.105000
9959   8   1   -61.142000   -3.989000  -6.098000
9960   8   1   -61.183000   -5.462000  -8.173000
9961   8   1   -61.159000   -5.465000  -6.614000
9962   8   1   -61.177000   -3.986000  -8.707000
9963   8   1   -57.317000   -3.255000  -8.223000
9964   8   1   -57.286000   -3.262000  -6.677000
9965   8   1   -58.569000   -3.993000  -6.133000
9966   8   1   -58.611000   -5.47000  -8.188000
9967   8   1   -58.582000   -5.473000  -6.641000
9968   8   1   -58.614000   -3.991000  -8.719000
9969   8   1   -36.689000   -3.396000  -8.637000
9970   8   1   -36.667000   -3.409000  -7.09000
9971   8   1   -34.116000   -3.417000  -8.692000
9972   8   1   -34.092000   -3.429000  -7.133000
9973   8   1   -34.121000   -6.365000  -9.211000
9974   8   1   -34.08000   -6.375000  -6.623000
9975   8   1   -35.37000   -4.156000  -6.594000
9976   8   1   -35.399000   -5.621000  -8.661000
9977   8   1   -35.377000   -5.629000  -7.116000
9978   8   1   -35.411000   -4.14000  -9.181000
9979   8   1   -31.546000   -3.439000  -8.747000
9980   8   1   -31.52000   -3.45000  -7.183000
9981   8   1   -31.55000   -6.386000  -9.278000
9982   8   1   -31.506000   -6.395000  -6.671000
9983   8   1   -32.797000   -4.178000  -6.637000
9984   8   1   -32.825000   -5.64000  -8.724000
9985   8   1   -32.801000   -5.649000  -7.165000
9986   8   1   -32.841000   -4.162000  -9.245000
9987   8   1   -28.978000   -3.454000  -8.798000
9988   8   1   -28.95000   -3.464000  -7.234000
9989   8   1   -28.977000   -6.405000  -9.333000
9990   8   1   -28.935000   -6.413000  -6.722000
9991   8   1   -30.225000   -4.196000  -6.688000
9992   8   1   -30.254000   -5.66000  -8.781000
9993   8   1   -30.229000   -5.667000  -7.218000
9994   8   1   -30.271000   -4.182000  -9.3000
9995   8   1   -26.405000   -3.463000  -8.849000
9996   8   1   -26.379000   -3.471000  -7.282000
9997   8   1   -26.403000   -6.42000  -9.379000
9998   8   1   -26.363000   -6.423000  -6.767000
9999   8   1   -27.656000   -4.208000  -6.738000
10000   8   1   -27.682000   -5.677000  -8.832000
10001   8   1   -27.658000   -5.682000  -7.268000
10002   8   1   -27.7000   -4.196000  -9.351000
10003   8   1   -23.832000   -3.462000  -8.903000
10004   8   1   -23.806000   -3.467000  -7.319000
10005   8   1   -23.827000   -6.429000  -9.422000
10006   8   1   -23.79000   -6.429000  -6.802000
10007   8   1   -25.084000   -4.211000  -6.78000
10008   8   1   -25.107000   -5.686000  -8.877000
10009   8   1   -25.085000   -5.688000  -7.309000
10010   8   1   -25.128000   -4.204000  -9.401000
10011   8   1   -21.277000   -6.443000  -9.494000
10012   8   1   -21.242000   -6.441000  -6.792000
10013   8   1   -22.538000   -4.22000  -6.78000
10014   8   1   -22.532000   -5.685000  -8.922000
10015   8   1   -22.51000   -5.686000  -7.339000
10016   8   1   -22.581000   -4.216000  -9.484000
10017   8   1   -72.682000   -1.724000  -8.669000
10018   8   1   -72.658000   -1.727000  -5.962000
10019   8   1   -70.123000   1.207000  -8.11000
10020   8   1   -70.107000   1.198000  -6.527000
10021   8   1   -70.139000   -1.739000  -8.646000
10022   8   1   -70.117000   -1.746000  -6.023000
10023   8   1   -71.361000   0.461000  -5.961000
10024   8   1   -71.416000   -0.989000  -8.114000
10025   8   1   -71.401000   -0.993000  -6.531000
10026   8   1   -71.386000   0.471000  -8.669000
10027   8   1   -67.555000   1.189000  -8.124000
10028   8   1   -67.539000   1.176000  -6.557000
10029   8   1   -67.573000   -1.756000  -8.662000
10030   8   1   -67.548000   -1.766000  -6.048000
10031   8   1   -68.819000   0.447000  -6.022000
10032   8   1   -68.848000   -1.013000  -8.125000
10033   8   1   -68.834000   -1.022000  -6.558000
10034   8   1   -68.844000   0.463000  -8.647000
10035   8   1   -64.99000   1.183000  -8.149000
10036   8   1   -64.971000   1.168000  -6.585000
10037   8   1   -65.008000   -1.766000  -8.683000
10038   8   1   -64.98000   -1.776000  -6.069000
10039   8   1   -66.251000   0.433000  -6.05000
10040   8   1   -66.282000   -1.027000  -8.146000
10041   8   1   -66.265000   -1.036000  -6.581000
10042   8   1   -66.28000   0.451000  -8.665000
10043   8   1   -62.426000   1.184000  -8.179000
10044   8   1   -62.404000   1.169000  -6.615000
10045   8   1   -62.445000   -1.768000  -8.705000
10046   8   1   -62.411000   -1.778000  -6.092000
10047   8   1   -63.683000   0.43000  -6.077000
10048   8   1   -63.717000   -1.032000  -8.17000
10049   8   1   -63.698000   -1.041000  -6.605000
10050   8   1   -63.715000   0.448000  -8.691000
10051   8   1   -59.864000   1.186000  -8.215000
10052   8   1   -59.838000   1.173000  -6.651000
10053   8   1   -59.883000   -1.771000  -8.731000
10054   8   1   -59.842000   -1.778000  -6.121000
10055   8   1   -61.115000   0.433000  -6.108000
10056   8   1   -61.155000   -1.032000  -8.196000
10057   8   1   -61.131000   -1.042000  -6.632000
10058   8   1   -61.155000   0.448000  -8.722000
10059   8   1   -57.299000   1.184000  -8.259000
10060   8   1   -57.269000   1.171000  -6.696000
10061   8   1   -57.319000   -1.776000  -8.76000
10062   8   1   -57.27000   -1.783000  -6.166000
10063   8   1   -58.546000   0.434000  -6.148000
10064   8   1   -58.591000   -1.033000  -8.228000
10065   8   1   -58.563000   -1.042000  -6.667000
10066   8   1   -58.593000   0.447000  -8.758000
10067   8   1   -54.729000   1.17000  -8.314000
10068   8   1   -54.697000   1.16000  -6.752000
10069   8   1   -55.976000   0.428000  -6.2000
10070   8   1   -56.02000   -1.042000  -8.271000
10071   8   1   -55.988000   -1.051000  -6.716000
10072   8   1   -56.027000   0.44000  -8.804000
10073   8   1   -52.158000   1.151000  -8.376000
10074   8   1   -52.126000   1.143000  -6.815000
10075   8   1   -53.401000   0.41000  -6.261000
10076   8   1   -53.456000   0.42000  -8.864000
10077   8   1   -49.582000   1.13000  -8.437000
10078   8   1   -49.552000   1.124000  -6.878000
10079   8   1   -50.83000   0.391000  -6.33000
10080   8   1   -50.883000   0.399000  -8.927000
10081   8   1   -47.003000   1.112000  -8.491000
10082   8   1   -46.975000   1.104000  -6.933000
10083   8   1   -48.255000   0.374000  -6.394000
10084   8   1   -48.306000   0.383000  -8.986000
10085   8   1   -44.423000   1.09000  -8.536000
10086   8   1   -44.399000   1.08000  -6.977000
10087   8   1   -45.68000   0.353000  -6.445000
10088   8   1   -45.724000   0.364000  -9.036000
10089   8   1   -41.847000   1.07000  -8.571000
10090   8   1   -41.824000   1.057000  -7.01000
10091   8   1   -43.106000   0.326000  -6.481000
10092   8   1   -43.145000   0.343000  -9.078000
10093   8   1   -39.274000   1.052000  -8.601000
10094   8   1   -39.252000   1.033000  -7.039000
10095   8   1   -40.534000   0.304000  -6.507000
10096   8   1   -40.569000   0.326000  -9.111000
10097   8   1   -36.7000   1.031000  -8.632000
10098   8   1   -36.678000   1.009000  -7.069000
10099   8   1   -36.703000   -1.915000  -9.16000
10100   8   1   -36.665000   -1.937000  -6.566000
10101   8   1   -37.959000   0.283000  -6.537000
10102   8   1   -37.984000   -1.172000  -8.621000
10103   8   1   -37.96000   -1.188000  -7.066000
10104   8   1   -37.994000   0.31000  -9.141000
10105   8   1   -34.13000   1.007000  -8.67000
10106   8   1   -34.106000   0.983000  -7.105000
10107   8   1   -34.133000   -1.937000  -9.212000
10108   8   1   -34.091000   -1.96000  -6.603000
10109   8   1   -35.385000   0.256000  -6.569000
10110   8   1   -35.409000   -1.192000  -8.664000
10111   8   1   -35.385000   -1.21000  -7.103000
10112   8   1   -35.423000   0.288000  -9.18000
10113   8   1   -31.561000   0.986000  -8.712000
10114   8   1   -31.535000   0.962000  -7.147000
10115   8   1   -31.564000   -1.958000  -9.264000
10116   8   1   -31.519000   -1.981000  -6.651000
10117   8   1   -32.813000   0.232000  -6.609000
10118   8   1   -32.84000   -1.217000  -8.711000
10119   8   1   -32.813000   -1.233000  -7.146000
10120   8   1   -32.855000   0.266000  -9.222000
10121   8   1   -28.99000   0.974000  -8.76000
10122   8   1   -28.964000   0.953000  -7.193000
10123   8   1   -28.995000   -1.973000  -9.313000
10124   8   1   -28.949000   -1.994000  -6.7000
10125   8   1   -30.24000   0.216000  -6.655000
10126   8   1   -30.27000   -1.233000  -8.759000
10127   8   1   -30.243000   -1.251000  -7.195000
10128   8   1   -30.286000   0.249000  -9.269000
10129   8   1   -26.419000   0.975000  -8.819000
10130   8   1   -26.392000   0.957000  -7.235000
10131   8   1   -26.424000   -1.98000  -9.367000
10132   8   1   -26.377000   -1.998000  -6.745000
10133   8   1   -27.669000   0.211000  -6.699000
10134   8   1   -27.7000   -1.243000  -8.809000
10135   8   1   -27.672000   -1.257000  -7.243000
10136   8   1   -27.717000   0.241000  -9.322000
10137   8   1   -23.879000   -1.994000  -9.457000
10138   8   1   -23.831000   -2.005000  -6.752000
10139   8   1   -25.124000   0.206000  -6.709000
10140   8   1   -25.128000   -1.242000  -8.868000
10141   8   1   -25.101000   -1.253000  -7.284000
10142   8   1   -25.172000   0.228000  -9.414000
10143   8   1   -70.1000   2.668000  -8.659000
10144   8   1   -70.07000   2.649000  -5.95000
10145   8   1   -67.562000   5.599000  -8.071000
10146   8   1   -67.539000   5.576000  -6.489000
10147   8   1   -67.557000   2.667000  -8.639000
10148   8   1   -67.527000   2.64000  -6.014000
10149   8   1   -68.787000   4.833000  -5.928000
10150   8   1   -68.839000   3.404000  -8.097000
10151   8   1   -68.819000   3.388000  -6.513000
10152   8   1   -68.822000   4.863000  -8.636000
10153   8   1   -64.993000   5.603000  -8.096000
10154   8   1   -64.969000   5.573000  -6.529000
10155   8   1   -64.993000   2.664000  -8.662000
10156   8   1   -64.958000   2.634000  -6.047000
10157   8   1   -66.243000   4.833000  -5.996000
10158   8   1   -66.269000   3.393000  -8.115000
10159   8   1   -66.25000   3.373000  -6.548000
10160   8   1   -66.279000   4.873000  -8.621000
10161   8   1   -62.431000   5.621000  -8.136000
10162   8   1   -62.403000   5.59000  -6.572000
10163   8   1   -62.431000   2.667000  -8.695000
10164   8   1   -62.391000   2.638000  -6.083000
10165   8   1   -63.673000   4.839000  -6.038000
10166   8   1   -63.705000   3.397000  -8.146000
10167   8   1   -63.682000   3.375000  -6.582000
10168   8   1   -63.716000   4.882000  -8.651000
10169   8   1   -59.871000   5.635000  -8.185000
10170   8   1   -59.84000   5.608000  -6.621000
10171   8   1   -59.871000   2.67000  -8.736000
10172   8   1   -59.824000   2.646000  -6.123000
10173   8   1   -61.108000   4.854000  -6.083000
10174   8   1   -61.143000   3.406000  -8.185000
10175   8   1   -61.117000   3.384000  -6.621000
10176   8   1   -61.156000   4.894000  -8.693000
10177   8   1   -57.306000   5.633000  -8.24000
10178   8   1   -57.273000   5.611000  -6.675000
10179   8   1   -57.308000   2.667000  -8.782000
10180   8   1   -57.258000   2.647000  -6.171000
10181   8   1   -58.543000   4.865000  -6.132000
10182   8   1   -58.58000   3.408000  -8.231000
10183   8   1   -58.551000   3.39000  -6.667000
10184   8   1   -58.596000   4.898000  -8.742000
10185   8   1   -54.735000   5.619000  -8.298000
10186   8   1   -54.701000   5.6000  -6.733000
10187   8   1   -54.741000   2.655000  -8.836000
10188   8   1   -54.688000   2.638000  -6.227000
10189   8   1   -55.975000   4.861000  -6.187000
10190   8   1   -56.014000   3.4000  -8.284000
10191   8   1   -55.983000   3.386000  -6.719000
10192   8   1   -56.031000   4.889000  -8.797000
10193   8   1   -52.158000   5.595000  -8.355000
10194   8   1   -52.126000   5.581000  -6.79000
10195   8   1   -52.169000   2.636000  -8.895000
10196   8   1   -52.115000   2.62000  -6.287000
10197   8   1   -53.403000   4.848000  -6.245000
10198   8   1   -53.444000   3.384000  -8.341000
10199   8   1   -53.412000   3.372000  -6.777000
10200   8   1   -53.457000   4.872000  -8.855000
10201   8   1   -49.577000   5.574000  -8.409000
10202   8   1   -49.548000   5.559000  -6.845000
10203   8   1   -49.592000   2.617000  -8.951000
10204   8   1   -49.541000   2.601000  -6.346000
10205   8   1   -50.829000   4.828000  -6.301000
10206   8   1   -50.868000   3.364000  -8.399000
10207   8   1   -50.837000   3.353000  -6.835000
10208   8   1   -50.88000   4.85000  -8.911000
10209   8   1   -46.995000   5.552000  -8.456000
10210   8   1   -46.97000   5.534000  -6.891000
10211   8   1   -47.01000   2.598000  -9.003000
10212   8   1   -46.967000   2.58000  -6.398000
10213   8   1   -48.252000   4.805000  -6.353000
10214   8   1   -48.29000   3.343000  -8.452000
10215   8   1   -48.262000   3.332000  -6.889000
10216   8   1   -48.298000   4.829000  -8.963000
10217   8   1   -44.413000   5.53000  -8.493000
10218   8   1   -44.391000   5.511000  -6.928000
10219   8   1   -44.431000   2.578000  -9.046000
10220   8   1   -44.392000   2.555000  -6.441000
10221   8   1   -45.676000   4.781000  -6.396000
10222   8   1   -45.71000   3.322000  -8.499000
10223   8   1   -45.685000   3.308000  -6.936000
10224   8   1   -45.714000   4.81000  -9.007000
10225   8   1   -41.834000   5.509000  -8.522000
10226   8   1   -41.817000   5.486000  -6.958000
10227   8   1   -41.853000   2.557000  -9.081000
10228   8   1   -41.819000   2.529000  -6.473000
10229   8   1   -43.102000   4.755000  -6.431000
10230   8   1   -43.131000   3.302000  -8.536000
10231   8   1   -43.11000   3.284000  -6.972000
10232   8   1   -43.132000   4.79000  -9.041000
10233   8   1   -39.259000   5.49000  -8.547000
10234   8   1   -39.244000   5.458000  -6.982000
10235   8   1   -39.279000   2.538000  -9.111000
10236   8   1   -39.247000   2.503000  -6.501000
10237   8   1   -40.529000   4.727000  -6.459000
10238   8   1   -40.556000   3.28000  -8.566000
10239   8   1   -40.536000   3.258000  -7.002000
10240   8   1   -40.555000   4.769000  -9.069000
10241   8   1   -36.689000   5.464000  -8.568000
10242   8   1   -36.674000   5.426000  -7.003000
10243   8   1   -36.708000   2.515000  -9.141000
10244   8   1   -36.675000   2.475000  -6.529000
10245   8   1   -37.958000   4.696000  -6.482000
10246   8   1   -37.984000   3.258000  -8.593000
10247   8   1   -37.965000   3.232000  -7.029000
10248   8   1   -37.984000   4.748000  -9.093000
10249   8   1   -34.123000   5.433000  -8.592000
10250   8   1   -34.106000   5.389000  -7.028000
10251   8   1   -34.141000   2.491000  -9.175000
10252   8   1   -34.104000   2.446000  -6.562000
10253   8   1   -35.39000   4.662000  -6.507000
10254   8   1   -35.415000   3.232000  -8.622000
10255   8   1   -35.395000   3.201000  -7.059000
10256   8   1   -35.418000   4.722000  -9.119000
10257   8   1   -31.556000   5.407000  -8.624000
10258   8   1   -31.536000   5.364000  -7.058000
10259   8   1   -31.573000   2.471000  -9.214000
10260   8   1   -31.532000   2.424000  -6.601000
10261   8   1   -32.819000   4.631000  -6.536000
10262   8   1   -32.845000   3.208000  -8.657000
10263   8   1   -32.823000   3.174000  -7.092000
10264   8   1   -32.852000   4.694000  -9.15000
10265   8   1   -28.984000   5.396000  -8.675000
10266   8   1   -28.963000   5.362000  -7.092000
10267   8   1   -29.004000   2.459000  -9.264000
10268   8   1   -28.959000   2.415000  -6.641000
10269   8   1   -30.246000   4.616000  -6.569000
10270   8   1   -30.277000   3.19000  -8.699000
10271   8   1   -30.252000   3.159000  -7.132000
10272   8   1   -30.284000   4.676000  -9.193000
10273   8   1   -26.46000   2.444000  -9.357000
10274   8   1   -26.412000   2.411000  -6.651000
10275   8   1   -27.698000   4.609000  -6.575000
10276   8   1   -27.705000   3.187000  -8.755000
10277   8   1   -27.68000   3.164000  -7.171000
10278   8   1   -27.74000   4.658000  -9.282000
10279   8   1   -67.558000   7.059000  -8.602000
10280   8   1   -67.513000   7.014000  -5.893000
10281   8   1   -65.064000   10.0000  -7.979000
10282   8   1   -65.023000   9.952000  -6.393000
10283   8   1   -65.013000   7.085000  -8.592000
10284   8   1   -64.966000   7.028000  -5.968000
10285   8   1   -66.254000   9.189000  -5.842000
10286   8   1   -66.301000   7.794000  -8.033000
10287   8   1   -66.27000   7.761000  -6.45000
10288   8   1   -66.314000   9.255000  -8.549000
10289   8   1   -62.497000   10.083000  -8.026000
10290   8   1   -62.457000   10.03000  -6.454000
10291   8   1   -62.453000   7.113000  -8.63000
10292   8   1   -62.399000   7.054000  -6.02000
10293   8   1   -63.707000   9.239000  -5.927000
10294   8   1   -63.732000   7.826000  -8.066000
10295   8   1   -63.7000   7.786000  -6.5000
10296   8   1   -63.769000   9.317000  -8.549000
10297   8   1   -59.93000   10.108000  -8.091000
10298   8   1   -59.891000   10.066000  -6.527000
10299   8   1   -59.896000   7.131000  -8.683000
10300   8   1   -59.837000   7.079000  -6.075000
10301   8   1   -61.145000   9.292000  -5.994000
10302   8   1   -61.173000   7.861000  -8.117000
10303   8   1   -61.138000   7.823000  -6.554000
10304   8   1   -61.213000   9.364000  -8.599000
10305   8   1   -57.348000   10.095000  -8.166000
10306   8   1   -57.308000   10.063000  -6.603000
10307   8   1   -57.331000   7.127000  -8.743000
10308   8   1   -57.271000   7.086000  -6.135000
10309   8   1   -58.579000   9.313000  -6.062000
10310   8   1   -58.608000   7.868000  -8.178000
10311   8   1   -58.573000   7.837000  -6.614000
10312   8   1   -58.646000   9.37000  -8.667000
10313   8   1   -54.756000   10.066000  -8.239000
10314   8   1   -54.719000   10.042000  -6.675000
10315   8   1   -54.754000   7.109000  -8.804000
10316   8   1   -54.697000   7.075000  -6.195000
10317   8   1   -55.998000   9.305000  -6.131000
10318   8   1   -56.034000   7.855000  -8.241000
10319   8   1   -55.998000   7.829000  -6.677000
10320   8   1   -56.063000   9.349000  -8.737000
10321   8   1   -52.161000   10.035000  -8.303000
10322   8   1   -52.13000   10.015000  -6.739000
10323   8   1   -52.173000   7.085000  -8.862000
10324   8   1   -52.118000   7.055000  -6.254000
10325   8   1   -53.413000   9.283000  -6.197000
10326   8   1   -53.452000   7.831000  -8.303000
10327   8   1   -53.419000   7.81000  -6.739000
10328   8   1   -53.472000   9.32000  -8.804000
10329   8   1   -49.568000   10.008000  -8.357000
10330   8   1   -49.541000   9.989000  -6.792000
10331   8   1   -49.586000   7.06000  -8.916000
10332   8   1   -49.539000   7.031000  -6.306000
10333   8   1   -50.828000   9.258000  -6.254000
10334   8   1   -50.867000   7.804000  -8.36000
10335   8   1   -50.837000   7.786000  -6.795000
10336   8   1   -50.878000   9.291000  -8.862000
10337   8   1   -46.976000   9.984000  -8.397000
10338   8   1   -46.955000   9.962000  -6.833000
10339   8   1   -46.999000   7.037000  -8.96000
10340   8   1   -46.96000   7.007000  -6.35000
10341   8   1   -48.244000   9.232000  -6.302000
10342   8   1   -48.28000   7.779000  -8.408000
10343   8   1   -48.255000   7.761000  -6.843000
10344   8   1   -48.284000   9.265000  -8.911000
10345   8   1   -44.386000   9.962000  -8.424000
10346   8   1   -44.371000   9.939000  -6.861000
10347   8   1   -44.412000   7.017000  -8.996000
10348   8   1   -44.382000   6.981000  -6.385000
10349   8   1   -45.662000   9.206000  -6.337000
10350   8   1   -45.694000   7.757000  -8.447000
10351   8   1   -45.673000   7.736000  -6.882000
10352   8   1   -45.691000   9.244000  -8.946000
10353   8   1   -41.797000   9.945000  -8.439000
10354   8   1   -41.788000   9.914000  -6.875000
10355   8   1   -41.828000   7.0000  -9.021000
10356   8   1   -41.806000   6.953000  -6.41000
10357   8   1   -43.081000   9.179000  -6.361000
10358   8   1   -43.11000   7.738000  -8.475000
10359   8   1   -43.094000   7.711000  -6.91000
10360   8   1   -43.101000   9.227000  -8.969000
10361   8   1   -39.213000   9.93000  -8.442000
10362   8   1   -39.208000   9.887000  -6.877000
10363   8   1   -39.251000   6.981000  -9.039000
10364   8   1   -39.234000   6.923000  -6.428000
10365   8   1   -40.503000   9.151000  -6.373000
10366   8   1   -40.529000   7.719000  -8.493000
10367   8   1   -40.517000   7.686000  -6.928000
10368   8   1   -40.514000   9.212000  -8.981000
10369   8   1   -36.634000   9.913000  -8.437000
10370   8   1   -36.632000   9.857000  -6.873000
10371   8   1   -36.681000   6.958000  -9.054000
10372   8   1   -36.665000   6.887000  -6.444000
10373   8   1   -37.928000   9.12000  -6.376000
10374   8   1   -37.953000   7.698000  -8.505000
10375   8   1   -37.944000   7.656000  -6.942000
10376   8   1   -37.933000   9.197000  -8.985000
10377   8   1   -34.068000   9.873000  -8.436000
10378   8   1   -34.066000   9.806000  -6.87000
10379   8   1   -34.119000   6.926000  -9.073000
10380   8   1   -34.099000   6.845000  -6.461000
10381   8   1   -35.361000   9.074000  -6.378000
10382   8   1   -35.387000   7.67000  -8.517000
10383   8   1   -35.377000   7.618000  -6.953000
10384   8   1   -35.366000   9.171000  -8.987000
10385   8   1   -31.507000   9.801000  -8.458000
10386   8   1   -31.506000   9.737000  -6.878000
10387   8   1   -31.556000   6.894000  -9.107000
10388   8   1   -31.527000   6.813000  -6.483000
10389   8   1   -32.799000   9.016000  -6.381000
10390   8   1   -32.824000   7.628000  -8.537000
10391   8   1   -32.812000   7.573000  -6.971000
10392   8   1   -32.809000   9.121000  -9.003000
10393   8   1   -29.011000   6.866000  -9.189000
10394   8   1   -28.979000   6.8000  -6.481000
10395   8   1   -30.252000   8.978000  -6.368000
10396   8   1   -30.254000   7.599000  -8.577000
10397   8   1   -30.24000   7.554000  -6.994000
10398   8   1   -30.268000   9.068000  -9.076000
10399   8   1   -65.118000   11.462000  -8.486000
10400   8   1   -65.033000   11.364000  -5.756000
10401   8   1   -62.573000   11.596000  -8.497000
10402   8   1   -62.492000   11.497000  -5.859000
10403   8   1   -63.888000   12.213000  -7.887000
10404   8   1   -63.835000   12.148000  -6.332000
10405   8   3   -60.028000   14.555000  -7.939000
10406   8   3   -59.984000   14.508000  -6.384000
10407   8   1   -59.993000   11.617000  -8.567000
10408   8   1   -59.915000   11.541000  -5.958000
10409   8   3   -61.26000   13.755000  -5.791000
10410   8   1   -61.299000   12.348000  -7.977000
10411   8   1   -61.255000   12.294000  -6.402000
10412   8   3   -61.347000   13.855000  -8.46000
10413   8   3   -57.377000   14.506000  -8.059000
10414   8   3   -57.336000   14.473000  -6.503000
10415   8   1   -57.387000   11.594000  -8.655000
10416   8   1   -57.314000   11.537000  -6.046000
10417   8   3   -58.64000   13.774000  -5.92000
10418   8   1   -58.682000   12.341000  -8.074000
10419   8   1   -58.638000   12.301000  -6.499000
10420   8   3   -58.72000   13.843000  -8.566000
10421   8   3   -54.755000   14.467000  -8.158000
10422   8   3   -54.717000   14.442000  -6.6000
10423   8   1   -54.778000   11.556000  -8.735000
10424   8   1   -54.712000   11.513000  -6.126000
10425   8   3   -56.014000   13.744000  -6.022000
10426   8   1   -56.067000   12.303000  -8.165000
10427   8   1   -56.026000   12.275000  -6.589000
10428   8   3   -56.087000   13.794000  -8.671000
10429   8   3   -52.144000   14.434000  -8.235000
10430   8   3   -52.113000   14.415000  -6.678000
10431   8   1   -52.174000   11.523000  -8.804000
10432   8   1   -52.117000   11.487000  -6.193000
10433   8   3   -53.406000   13.716000  -6.105000
10434   8   1   -53.46000   12.269000  -8.242000
10435   8   1   -53.424000   12.247000  -6.667000
10436   8   3   -53.469000   13.755000  -8.756000
10437   8   3   -49.544000   14.405000  -8.293000
10438   8   3   -49.517000   14.388000  -6.735000
10439   8   1   -49.573000   11.493000  -8.859000
10440   8   1   -49.527000   11.459000  -6.247000
10441   8   3   -50.809000   13.69000  -6.17000
10442   8   1   -50.858000   12.238000  -8.305000
10443   8   1   -50.828000   12.219000  -6.73000
10444   8   3   -50.861000   13.724000  -8.823000
10445   8   3   -46.945000   14.38000  -8.328000
10446   8   3   -46.925000   14.362000  -6.771000
10447   8   1   -46.974000   11.469000  -8.898000
10448   8   1   -46.941000   11.432000  -6.286000
10449   8   3   -48.219000   13.662000  -6.217000
10450   8   1   -48.261000   12.212000  -8.352000
10451   8   1   -48.236000   12.192000  -6.777000
10452   8   3   -48.258000   13.696000  -8.87000
10453   8   3   -44.349000   14.36000  -8.344000
10454   8   3   -44.336000   14.337000  -6.786000
10455   8   1   -44.377000   11.45000  -8.922000
10456   8   1   -44.357000   11.406000  -6.309000
10457   8   3   -45.631000   13.635000  -6.243000
10458   8   1   -45.665000   12.188000  -8.382000
10459   8   1   -45.648000   12.167000  -6.807000
10460   8   3   -45.658000   13.674000  -8.897000
10461   8   3   -41.753000   14.343000  -8.335000
10462   8   3   -41.745000   14.312000  -6.777000
10463   8   1   -41.782000   11.436000  -8.929000
10464   8   1   -41.773000   11.378000  -6.317000
10465   8   3   -43.046000   13.608000  -6.25000
10466   8   1   -43.07000   12.171000  -8.394000
10467   8   1   -43.061000   12.143000  -6.819000
10468   8   3   -43.058000   13.658000  -8.904000
10469   8   3   -39.155000   14.328000  -8.304000
10470   8   3   -39.153000   14.285000  -6.746000
10471   8   1   -39.188000   11.424000  -8.921000
10472   8   1   -39.189000   11.349000  -6.309000
10473   8   3   -40.458000   13.58000  -6.235000
10474   8   1   -40.478000   12.155000  -8.389000
10475   8   1   -40.473000   12.118000  -6.814000
10476   8   3   -40.459000   13.646000  -8.888000
10477   8   3   -36.549000   14.319000  -8.243000
10478   8   3   -36.554000   14.258000  -6.691000
10479   8   1   -36.596000   11.418000  -8.899000
10480   8   1   -36.606000   11.317000  -6.291000
10481   8   3   -37.866000   13.547000  -6.2000
10482   8   1   -37.885000   12.143000  -8.367000
10483   8   1   -37.884000   12.089000  -6.793000
10484   8   3   -37.853000   13.639000  -8.848000
10485   8   1   -34.022000   11.382000  -8.882000
10486   8   1   -34.033000   11.256000  -6.267000
10487   8   3   -35.257000   13.52000  -6.145000
10488   8   1   -35.288000   12.131000  -8.332000
10489   8   1   -35.293000   12.06000  -6.76000
10490   8   3   -35.232000   13.649000  -8.778000
10491   8   1   -31.485000   11.268000  -8.933000
10492   8   1   -31.496000   11.145000  -6.234000
10493   8   1   -32.705000   12.05000  -8.31000
10494   8   1   -32.717000   11.972000  -6.734000
10495   8   1   -78.033000   -16.419000  -7.981000
10496   8   1   -78.013000   -16.413000  -6.428000
10497   8   1   -75.46000   -16.438000  -8.021000
10498   8   1   -75.441000   -16.428000  -6.448000
10499   8   1   -75.414000   -19.409000  -8.536000
10500   8   1   -75.381000   -19.39000  -5.883000
10501   8   1   -76.72000   -17.162000  -5.889000
10502   8   1   -76.68000   -18.649000  -7.981000
10503   8   1   -76.66000   -18.64000  -6.423000
10504   8   1   -76.753000   -17.175000  -8.538000
10505   8   1   -72.857000   -16.455000  -8.047000
10506   8   1   -72.837000   -16.446000  -6.482000
10507   8   1   -72.833000   -19.41000  -8.546000
10508   8   1   -72.8000   -19.39000  -5.932000
10509   8   1   -74.125000   -17.167000  -5.937000
10510   8   1   -74.127000   -18.665000  -8.019000
10511   8   1   -74.108000   -18.655000  -6.443000
10512   8   1   -74.156000   -17.184000  -8.55000
10513   8   1   -70.258000   -16.474000  -8.075000
10514   8   1   -70.238000   -16.465000  -6.511000
10515   8   1   -70.248000   -19.423000  -8.574000
10516   8   1   -70.214000   -19.402000  -5.965000
10517   8   1   -71.528000   -17.184000  -5.969000
10518   8   1   -71.538000   -18.676000  -8.043000
10519   8   1   -71.518000   -18.665000  -6.478000
10520   8   1   -71.56000   -17.2000  -8.577000
10521   8   1   -67.666000   -16.491000  -8.105000
10522   8   1   -67.645000   -16.484000  -6.54000
10523   8   1   -67.663000   -19.439000  -8.607000
10524   8   1   -67.628000   -19.42000  -5.996000
10525   8   1   -68.934000   -17.203000  -5.997000
10526   8   1   -68.951000   -18.691000  -8.074000
10527   8   1   -68.931000   -18.681000  -6.509000
10528   8   1   -68.967000   -17.218000  -8.609000
10529   8   1   -65.078000   -16.509000  -8.136000
10530   8   1   -65.057000   -16.502000  -6.571000
10531   8   1   -65.082000   -19.457000  -8.643000
10532   8   1   -65.045000   -19.44000  -6.031000
10533   8   1   -66.344000   -17.222000  -6.028000
10534   8   1   -66.366000   -18.709000  -8.106000
10535   8   1   -66.344000   -18.7000  -6.542000
10536   8   1   -66.379000   -17.236000  -8.64000
10537   8   1   -62.502000   -19.476000  -8.682000
10538   8   1   -62.462000   -19.462000  -6.076000
10539   8   1   -63.756000   -17.242000  -6.064000
10540   8   1   -63.783000   -18.727000  -8.144000
10541   8   1   -63.76000   -18.721000  -6.58000
10542   8   1   -63.793000   -17.254000  -8.673000
10543   8   1   -31.62000   -19.663000  -9.288000
10544   8   1   -31.584000   -19.641000  -6.68000
10545   8   1   -29.006000   -16.727000  -8.815000
10546   8   1   -28.986000   -16.719000  -7.25000
10547   8   1   -29.041000   -19.677000  -9.314000
10548   8   1   -29.011000   -19.654000  -6.702000
10549   8   1   -30.277000   -17.441000  -6.71000
10550   8   1   -30.318000   -18.929000  -8.786000
10551   8   1   -30.298000   -18.918000  -7.222000
10552   8   1   -30.31000   -17.455000  -9.321000
10553   8   1   -26.422000   -16.744000  -8.84000
10554   8   1   -26.406000   -16.735000  -7.275000
10555   8   1   -26.464000   -19.694000  -9.339000
10556   8   1   -26.437000   -19.671000  -6.726000
10557   8   1   -27.699000   -17.457000  -6.734000
10558   8   1   -27.74000   -18.945000  -8.811000
10559   8   1   -27.722000   -18.933000  -7.246000
10560   8   1   -27.727000   -17.472000  -9.347000
10561   8   1   -23.836000   -16.763000  -8.859000
10562   8   1   -23.824000   -16.754000  -7.295000
10563   8   1   -23.89000   -19.716000  -9.363000
10564   8   1   -23.867000   -19.697000  -6.747000
10565   8   1   -25.12000   -17.474000  -6.758000
10566   8   1   -25.162000   -18.964000  -8.834000
10567   8   1   -25.146000   -18.953000  -7.269000
10568   8   1   -25.143000   -17.489000  -9.369000
10569   8   1   -21.25000   -16.791000  -8.875000
10570   8   1   -21.243000   -16.783000  -7.301000
10571   8   1   -21.32000   -19.75000  -9.403000
10572   8   1   -21.3000   -19.735000  -6.745000
10573   8   1   -22.545000   -17.499000  -6.772000
10574   8   1   -22.585000   -18.991000  -8.858000
10575   8   1   -22.573000   -18.981000  -7.284000
10576   8   1   -22.56000   -17.513000  -9.387000
10577   8   1   -18.701000   -16.834000  -8.863000
10578   8   1   -18.701000   -16.829000  -7.309000
10579   8   1   -19.978000   -17.543000  -6.761000
10580   8   1   -20.046000   -19.015000  -8.863000
10581   8   1   -20.037000   -19.009000  -7.305000
10582   8   1   -19.985000   -17.553000  -9.414000
10583   8   1   -75.354000   -20.876000  -7.973000
10584   8   1   -75.335000   -20.865000  -6.416000
10585   8   1   -72.808000   -20.889000  -8.011000
10586   8   1   -72.788000   -20.877000  -6.436000
10587   8   1   -72.787000   -23.854000  -8.518000
10588   8   1   -72.751000   -23.83000  -5.862000
10589   8   1   -74.061000   -21.613000  -5.873000
10590   8   1   -74.043000   -23.097000  -7.963000
10591   8   1   -74.021000   -23.083000  -6.405000
10592   8   1   -74.095000   -21.634000  -8.528000
10593   8   1   -70.228000   -20.896000  -8.037000
10594   8   1   -70.207000   -20.885000  -6.472000
10595   8   1   -70.215000   -23.852000  -8.531000
10596   8   1   -70.179000   -23.831000  -5.915000
10597   8   1   -71.485000   -21.611000  -5.924000
10598   8   1   -71.501000   -23.109000  -8.002000
10599   8   1   -71.479000   -23.096000  -6.427000
10600   8   1   -71.519000   -21.633000  -8.538000
10601   8   1   -67.647000   -20.911000  -8.07000
10602   8   1   -67.626000   -20.901000  -6.505000
10603   8   1   -67.642000   -23.864000  -8.564000
10604   8   1   -67.606000   -23.844000  -5.952000
10605   8   1   -68.906000   -21.622000  -5.959000
10606   8   1   -68.925000   -23.116000  -8.031000
10607   8   1   -68.903000   -23.105000  -6.466000
10608   8   1   -68.942000   -21.643000  -8.569000
10609   8   1   -65.069000   -20.93000  -8.107000
10610   8   1   -65.045000   -20.92000  -6.542000
10611   8   1   -65.069000   -23.883000  -8.601000
10612   8   1   -65.031000   -23.864000  -5.989000
10613   8   1   -66.327000   -21.64000  -5.993000
10614   8   1   -66.349000   -23.132000  -8.066000
10615   8   1   -66.327000   -23.121000  -6.501000
10616   8   1   -66.364000   -21.659000  -8.605000
10617   8   1   -62.49000   -20.952000  -8.148000
10618   8   1   -62.466000   -20.943000  -6.586000
10619   8   1   -62.496000   -23.908000  -8.642000
10620   8   1   -62.458000   -23.89000  -6.03000
10621   8   1   -63.747000   -21.663000  -6.032000
10622   8   1   -63.774000   -23.155000  -8.105000
10623   8   1   -63.752000   -23.143000  -6.54000
10624   8   1   -63.787000   -21.681000  -8.643000
10625   8   1   -59.923000   -23.937000  -8.684000
10626   8   1   -59.883000   -23.917000  -6.077000
10627   8   1   -61.17000   -21.688000  -6.08000
10628   8   1   -61.199000   -23.18000  -8.148000
10629   8   1   -61.177000   -23.171000  -6.585000
10630   8   1   -61.212000   -21.705000  -8.687000
10631   8   1   -34.229000   -24.088000  -9.184000
10632   8   1   -34.186000   -24.053000  -6.576000
10633   8   1   -31.627000   -21.135000  -8.746000
10634   8   1   -31.604000   -21.121000  -7.182000
10635   8   1   -31.656000   -24.092000  -9.217000
10636   8   1   -31.617000   -24.058000  -6.606000
10637   8   1   -32.888000   -21.844000  -6.636000
10638   8   1   -32.93000   -23.345000  -8.692000
10639   8   1   -32.905000   -23.328000  -7.129000
10640   8   1   -32.927000   -21.875000  -9.242000
10641   8   1   -29.052000   -21.148000  -8.772000
10642   8   1   -29.031000   -21.133000  -7.207000
10643   8   1   -29.085000   -24.102000  -9.248000
10644   8   1   -29.049000   -24.069000  -6.635000
10645   8   1   -30.316000   -21.853000  -6.659000
10646   8   1   -30.358000   -23.353000  -8.722000
10647   8   1   -30.335000   -23.336000  -7.158000
10648   8   1   -30.351000   -21.884000  -9.271000
10649   8   1   -26.478000   -21.166000  -8.798000
10650   8   1   -26.46000   -21.151000  -7.233000
10651   8   1   -26.516000   -24.12000  -9.281000
10652   8   1   -26.483000   -24.088000  -6.663000
10653   8   1   -27.746000   -21.869000  -6.686000
10654   8   1   -27.786000   -23.367000  -8.752000
10655   8   1   -27.767000   -23.349000  -7.187000
10656   8   1   -27.779000   -21.898000  -9.298000
10657   8   1   -23.905000   -21.191000  -8.828000
10658   8   1   -23.889000   -21.178000  -7.253000
10659   8   1   -23.95000   -24.147000  -9.332000
10660   8   1   -23.918000   -24.117000  -6.674000
10661   8   1   -25.178000   -21.892000  -6.71000
10662   8   1   -25.216000   -23.391000  -8.786000
10663   8   1   -25.197000   -23.373000  -7.211000
10664   8   1   -25.208000   -21.918000  -9.327000
10665   8   1   -21.367000   -21.21000  -8.843000
10666   8   1   -21.352000   -21.199000  -7.285000
10667   8   1   -22.613000   -21.925000  -6.716000
10668   8   1   -22.679000   -23.406000  -8.807000
10669   8   1   -22.661000   -23.39000  -7.249000
10670   8   1   -22.639000   -21.95000  -9.373000
10671   8   1   -72.741000   -25.314000  -7.953000
10672   8   1   -72.719000   -25.301000  -6.394000
10673   8   1   -70.202000   -25.328000  -7.994000
10674   8   1   -70.178000   -25.316000  -6.42000
10675   8   1   -70.201000   -28.281000  -8.509000
10676   8   1   -70.161000   -28.264000  -5.851000
10677   8   1   -71.45000   -26.047000  -5.853000
10678   8   1   -71.45000   -27.528000  -7.946000
10679   8   1   -71.427000   -27.515000  -6.389000
10680   8   1   -71.49000   -26.069000  -8.511000
10681   8   1   -67.629000   -25.336000  -8.025000
10682   8   1   -67.606000   -25.325000  -6.46000
10683   8   1   -67.634000   -28.285000  -8.526000
10684   8   1   -67.594000   -28.273000  -5.909000
10685   8   1   -68.882000   -26.051000  -5.909000
10686   8   1   -68.912000   -27.544000  -7.992000
10687   8   1   -68.888000   -27.534000  -6.416000
10688   8   1   -68.92000   -26.071000  -8.525000
10689   8   1   -65.057000   -25.355000  -8.062000
10690   8   1   -65.034000   -25.345000  -6.498000
10691   8   1   -65.065000   -28.306000  -8.56000
10692   8   1   -65.028000   -28.295000  -5.948000
10693   8   1   -66.312000   -26.067000  -5.948000
10694   8   1   -66.34000   -27.557000  -8.023000
10695   8   1   -66.318000   -27.549000  -6.458000
10696   8   1   -66.351000   -26.084000  -8.559000
10697   8   1   -62.485000   -25.382000  -8.102000
10698   8   1   -62.462000   -25.372000  -6.537000
10699   8   1   -62.497000   -28.336000  -8.596000
10700   8   1   -62.461000   -28.325000  -5.983000
10701   8   1   -63.742000   -26.092000  -5.985000
10702   8   1   -63.771000   -27.581000  -8.06000
10703   8   1   -63.749000   -27.573000  -6.495000
10704   8   1   -63.78000   -26.108000  -8.597000
10705   8   1   -59.913000   -25.412000  -8.143000
10706   8   1   -59.892000   -25.401000  -6.579000
10707   8   1   -59.93000   -28.371000  -8.631000
10708   8   1   -59.896000   -28.357000  -6.019000
10709   8   1   -61.173000   -26.12000  -6.024000
10710   8   1   -61.202000   -27.613000  -8.097000
10711   8   1   -61.182000   -27.604000  -6.532000
10712   8   1   -61.209000   -26.139000  -8.637000
10713   8   1   -57.363000   -28.408000  -8.666000
10714   8   1   -57.328000   -28.389000  -6.057000
10715   8   1   -58.602000   -26.151000  -6.068000
10716   8   1   -58.635000   -27.646000  -8.135000
10717   8   1   -58.614000   -27.636000  -6.57000
10718   8   1   -58.639000   -26.171000  -8.676000
10719   8   1   -36.814000   -28.52000  -9.041000
10720   8   1   -36.765000   -28.484000  -6.43000
10721   8   1   -34.229000   -25.556000  -8.629000
10722   8   1   -34.201000   -25.537000  -7.065000
10723   8   1   -34.248000   -28.513000  -9.088000
10724   8   1   -34.202000   -28.478000  -6.476000
10725   8   1   -35.478000   -26.265000  -6.506000
10726   8   1   -35.522000   -27.771000  -8.557000
10727   8   1   -35.492000   -27.751000  -6.994000
10728   8   1   -35.525000   -26.302000  -9.115000
10729   8   1   -31.66000   -25.56000  -8.664000
10730   8   1   -31.634000   -25.539000  -7.099000
10731   8   1   -31.68000   -28.51000  -9.13000
10732   8   1   -31.639000   -28.477000  -6.517000
10733   8   1   -32.913000   -26.265000  -6.543000
10734   8   1   -32.954000   -27.769000  -8.6000
10735   8   1   -32.927000   -27.749000  -7.036000
10736   8   1   -32.955000   -26.302000  -9.155000
10737   8   1   -29.089000   -25.569000  -8.697000
10738   8   1   -29.067000   -25.549000  -7.133000
10739   8   1   -29.113000   -28.517000  -9.171000
10740   8   1   -29.076000   -28.483000  -6.553000
10741   8   1   -30.348000   -26.271000  -6.578000
10742   8   1   -30.385000   -27.772000  -8.638000
10743   8   1   -30.362000   -27.752000  -7.073000
10744   8   1   -30.386000   -26.307000  -9.19000
10745   8   1   -26.52000   -25.589000  -8.735000
10746   8   1   -26.499000   -25.57000  -7.16000
10747   8   1   -26.547000   -28.538000  -9.227000
10748   8   1   -26.511000   -28.502000  -6.569000
10749   8   1   -27.783000   -26.284000  -6.609000
10750   8   1   -27.816000   -27.787000  -8.68000
10751   8   1   -27.795000   -27.766000  -7.105000
10752   8   1   -27.818000   -26.319000  -9.228000
10753   8   1   -23.983000   -25.601000  -8.76000
10754   8   1   -23.962000   -25.583000  -7.203000
10755   8   1   -25.218000   -26.309000  -6.622000
10756   8   1   -25.28000   -27.795000  -8.706000
10757   8   1   -25.259000   -27.775000  -7.148000
10758   8   1   -25.252000   -26.345000  -9.282000
10759   8   1   -70.168000   -29.737000  -7.949000
10760   8   1   -70.143000   -29.728000  -6.392000
10761   8   1   -67.63000   -29.758000  -7.997000
10762   8   1   -67.606000   -29.753000  -6.422000
10763   8   1   -67.651000   -32.694000  -8.541000
10764   8   1   -67.615000   -32.7000  -5.881000
10765   8   1   -68.882000   -30.481000  -5.858000
10766   8   1   -68.895000   -31.945000  -7.966000
10767   8   1   -68.872000   -31.943000  -6.408000
10768   8   1   -68.922000   -30.489000  -8.518000
10769   8   1   -65.059000   -29.779000  -8.028000
10770   8   1   -65.039000   -29.775000  -6.464000
10771   8   1   -65.082000   -32.715000  -8.556000
10772   8   1   -65.052000   -32.728000  -5.937000
10773   8   1   -66.317000   -30.498000  -5.917000
10774   8   1   -66.357000   -31.974000  -8.014000
10775   8   1   -66.335000   -31.975000  -6.439000
10776   8   1   -66.354000   -30.501000  -8.535000
10777   8   1   -62.492000   -29.81000  -8.061000
10778   8   1   -62.473000   -29.807000  -6.497000
10779   8   1   -62.516000   -32.759000  -8.583000
10780   8   1   -62.491000   -32.77000  -5.97000
10781   8   1   -63.753000   -30.529000  -5.954000
10782   8   1   -63.787000   -32.004000  -8.042000
10783   8   1   -63.77000   -32.007000  -6.477000
10784   8   1   -63.786000   -30.529000  -8.567000
10785   8   1   -59.927000   -29.848000  -8.095000
10786   8   1   -59.909000   -29.843000  -6.529000
10787   8   1   -59.953000   -32.806000  -8.607000
10788   8   1   -59.932000   -32.813000  -5.996000
10789   8   1   -61.191000   -30.565000  -5.986000
10790   8   1   -61.221000   -32.046000  -8.07000
10791   8   1   -61.207000   -32.048000  -6.506000
10792   8   1   -61.221000   -30.568000  -8.599000
10793   8   1   -57.361000   -29.885000  -8.126000
10794   8   1   -57.343000   -29.877000  -6.562000
10795   8   1   -57.388000   -32.848000  -8.631000
10796   8   1   -57.367000   -32.846000  -6.02000
10797   8   1   -58.627000   -30.601000  -6.017000
10798   8   1   -58.658000   -32.088000  -8.098000
10799   8   1   -58.645000   -32.087000  -6.532000
10800   8   1   -58.656000   -30.609000  -8.629000
10801   8   1   -54.795000   -29.92000  -8.157000
10802   8   1   -54.776000   -29.909000  -6.594000
10803   8   1   -54.82000   -32.883000  -8.655000
10804   8   1   -54.794000   -32.871000  -6.045000
10805   8   1   -56.06000   -30.631000  -6.047000
10806   8   1   -56.093000   -32.124000  -8.123000
10807   8   1   -56.078000   -32.119000  -6.558000
10808   8   1   -56.09000   -30.646000  -8.659000
10809   8   1   -52.224000   -29.952000  -8.187000
10810   8   1   -52.203000   -29.937000  -6.626000
10811   8   1   -52.247000   -32.911000  -8.684000
10812   8   1   -52.216000   -32.892000  -6.073000
10813   8   1   -53.489000   -30.659000  -6.079000
10814   8   1   -53.523000   -32.155000  -8.151000
10815   8   1   -53.505000   -32.145000  -6.587000
10816   8   1   -53.522000   -30.68000  -8.687000
10817   8   1   -49.652000   -29.978000  -8.222000
10818   8   1   -49.628000   -29.96000  -6.664000
10819   8   1   -49.671000   -32.933000  -8.717000
10820   8   1   -49.635000   -32.911000  -6.107000
10821   8   1   -50.912000   -30.682000  -6.113000
10822   8   1   -50.948000   -32.181000  -8.183000
10823   8   1   -50.927000   -32.168000  -6.618000
10824   8   1   -50.95000   -30.708000  -8.719000
10825   8   1   -47.08000   -29.995000  -8.267000
10826   8   1   -47.053000   -29.976000  -6.707000
10827   8   1   -47.096000   -32.951000  -8.757000
10828   8   1   -47.053000   -32.925000  -6.147000
10829   8   1   -48.335000   -30.699000  -6.152000
10830   8   1   -48.372000   -32.202000  -8.22000
10831   8   1   -48.349000   -32.187000  -6.656000
10832   8   1   -48.378000   -30.73000  -8.759000
10833   8   1   -44.508000   -30.006000  -8.317000
10834   8   1   -44.478000   -29.985000  -6.757000
10835   8   1   -44.52000   -32.964000  -8.804000
10836   8   1   -44.471000   -32.936000  -6.194000
10837   8   1   -45.756000   -30.713000  -6.198000
10838   8   1   -45.797000   -32.216000  -8.264000
10839   8   1   -45.769000   -32.2000  -6.7000
10840   8   1   -45.805000   -30.745000  -8.805000
10841   8   1   -41.937000   -30.008000  -8.375000
10842   8   1   -41.907000   -29.987000  -6.814000
10843   8   1   -41.948000   -32.969000  -8.857000
10844   8   1   -41.894000   -32.942000  -6.246000
10845   8   1   -43.183000   -30.719000  -6.251000
10846   8   1   -43.223000   -32.224000  -8.316000
10847   8   1   -43.192000   -32.207000  -6.751000
10848   8   1   -43.234000   -30.752000  -8.858000
10849   8   1   -39.371000   -30.001000  -8.433000
10850   8   1   -39.339000   -29.981000  -6.87000
10851   8   1   -39.379000   -32.963000  -8.912000
10852   8   1   -39.323000   -32.941000  -6.301000
10853   8   1   -40.611000   -30.718000  -6.306000
10854   8   1   -40.653000   -32.223000  -8.37000
10855   8   1   -40.621000   -32.207000  -6.806000
10856   8   1   -40.664000   -30.75000  -8.916000
10857   8   1   -36.807000   -29.99000  -8.488000
10858   8   1   -36.777000   -29.972000  -6.924000
10859   8   1   -36.815000   -32.95000  -8.967000
10860   8   1   -36.76000   -32.931000  -6.355000
10861   8   1   -38.046000   -30.711000  -6.361000
10862   8   1   -38.088000   -32.214000  -8.425000
10863   8   1   -38.054000   -32.2000  -6.861000
10864   8   1   -38.1000   -30.741000  -8.972000
10865   8   1   -34.243000   -29.98000  -8.536000
10866   8   1   -34.214000   -29.963000  -6.972000
10867   8   1   -34.252000   -32.928000  -9.019000
10868   8   1   -34.2000   -32.912000  -6.407000
10869   8   1   -35.484000   -30.7000  -6.412000
10870   8   1   -35.525000   -32.198000  -8.477000
10871   8   1   -35.493000   -32.185000  -6.914000
10872   8   1   -35.536000   -30.728000  -9.024000
10873   8   1   -31.677000   -29.976000  -8.58000
10874   8   1   -31.65000   -29.957000  -7.015000
10875   8   1   -31.686000   -32.911000  -9.071000
10876   8   1   -31.64000   -32.895000  -6.451000
10877   8   1   -32.924000   -30.689000  -6.458000
10878   8   1   -32.961000   -32.182000  -8.527000
10879   8   1   -32.932000   -32.171000  -6.963000
10880   8   1   -32.97000   -30.716000  -9.071000
10881   8   1   -29.107000   -29.982000  -8.625000
10882   8   1   -29.085000   -29.964000  -7.051000
10883   8   1   -29.118000   -32.915000  -9.133000
10884   8   1   -29.076000   -32.892000  -6.472000
10885   8   1   -30.362000   -30.686000  -6.498000
10886   8   1   -30.391000   -32.179000  -8.577000
10887   8   1   -30.366000   -32.164000  -7.001000
10888   8   1   -30.403000   -30.714000  -9.116000
10889   8   1   -26.57000   -29.987000  -8.654000
10890   8   1   -26.548000   -29.967000  -7.096000
10891   8   1   -27.798000   -30.697000  -6.516000
10892   8   1   -27.854000   -32.176000  -8.607000
10893   8   1   -27.831000   -32.158000  -7.049000
10894   8   1   -27.836000   -30.729000  -9.176000
10895   8   1   -67.632000   -34.15000  -8.002000
10896   8   1   -67.613000   -34.154000  -6.444000
10897   8   1   -65.092000   -34.19000  -8.046000
10898   8   1   -65.076000   -34.2000  -6.471000
10899   8   1   -65.138000   -37.088000  -8.647000
10900   8   1   -65.129000   -37.14000  -5.986000
10901   8   1   -66.362000   -34.919000  -5.922000
10902   8   1   -66.38000   -36.346000  -8.06000
10903   8   1   -66.37000   -36.363000  -6.502000
10904   8   1   -66.39000   -34.893000  -8.583000
10905   8   1   -62.523000   -34.238000  -8.067000
10906   8   1   -62.515000   -34.251000  -6.502000
10907   8   1   -62.581000   -37.187000  -8.639000
10908   8   1   -62.582000   -37.239000  -6.025000
10909   8   1   -63.801000   -34.969000  -5.973000
10910   8   1   -63.841000   -36.415000  -8.094000
10911   8   1   -63.836000   -36.439000  -6.52000
10912   8   1   -63.819000   -34.936000  -8.591000
10913   8   1   -59.965000   -34.289000  -8.087000
10914   8   1   -59.956000   -34.299000  -6.522000
10915   8   1   -60.018000   -37.253000  -8.638000
10916   8   1   -60.021000   -37.292000  -6.031000
10917   8   1   -61.246000   -35.028000  -5.996000
10918   8   1   -61.283000   -36.49000  -8.102000
10919   8   1   -61.284000   -36.511000  -6.537000
10920   8   1   -61.259000   -35.001000  -8.606000
10921   8   1   -57.398000   -34.33000  -8.105000
10922   8   1   -57.39000   -34.333000  -6.541000
10923   8   1   -57.441000   -37.29000  -8.638000
10924   8   1   -57.438000   -37.308000  -6.032000
10925   8   1   -58.683000   -35.065000  -6.012000
10926   8   1   -58.717000   -36.54000  -8.108000
10927   8   1   -58.717000   -36.552000  -6.544000
10928   8   1   -58.694000   -35.051000  -8.621000
10929   8   1   -54.826000   -34.361000  -8.126000
10930   8   1   -54.816000   -34.357000  -6.561000
10931   8   1   -54.859000   -37.318000  -8.645000
10932   8   1   -54.848000   -37.321000  -6.037000
10933   8   1   -56.11000   -35.088000  -6.027000
10934   8   1   -56.141000   -36.569000  -8.117000
10935   8   1   -56.136000   -36.573000  -6.552000
10936   8   1   -56.125000   -35.085000  -8.636000
10937   8   1   -52.248000   -34.386000  -8.15000
10938   8   1   -52.234000   -34.378000  -6.585000
10939   8   1   -52.275000   -37.342000  -8.66000
10940   8   1   -52.254000   -37.334000  -6.051000
10941   8   1   -53.527000   -35.105000  -6.048000
10942   8   1   -53.558000   -36.592000  -8.13000
10943   8   1   -53.548000   -36.59000  -6.566000
10944   8   1   -53.549000   -35.114000  -8.657000
10945   8   1   -49.67000   -34.408000  -8.181000
10946   8   1   -49.65000   -34.396000  -6.616000
10947   8   1   -49.69000   -37.362000  -8.685000
10948   8   1   -49.66000   -37.347000  -6.075000
10949   8   1   -50.94000   -35.121000  -6.073000
10950   8   1   -50.973000   -36.614000  -8.152000
10951   8   1   -50.958000   -36.606000  -6.587000
10952   8   1   -50.97000   -35.137000  -8.682000
10953   8   1   -47.089000   -34.425000  -8.219000
10954   8   1   -47.065000   -34.411000  -6.655000
10955   8   1   -47.106000   -37.38000  -8.719000
10956   8   1   -47.066000   -37.362000  -6.11000
10957   8   1   -48.353000   -35.136000  -6.106000
10958   8   1   -48.389000   -36.633000  -8.183000
10959   8   1   -48.367000   -36.623000  -6.618000
10960   8   1   -48.391000   -35.157000  -8.715000
10961   8   1   -44.511000   -34.437000  -8.264000
10962   8   1   -44.481000   -34.423000  -6.701000
10963   8   1   -44.521000   -37.394000  -8.764000
10964   8   1   -44.472000   -37.376000  -6.155000
10965   8   1   -45.765000   -35.151000  -6.148000
10966   8   1   -45.803000   -36.648000  -8.223000
10967   8   1   -45.776000   -36.636000  -6.658000
10968   8   1   -45.811000   -35.172000  -8.757000
10969   8   1   -41.934000   -34.443000  -8.317000
10970   8   1   -41.901000   -34.43000  -6.753000
10971   8   1   -41.937000   -37.403000  -8.818000
10972   8   1   -41.879000   -37.388000  -6.21000
10973   8   1   -43.179000   -35.162000  -6.197000
10974   8   1   -43.218000   -36.659000  -8.272000
10975   8   1   -43.186000   -36.649000  -6.708000
10976   8   1   -43.233000   -35.182000  -8.806000
10977   8   1   -39.363000   -34.44000  -8.373000
10978   8   1   -39.328000   -34.429000  -6.808000
10979   8   1   -39.356000   -37.404000  -8.879000
10980   8   1   -39.289000   -37.399000  -6.272000
10981   8   1   -40.599000   -35.169000  -6.252000
10982   8   1   -40.636000   -36.664000  -8.329000
10983   8   1   -40.6000   -36.658000  -6.766000
10984   8   1   -40.657000   -35.186000  -8.861000
10985   8   1   -36.798000   -34.424000  -8.43000
10986   8   1   -36.761000   -34.418000  -6.865000
10987   8   1   -36.781000   -37.386000  -8.947000
10988   8   1   -36.709000   -37.396000  -6.339000
10989   8   1   -38.025000   -35.167000  -6.31000
10990   8   1   -38.061000   -36.658000  -8.39000
10991   8   1   -38.02000   -36.657000  -6.827000
10992   8   1   -38.088000   -35.177000  -8.918000
10993   8   1   -34.236000   -34.397000  -8.484000
10994   8   1   -34.202000   -34.394000  -6.92000
10995   8   1   -34.219000   -37.343000  -9.018000
10996   8   1   -34.148000   -37.365000  -6.4000
10997   8   1   -35.462000   -35.151000  -6.367000
10998   8   1   -35.496000   -36.632000  -8.454000
10999   8   1   -35.453000   -36.636000  -6.89000
11000   8   1   -35.523000   -35.152000  -8.978000
11001   8   1   -31.67000   -34.376000  -8.54000
11002   8   1   -31.638000   -34.369000  -6.965000
11003   8   1   -31.649000   -37.27000  -9.099000
11004   8   1   -31.585000   -37.292000  -6.432000
11005   8   1   -32.905000   -35.116000  -6.417000
11006   8   1   -32.934000   -36.585000  -8.519000
11007   8   1   -32.894000   -36.591000  -6.943000
11008   8   1   -32.962000   -35.115000  -9.036000
11009   8   1   -29.128000   -34.36000  -8.573000
11010   8   1   -29.102000   -34.349000  -7.014000
11011   8   1   -30.342000   -35.089000  -6.442000
11012   8   1   -30.391000   -36.536000  -8.559000
11013   8   1   -30.356000   -36.536000  -7.0000
11014   8   1   -30.392000   -35.094000  -9.105000
11015   8   1   -65.165000   -38.537000  -8.141000
11016   8   1   -65.171000   -38.57000  -6.588000
11017   8   1   -62.633000   -38.684000  -8.158000
11018   8   1   -62.645000   -38.72000  -6.587000
11019   8   1   -63.972000   -39.422000  -6.087000
11020   8   1   -63.952000   -39.338000  -8.726000
11021   8   1   -60.059000   -38.751000  -8.143000
11022   8   1   -60.069000   -38.779000  -6.577000
11023   8   1   -61.393000   -39.525000  -6.084000
11024   8   1   -61.372000   -39.458000  -8.694000
11025   8   1   -57.467000   -38.779000  -8.131000
11026   8   1   -57.471000   -38.793000  -6.564000
11027   8   1   -58.785000   -39.533000  -6.058000
11028   8   1   -58.775000   -39.495000  -8.67000
11029   8   1   -54.875000   -38.801000  -8.127000
11030   8   1   -54.871000   -38.805000  -6.561000
11031   8   1   -56.179000   -39.537000  -6.042000
11032   8   1   -56.18000   -39.524000  -8.657000
11033   8   1   -52.283000   -38.822000  -8.136000
11034   8   1   -52.273000   -38.819000  -6.569000
11035   8   1   -53.576000   -39.547000  -6.038000
11036   8   1   -53.588000   -39.548000  -8.655000
11037   8   1   -49.693000   -38.841000  -8.156000
11038   8   1   -49.675000   -38.833000  -6.589000
11039   8   1   -50.974000   -39.558000  -6.05000
11040   8   1   -50.998000   -39.569000  -8.667000
11041   8   1   -47.102000   -38.858000  -8.188000
11042   8   1   -47.078000   -38.849000  -6.622000
11043   8   1   -48.374000   -39.573000  -6.075000
11044   8   1   -48.408000   -39.588000  -8.692000
11045   8   1   -44.51000   -38.872000  -8.234000
11046   8   1   -44.481000   -38.862000  -6.667000
11047   8   1   -45.773000   -39.587000  -6.113000
11048   8   1   -45.818000   -39.604000  -8.731000
11049   8   1   -41.919000   -38.883000  -8.291000
11050   8   1   -41.882000   -38.877000  -6.725000
11051   8   1   -43.171000   -39.602000  -6.166000
11052   8   1   -43.226000   -39.617000  -8.782000
11053   8   1   -39.325000   -38.889000  -8.358000
11054   8   1   -39.282000   -38.889000  -6.793000
11055   8   1   -40.566000   -39.619000  -6.232000
11056   8   1   -40.633000   -39.625000  -8.846000
11057   8   1   -36.733000   -38.876000  -8.437000
11058   8   1   -36.684000   -38.886000  -6.867000
11059   8   1   -37.961000   -39.634000  -6.311000
11060   8   1   -38.037000   -39.622000  -8.923000
11061   8   1   -34.165000   -38.831000  -8.515000
11062   8   1   -34.113000   -38.85000  -6.942000
11063   8   1   -35.353000   -39.629000  -6.386000
11064   8   1   -35.439000   -39.591000  -9.022000
11065   8   1   -31.611000   -38.709000  -8.567000
11066   8   1   -31.566000   -38.726000  -7.012000
11067   8   1   -32.774000   -39.5000  -6.433000
11068   8   1   -32.861000   -39.446000  -9.128000
11069   8   3   -60.129000   -41.672000  -8.771000
11070   8   3   -60.142000   -41.733000  -6.085000
11071   8   3   -61.443000   -40.971000  -8.228000
11072   8   3   -61.459000   -41.018000  -6.651000
11073   8   3   -57.513000   -41.7000  -8.727000
11074   8   3   -57.511000   -41.727000  -6.03000
11075   8   3   -58.812000   -40.99000  -8.18000
11076   8   3   -58.816000   -41.016000  -6.598000
11077   8   3   -54.91000   -41.726000  -8.703000
11078   8   3   -54.897000   -41.733000  -6.003000
11079   8   3   -56.202000   -41.013000  -8.15000
11080   8   3   -56.199000   -41.023000  -6.568000
11081   8   3   -52.312000   -41.749000  -8.697000
11082   8   3   -52.289000   -41.743000  -5.996000
11083   8   3   -53.601000   -41.033000  -8.139000
11084   8   3   -53.592000   -41.035000  -6.555000
11085   8   3   -49.718000   -41.77000  -8.709000
11086   8   3   -49.685000   -41.755000  -6.007000
11087   8   3   -51.004000   -41.053000  -8.144000
11088   8   3   -50.989000   -41.047000  -6.561000
11089   8   3   -47.123000   -41.788000  -8.737000
11090   8   3   -47.081000   -41.769000  -6.036000
11091   8   3   -48.409000   -41.071000  -8.166000
11092   8   3   -48.387000   -41.062000  -6.583000
11093   8   3   -44.528000   -41.803000  -8.782000
11094   8   3   -44.477000   -41.785000  -6.082000
11095   8   3   -45.813000   -41.087000  -8.204000
11096   8   3   -45.786000   -41.077000  -6.621000
11097   8   3   -41.927000   -41.813000  -8.846000
11098   8   3   -41.869000   -41.801000  -6.148000
11099   8   3   -43.214000   -41.101000  -8.258000
11100   8   3   -43.182000   -41.093000  -6.675000
11101   8   3   -39.319000   -41.818000  -8.927000
11102   8   3   -39.253000   -41.821000  -6.233000
11103   8   3   -40.611000   -41.111000  -8.328000
11104   8   3   -40.574000   -41.108000  -6.747000
11105   8   3   -36.693000   -41.811000  -9.041000
11106   8   3   -36.615000   -41.844000  -6.331000
11107   8   3   -37.997000   -41.118000  -8.42000
11108   8   3   -37.953000   -41.128000  -6.833000
11109   8   3   -35.41000   -41.07000  -8.513000
11110   8   3   -35.355000   -41.099000  -6.95000
11111   8   3   -62.841000   -41.736000  -6.19000
11112   8   3   -64.057000   -40.828000  -8.28000
11113   8   3   -64.081000   -40.884000  -6.697000
11114   8   3   -62.801000   -41.628000  -8.826000
11115   8   3   -32.666000   -41.068000  -6.493000
11116   8   3   -33.976000   -41.793000  -8.608000
11117   8   3   -33.919000   -41.836000  -7.045000
11118   8   3   -32.766000   -40.994000  -9.197000
11119   8   3   -32.658000   13.402000  -6.079000
11120   8   3   -33.89000   14.32000  -8.163000
11121   8   3   -33.905000   14.239000  -6.581000
11122   8   3   -32.62000   13.555000  -8.721000
11123   8   3   -62.718000   14.48000  -5.662000
11124   8   3   -64.017000   13.775000  -7.78000
11125   8   3   -63.962000   13.702000  -6.22000
11126   8   3   -62.812000   14.603000  -8.353000
11127   8   4   -80.343000   -12.161000  -8.131000
11128   8   4   -80.331000   -12.166000  -6.221000
11129   8   4   -80.395000   -14.578000  -8.349000
11130   8   4   -80.363000   -14.589000  -6.025000
11131   8   4   -16.321000   -12.709000  -8.987000
11132   8   4   -16.319000   -12.711000  -7.084000
11133   8   4   -16.353000   -15.134000  -9.213000
11134   8   4   -16.378000   -15.145000  -6.887000
11135   8   2   -78.883000   -16.966000  -6.102000
11136   8   2   -78.912000   -16.974000  -8.281000
11137   8   4   -60.13000   -42.719000  -8.501000
11138   8   4   -60.126000   -42.768000  -6.398000
11139   8   4   -62.963000   -42.652000  -8.519000
11140   8   4   -62.994000   -42.716000  -6.621000
11141   8   4   -64.955000   -41.25000  -8.71000
11142   8   4   -65.0000   -41.353000  -6.375000
11143   8   4   -31.832000   -41.426000  -8.862000
11144   8   4   -31.772000   -41.482000  -6.94000
11145   8   4   -33.886000   -42.771000  -9.062000
11146   8   4   -33.803000   -42.856000  -6.703000
11147   8   4   -31.732000   13.994000  -8.284000
11148   8   4   -62.942000   15.576000  -7.898000
11149   8   4   -62.875000   15.504000  -5.977000
11150   8   4   -64.959000   14.203000  -8.098000
11151   8   4   -64.86000   14.084000  -5.754000
11152   8   2   -78.842000   -9.887000  -8.283000
11153   8   2   -78.825000   -9.886000  -6.179000
11154   8   2   -72.28000   0.998000  -8.366000
11155   8   2   -72.258000   0.992000  -6.249000
11156   8   2   -73.576000   -1.195000  -8.368000
11157   8   2   -73.555000   -1.196000  -6.251000
11158   8   2   -77.51000   -7.754000  -8.321000
11159   8   2   -77.491000   -7.749000  -6.205000
11160   8   2   -69.72000   5.381000  -8.327000
11161   8   2   -69.687000   5.363000  -6.209000
11162   8   2   -70.996000   3.19000  -8.351000
11163   8   2   -70.969000   3.18000  -6.235000
11164   8   2   -74.877000   -3.386000  -8.363000
11165   8   2   -74.858000   -3.382000  -6.244000
11166   8   2   -76.188000   -5.574000  -8.346000
11167   8   2   -76.168000   -5.569000  -6.229000
11168   8   2   -67.219000   9.749000  -8.223000
11169   8   2   -67.164000   9.711000  -6.109000
11170   8   2   -68.458000   7.569000  -8.284000
11171   8   2   -68.416000   7.543000  -6.168000
11172   8   2   -21.675000   -3.691000  -9.208000
11173   8   2   -21.643000   -3.696000  -7.09000
11174   8   2   -19.067000   -8.137000  -9.206000
11175   8   2   -19.044000   -8.142000  -7.091000
11176   8   2   -17.752000   -10.336000  -9.168000
11177   8   2   -17.742000   -10.342000  -7.062000
11178   8   2   -20.375000   -5.913000  -9.218000
11179   8   2   -20.346000   -5.916000  -7.099000
11180   8   2   -24.265000   0.749000  -9.135000
11181   8   2   -24.23000   0.733000  -7.017000
11182   8   2   -22.973000   -1.47000  -9.18000
11183   8   2   -22.937000   -1.479000  -7.062000
11184   8   2   -26.832000   5.172000  -8.995000
11185   8   2   -26.805000   5.141000  -6.878000
11186   8   2   -25.552000   2.961000  -9.074000
11187   8   2   -25.519000   2.941000  -6.957000
11188   8   2   -29.355000   9.563000  -8.773000
11189   8   2   -29.354000   9.509000  -6.656000
11190   8   2   -28.101000   7.373000  -8.896000
11191   8   2   -28.085000   7.333000  -6.778000
11192   8   4   -60.033000   15.599000  -8.225000
11193   8   4   -59.97000   15.533000  -6.036000
11194   8   4   -57.372000   15.548000  -8.352000
11195   8   4   -57.312000   15.502000  -6.169000
11196   8   4   -54.75000   15.507000  -8.457000
11197   8   4   -54.696000   15.473000  -6.271000
11198   8   4   -52.141000   15.473000  -8.538000
11199   8   4   -52.093000   15.446000  -6.351000
11200   8   4   -49.538000   15.444000  -8.596000
11201   8   4   -49.5000   15.42000  -6.409000
11202   8   4   -46.939000   15.419000  -8.632000
11203   8   4   -46.911000   15.393000  -6.444000
11204   8   4   -44.343000   15.4000  -8.644000
11205   8   4   -44.323000   15.367000  -6.456000
11206   8   4   -41.746000   15.384000  -8.631000
11207   8   4   -41.738000   15.341000  -6.442000
11208   8   4   -39.145000   15.372000  -8.589000
11209   8   4   -39.146000   15.311000  -6.403000
11210   8   4   -36.56000   15.366000  -8.518000
11211   8   4   -36.568000   15.28000  -6.336000
11212   8   2   -77.571000   -19.183000  -8.281000
11213   8   2   -77.545000   -19.169000  -6.096000
11214   8   2   -72.349000   -28.049000  -8.246000
11215   8   2   -72.316000   -28.031000  -6.052000
11216   8   2   -73.608000   -25.818000  -6.06000
11217   8   2   -73.638000   -25.839000  -8.252000
11218   8   2   -74.938000   -23.625000  -8.263000
11219   8   2   -74.908000   -23.605000  -6.073000
11220   8   2   -76.222000   -21.389000  -6.086000
11221   8   2   -76.248000   -21.406000  -8.275000
11222   8   2   -69.796000   -32.46000  -8.269000
11223   8   2   -69.765000   -32.454000  -6.075000
11224   8   2   -71.033000   -30.242000  -6.056000
11225   8   2   -71.068000   -30.257000  -8.249000
11226   8   2   -19.164000   -19.554000  -9.183000
11227   8   2   -19.149000   -19.541000  -6.992000
11228   8   2   -17.842000   -17.406000  -6.992000
11229   8   2   -17.841000   -17.409000  -9.18000
11230   8   2   -26.966000   -32.703000  -8.931000
11231   8   2   -26.932000   -32.674000  -6.737000
11232   8   2   -23.067000   -26.104000  -6.889000
11233   8   2   -23.097000   -26.133000  -9.082000
11234   8   2   -21.794000   -23.939000  -9.13000
11235   8   2   -21.768000   -23.915000  -6.937000
11236   8   2   -20.461000   -21.727000  -6.973000
11237   8   2   -20.482000   -21.744000  -9.164000
11238   8   2   -25.65000   -30.483000  -6.782000
11239   8   2   -25.682000   -30.515000  -8.977000
11240   8   2   -24.394000   -28.326000  -9.03000
11241   8   2   -24.363000   -28.294000  -6.834000
11242   8   2   -66.11000   -38.948000  -8.47000
11243   8   2   -67.285000   -36.846000  -8.378000
11244   8   2   -67.271000   -36.867000  -6.182000
11245   8   2   -68.507000   -34.665000  -6.114000
11246   8   2   -68.535000   -34.66000  -8.31000
11247   8   2   -66.112000   -39.001000  -6.273000
11248   8   2   -30.624000   -39.165000  -6.71000
11249   8   2   -30.681000   -39.13000  -8.926000
11250   8   2   -29.498000   -37.046000  -8.897000
11251   8   2   -29.448000   -37.042000  -6.699000
11252   8   2   -28.2000   -34.862000  -6.706000
11253   8   2   -28.239000   -34.883000  -8.902000
11254   8   4   -57.527000   -42.744000  -8.446000
11255   8   4   -57.509000   -42.766000  -6.33000
11256   8   4   -54.919000   -42.768000  -8.412000
11257   8   4   -54.898000   -42.775000  -6.294000
11258   8   4   -52.319000   -42.789000  -8.402000
11259   8   4   -52.296000   -42.786000  -6.282000
11260   8   4   -49.722000   -42.809000  -8.41000
11261   8   4   -49.692000   -42.799000  -6.292000
11262   8   4   -47.124000   -42.827000  -8.437000
11263   8   4   -47.092000   -42.813000  -6.318000
11264   8   4   -44.525000   -42.843000  -8.484000
11265   8   4   -44.488000   -42.829000  -6.365000
11266   8   4   -41.921000   -42.853000  -8.549000
11267   8   4   -41.881000   -42.845000  -6.431000
11268   8   4   -39.309000   -42.86000  -8.636000
11269   8   4   -39.269000   -42.863000  -6.522000
11270   8   4   -36.677000   -42.853000  -8.751000
11271   8   4   -36.63000   -42.881000  -6.639000
11272   8   2   -30.538000   11.688000  -8.62000
11273   8   2   -30.555000   11.598000  -6.517000
11274   8   2   -66.061000   11.868000  -8.145000
11275   8   2   -65.984000   11.802000  -6.028000
11276   8   4   -33.76000   15.354000  -8.455000
11277   8   4   -33.793000   15.21000  -6.116000
11278   8   4   -31.744000   13.893000  -6.387000
11279   8   4   -60.146000   -41.744000  -5.003000
11280   8   2   -25.113000   -17.465000  -5.676000
11281   8   4   -57.512000   -41.721000  -4.948000
11282   8   2   -70.198000   -19.392000  -4.884000
11283   8   2   -71.514000   -17.174000  -4.888000
11284   8   4   -54.894000   -41.716000  -4.922000
11285   8   4   -52.282000   -41.72000  -4.915000
11286   8   2   -67.614000   -19.41000  -4.915000
11287   8   2   -68.921000   -17.194000  -4.916000
11288   8   4   -47.065000   -41.742000  -4.955000
11289   8   4   -44.456000   -41.758000  -5.001000
11290   8   2   -62.446000   -19.455000  -4.995000
11291   8   2   -63.67000   9.202000  -4.847000
11292   8   4   -39.226000   -41.804000  -5.152000
11293   8   2   -66.345000   -34.927000  -4.841000
11294   8   4   -36.585000   -41.841000  -5.25000
11295   8   2   -32.869000   -21.831000  -5.555000
11296   8   2   -66.33000   -17.215000  -4.947000
11297   8   2   -31.493000   -10.815000  -5.61000
11298   8   2   -32.773000   -8.596000  -5.577000
11299   8   2   -22.543000   -17.49000  -5.69000
11300   8   2   -28.92000   -10.832000  -5.65000
11301   8   2   -30.202000   -8.616000  -5.622000
11302   8   2   -26.344000   -10.845000  -5.687000
11303   8   2   -27.629000   -8.631000  -5.668000
11304   8   2   -43.075000   9.157000  -5.28000
11305   8   2   -23.767000   -10.86000  -5.715000
11306   8   2   -25.06000   -8.643000  -5.705000
11307   8   2   -48.336000   -35.126000  -5.025000
11308   8   2   -47.049000   -37.348000  -5.029000
11309   8   2   -61.11000   9.262000  -4.913000
11310   8   4   -32.626000   -41.096000  -5.412000
11311   8   2   -21.191000   -10.876000  -5.724000
11312   8   2   -22.491000   -8.653000  -5.729000
11313   8   2   -36.745000   -28.47000  -5.349000
11314   8   2   -30.302000   -21.84000  -5.578000
11315   8   2   -18.634000   -10.895000  -5.683000
11316   8   2   -19.945000   -8.669000  -5.704000
11317   8   2   -75.25000   -6.112000  -4.859000
11318   8   2   -72.709000   -6.139000  -4.923000
11319   8   2   -73.939000   -3.924000  -4.874000
11320   8   4   -49.673000   -41.73000  -4.926000
11321   8   4   -32.677000   13.334000  -5.0000
11322   8   2   -70.143000   -6.165000  -4.949000
11323   8   2   -71.398000   -3.946000  -4.936000
11324   8   2   -52.245000   -37.324000  -4.969000
11325   8   2   -31.567000   -19.629000  -5.599000
11326   8   2   -67.574000   -6.182000  -4.967000
11327   8   2   -68.835000   -3.969000  -4.96000
11328   8   2   -28.998000   -19.642000  -5.621000
11329   8   2   -65.002000   -6.192000  -4.982000
11330   8   2   -66.268000   -3.981000  -4.979000
11331   8   2   -44.451000   -37.362000  -5.074000
11332   8   2   -58.547000   9.288000  -4.981000
11333   8   2   -26.428000   -19.661000  -5.644000
11334   8   2   -62.429000   -6.197000  -4.997000
11335   8   2   -63.698000   -3.986000  -4.994000
11336   8   2   -45.746000   -35.138000  -5.067000
11337   8   2   -62.444000   -28.319000  -4.902000
11338   8   2   -65.029000   -19.431000  -4.95000
11339   8   2   -27.736000   -21.855000  -5.605000
11340   8   2   -23.861000   -19.686000  -5.665000
11341   8   2   -59.853000   -6.203000  -5.023000
11342   8   2   -61.125000   -3.989000  -5.017000
11343   8   2   -21.298000   -19.723000  -5.663000
11344   8   2   -58.552000   -3.993000  -5.052000
11345   8   2   -72.73000   -23.817000  -4.781000
11346   8   2   -19.98000   -17.534000  -5.679000
11347   8   2   -70.159000   -23.818000  -4.834000
11348   8   2   -71.465000   -21.598000  -4.843000
11349   8   4   -41.843000   -41.777000  -5.067000
11350   8   2   -67.587000   -23.832000  -4.871000
11351   8   2   -43.158000   -35.15000  -5.116000
11352   8   2   -25.171000   -21.878000  -5.629000
11353   8   2   -63.742000   -17.236000  -4.983000
11354   8   2   -66.311000   -21.63000  -4.912000
11355   8   2   -61.153000   -21.679000  -4.999000
11356   8   2   -34.06000   -6.379000  -5.542000
11357   8   2   -35.351000   -4.161000  -5.513000
11358   8   2   -32.806000   8.97000  -5.3000
11359   8   2   -31.487000   -6.4000  -5.59000
11360   8   2   -32.78000   -4.183000  -5.556000
11361   8   2   -39.263000   -37.392000  -5.191000
11362   8   2   -53.387000   9.267000  -5.116000
11363   8   2   -28.918000   -6.417000  -5.641000
11364   8   2   -30.209000   -4.203000  -5.607000
11365   8   2   -40.575000   -35.16000  -5.171000
11366   8   2   -29.064000   -28.466000  -5.472000
11367   8   2   -26.35000   -6.428000  -5.685000
11368   8   2   -27.64000   -4.215000  -5.657000
11369   8   2   -23.784000   -6.434000  -5.72000
11370   8   2   -25.077000   -4.22000  -5.698000
11371   8   2   -21.242000   -6.446000  -5.71000
11372   8   2   -22.535000   -4.229000  -5.698000
11373   8   2   -68.89000   -21.611000  -4.878000
11374   8   2   -72.635000   -1.736000  -4.881000
11375   8   2   -41.855000   -37.376000  -5.129000
11376   8   2   -70.096000   -1.755000  -4.942000
11377   8   2   -71.337000   0.449000  -4.88000
11378   8   2   -67.531000   -1.773000  -4.967000
11379   8   2   -68.798000   0.435000  -4.941000
11380   8   2   -36.683000   -37.396000  -5.258000
11381   8   2   -50.807000   9.242000  -5.173000
11382   8   2   -64.966000   -1.78000  -4.988000
11383   8   2   -66.234000   0.424000  -4.969000
11384   8   2   -38.001000   -35.162000  -5.229000
11385   8   2   -26.502000   -28.484000  -5.488000
11386   8   2   -31.603000   -24.042000  -5.525000
11387   8   2   -62.395000   -1.78000  -5.011000
11388   8   2   -63.666000   0.423000  -4.996000
11389   8   2   -71.429000   -26.034000  -4.772000
11390   8   2   -29.037000   -24.052000  -5.554000
11391   8   2   -59.825000   -1.779000  -5.04000
11392   8   2   -61.096000   0.428000  -5.027000
11393   8   2   -65.014000   -23.854000  -4.908000
11394   8   2   -26.474000   -24.07000  -5.582000
11395   8   2   -57.25000   -1.781000  -5.085000
11396   8   2   -58.526000   0.43000  -5.067000
11397   8   2   -23.912000   -24.101000  -5.593000
11398   8   2   -55.955000   0.427000  -5.119000
11399   8   2   -22.607000   -21.912000  -5.634000
11400   8   2   -53.38000   0.41000  -5.18000
11401   8   2   -34.183000   -28.462000  -5.395000
11402   8   2   -48.227000   9.216000  -5.221000
11403   8   2   -50.807000   0.394000  -5.249000
11404   8   2   -25.209000   -26.291000  -5.541000
11405   8   2   -27.788000   -30.68000  -5.435000
11406   8   2   -48.234000   0.377000  -5.313000
11407   8   2   -68.862000   -26.039000  -4.828000
11408   8   2   -45.661000   0.355000  -5.364000
11409   8   2   -50.927000   -35.112000  -4.992000
11410   8   2   -62.439000   -23.88000  -4.949000
11411   8   2   -43.089000   0.328000  -5.4000
11412   8   2   -63.731000   -21.654000  -4.951000
11413   8   2   -40.517000   0.299000  -5.426000
11414   8   2   -36.646000   -1.942000  -5.485000
11415   8   2   -37.943000   0.274000  -5.456000
11416   8   2   -45.65000   9.188000  -5.256000
11417   8   2   -34.075000   -1.969000  -5.522000
11418   8   2   -35.371000   0.244000  -5.488000
11419   8   2   -32.888000   -35.114000  -5.336000
11420   8   2   -59.879000   -28.351000  -4.938000
11421   8   2   -70.14000   -28.254000  -4.77000
11422   8   2   -31.502000   -1.99000  -5.57000
11423   8   2   -32.797000   0.218000  -5.528000
11424   8   2   -66.293000   -26.058000  -4.867000
11425   8   2   -68.859000   -30.475000  -4.777000
11426   8   2   -28.933000   -2.006000  -5.619000
11427   8   2   -30.227000   0.2000  -5.574000
11428   8   2   -59.866000   -23.908000  -4.996000
11429   8   2   -26.367000   -2.01000  -5.664000
11430   8   2   -27.659000   0.193000  -5.618000
11431   8   2   -23.825000   -2.019000  -5.671000
11432   8   2   -25.117000   0.188000  -5.628000
11433   8   2   -70.044000   2.634000  -4.869000
11434   8   2   -67.504000   2.624000  -4.933000
11435   8   2   -68.76000   4.812000  -4.847000
11436   8   2   -74.04000   -21.599000  -4.792000
11437   8   2   -64.938000   2.62000  -4.966000
11438   8   2   -66.216000   4.811000  -4.915000
11439   8   2   -30.257000   8.934000  -5.287000
11440   8   2   -62.371000   2.629000  -5.002000
11441   8   2   -63.65000   4.821000  -4.957000
11442   8   2   -44.451000   -32.925000  -5.113000
11443   8   2   -63.725000   -26.083000  -4.904000
11444   8   2   -59.803000   2.638000  -5.042000
11445   8   2   -61.084000   4.839000  -5.002000
11446   8   2   -35.458000   -26.248000  -5.425000
11447   8   2   -61.394000   -39.55000  -5.003000
11448   8   2   -57.235000   2.64000  -5.09000
11449   8   2   -58.52000   4.853000  -5.051000
11450   8   2   -32.896000   -26.248000  -5.462000
11451   8   2   -54.665000   2.633000  -5.146000
11452   8   2   -55.951000   4.85000  -5.106000
11453   8   2   -30.335000   -26.254000  -5.497000
11454   8   2   -52.092000   2.616000  -5.206000
11455   8   2   -53.38000   4.839000  -5.164000
11456   8   2   -27.773000   -26.266000  -5.528000
11457   8   2   -39.228000   6.9000  -5.347000
11458   8   2   -49.52000   2.596000  -5.265000
11459   8   2   -50.808000   4.819000  -5.22000
11460   8   2   -46.948000   2.573000  -5.317000
11461   8   2   -48.233000   4.796000  -5.272000
11462   8   2   -67.595000   -32.7000  -4.8000
11463   8   2   -61.156000   -26.113000  -4.943000
11464   8   2   -44.376000   2.548000  -5.36000
11465   8   2   -45.662000   4.769000  -5.315000
11466   8   2   -65.032000   -32.732000  -4.856000
11467   8   2   -66.296000   -30.495000  -4.836000
11468   8   2   -41.805000   2.52000  -5.392000
11469   8   2   -43.089000   4.741000  -5.35000
11470   8   2   -62.477000   -32.777000  -4.889000
11471   8   2   -63.736000   -30.527000  -4.873000
11472   8   2   -39.235000   2.491000  -5.42000
11473   8   2   -40.519000   4.711000  -5.378000
11474   8   2   -59.92000   -32.817000  -4.914000
11475   8   2   -61.175000   -30.565000  -4.905000
11476   8   2   -36.663000   2.459000  -5.448000
11477   8   2   -37.951000   4.675000  -5.401000
11478   8   2   -57.355000   -32.844000  -4.938000
11479   8   2   -58.613000   -30.596000  -4.936000
11480   8   2   -55.968000   9.284000  -5.05000
11481   8   2   -34.092000   2.427000  -5.481000
11482   8   2   -35.383000   4.639000  -5.426000
11483   8   2   -54.781000   -32.866000  -4.963000
11484   8   2   -56.047000   -30.625000  -4.965000
11485   8   2   -31.52000   2.403000  -5.52000
11486   8   2   -32.812000   4.605000  -5.455000
11487   8   2   -52.202000   -32.885000  -4.992000
11488   8   2   -53.475000   -30.649000  -4.998000
11489   8   2   -58.585000   -26.142000  -4.987000
11490   8   2   -28.95000   2.393000  -5.56000
11491   8   2   -30.239000   4.586000  -5.488000
11492   8   2   -49.619000   -32.9000  -5.026000
11493   8   2   -50.896000   -30.669000  -5.032000
11494   8   2   -26.406000   2.389000  -5.57000
11495   8   2   -27.693000   4.581000  -5.494000
11496   8   2   -47.034000   -32.914000  -5.066000
11497   8   2   -48.315000   -30.686000  -5.071000
11498   8   4   -62.849000   -41.78000  -5.109000
11499   8   2   -67.482000   6.986000  -4.812000
11500   8   2   -64.936000   7.0000  -4.887000
11501   8   2   -66.219000   9.154000  -4.762000
11502   8   2   -45.736000   -30.699000  -5.117000
11503   8   2   -62.369000   7.031000  -4.939000
11504   8   2   -78.087000   -14.919000  -4.815000
11505   8   4   -79.408000   -12.649000  -4.797000
11506   8   2   -41.871000   -32.93000  -5.165000
11507   8   2   -43.16000   -30.705000  -5.17000
11508   8   2   -31.623000   -28.461000  -5.436000
11509   8   2   -59.809000   7.06000  -4.994000
11510   8   2   -75.447000   -14.932000  -4.859000
11511   8   2   -76.755000   -12.709000  -4.853000
11512   8   2   -39.3000   -32.931000  -5.22000
11513   8   2   -40.59000   -30.704000  -5.225000
11514   8   2   -57.243000   7.07000  -5.054000
11515   8   2   -72.83000   -14.957000  -4.89000
11516   8   2   -74.126000   -12.743000  -4.888000
11517   8   2   -36.737000   -32.924000  -5.274000
11518   8   2   -38.025000   -30.7000  -5.28000
11519   8   2   -54.671000   7.061000  -5.114000
11520   8   2   -70.226000   -14.979000  -4.917000
11521   8   2   -71.52000   -12.768000  -4.915000
11522   8   2   -34.181000   -32.906000  -5.326000
11523   8   2   -35.465000   -30.689000  -5.331000
11524   8   2   -52.097000   7.043000  -5.173000
11525   8   2   -67.63000   -15.001000  -4.942000
11526   8   2   -68.923000   -12.79000  -4.94000
11527   8   2   -31.626000   -32.885000  -5.37000
11528   8   2   -32.907000   -30.678000  -5.377000
11529   8   2   -49.519000   7.017000  -5.225000
11530   8   2   -65.039000   -15.021000  -4.971000
11531   8   2   -66.333000   -12.807000  -4.962000
11532   8   2   -29.063000   -32.88000  -5.391000
11533   8   2   -30.349000   -30.672000  -5.417000
11534   8   2   -63.787000   -34.983000  -4.892000
11535   8   2   -46.944000   6.992000  -5.269000
11536   8   2   -63.747000   -12.825000  -4.986000
11537   8   2   -44.37000   6.963000  -5.304000
11538   8   2   -62.575000   -37.262000  -4.944000
11539   8   2   -57.314000   -28.382000  -4.976000
11540   8   2   -41.799000   6.934000  -5.329000
11541   8   2   -40.501000   9.125000  -5.292000
11542   8   2   -36.662000   6.859000  -5.363000
11543   8   2   -37.929000   9.085000  -5.295000
11544   8   2   -49.647000   -37.334000  -4.994000
11545   8   2   -34.097000   6.812000  -5.38000
11546   8   2   -35.366000   9.034000  -5.297000
11547   8   2   -65.119000   -37.163000  -4.905000
11548   8   2   -28.977000   6.764000  -5.4000
11549   8   2   -31.527000   6.777000  -5.402000
11550   8   2   -53.515000   -35.099000  -4.966000
11551   8   4   -61.214000   13.709000  -4.711000
11552   8   2   -60.016000   -37.304000  -4.949000
11553   8   2   -64.989000   11.322000  -4.676000
11554   8   2   -61.237000   -35.04000  -4.915000
11555   8   2   -58.676000   -35.07000  -4.93000
11556   8   2   -59.877000   11.505000  -4.878000
11557   8   2   -54.841000   -37.315000  -4.955000
11558   8   4   -58.603000   13.739000  -4.84000
11559   8   2   -62.448000   11.457000  -4.779000
11560   8   4   -55.983000   13.715000  -4.941000
11561   8   4   -62.666000   14.431000  -4.583000
11562   8   2   -28.951000   -15.239000  -5.652000
11563   8   2   -30.218000   -13.028000  -5.637000
11564   8   2   -52.094000   11.466000  -5.112000
11565   8   4   -53.379000   13.693000  -5.024000
11566   8   2   -26.372000   -15.252000  -5.678000
11567   8   2   -27.642000   -13.043000  -5.669000
11568   8   2   -49.51000   11.438000  -5.166000
11569   8   4   -50.788000   13.667000  -5.089000
11570   8   2   -23.792000   -15.271000  -5.698000
11571   8   2   -25.062000   -13.058000  -5.697000
11572   8   2   -46.928000   11.411000  -5.205000
11573   8   4   -48.202000   13.64000  -5.136000
11574   8   2   -65.009000   -28.289000  -4.867000
11575   8   2   -21.205000   -15.295000  -5.705000
11576   8   2   -22.476000   -13.076000  -5.714000
11577   8   2   -44.348000   11.381000  -5.228000
11578   8   4   -45.621000   13.612000  -5.162000
11579   8   2   -18.608000   -15.353000  -5.683000
11580   8   2   -19.875000   -13.101000  -5.71000
11581   8   2   -41.773000   11.35000  -5.236000
11582   8   4   -43.041000   13.58000  -5.169000
11583   8   2   -30.261000   -17.434000  -5.629000
11584   8   4   -17.258000   -13.151000  -5.659000
11585   8   2   -39.194000   11.313000  -5.228000
11586   8   4   -40.459000   13.545000  -5.154000
11587   8   2   -57.433000   -37.312000  -4.95000
11588   8   2   -34.125000   -37.373000  -5.319000
11589   8   2   -35.439000   -35.149000  -5.286000
11590   8   2   -36.615000   11.271000  -5.21000
11591   8   4   -37.873000   13.503000  -5.119000
11592   8   2   -77.936000   -10.471000  -4.809000
11593   8   2   -31.565000   -37.299000  -5.351000
11594   8   2   -34.047000   11.202000  -5.187000
11595   8   4   -35.272000   13.46000  -5.065000
11596   8   2   -75.374000   -10.524000  -4.88000
11597   8   2   -76.576000   -8.296000  -4.836000
11598   8   2   -31.51000   11.089000  -5.154000
11599   8   2   -30.326000   -35.084000  -5.361000
11600   8   2   -72.787000   -10.554000  -4.913000
11601   8   2   -74.031000   -8.333000  -4.904000
11602   8   2   -67.574000   -28.266000  -4.828000
11603   8   2   -56.1000   -35.086000  -4.945000
11604   8   2   -63.973000   -39.461000  -5.006000
11605   8   2   -75.364000   -19.377000  -4.802000
11606   8   2   -70.2000   -10.577000  -4.937000
11607   8   2   -71.46000   -8.361000  -4.933000
11608   8   2   -57.279000   11.508000  -4.965000
11609   8   2   -76.701000   -17.15000  -4.808000
11610   8   2   -58.786000   -39.537000  -4.976000
11611   8   2   -67.616000   -10.595000  -4.957000
11612   8   2   -68.884000   -8.38000  -4.954000
11613   8   2   -56.177000   -39.53000  -4.96000
11614   8   2   -53.57000   -39.533000  -4.957000
11615   8   2   -27.686000   -17.448000  -5.653000
11616   8   2   -65.032000   -10.609000  -4.975000
11617   8   2   -66.307000   -8.394000  -4.97000
11618   8   2   -50.964000   -39.54000  -4.969000
11619   8   2   -48.358000   -39.552000  -4.994000
11620   8   2   -62.451000   -10.621000  -4.997000
11621   8   2   -63.73000   -8.405000  -4.985000
11622   8   2   -45.754000   -39.564000  -5.032000
11623   8   2   -43.147000   -39.582000  -5.085000
11624   8   2   -61.153000   -8.412000  -5.007000
11625   8   2   -40.54000   -39.602000  -5.151000
11626   8   2   -37.933000   -39.625000  -5.23000
11627   8   2   -35.325000   -39.64000  -5.305000
11628   8   2   -34.167000   -24.037000  -5.495000
11629   8   2   -32.743000   -39.523000  -5.352000
11630   8   2   -54.684000   11.49000  -5.045000
11631   8   2   -72.781000   -19.377000  -4.851000
11632   8   2   -74.108000   -17.155000  -4.856000
11633   8   2   -78.152000   -14.933000  -9.608000
11634   8   4   -79.464000   -12.646000  -9.593000
11635   8   2   -75.504000   -14.96000  -9.629000
11636   8   2   -76.811000   -12.729000  -9.624000
11637   8   2   -72.885000   -14.987000  -9.659000
11638   8   2   -74.18000   -12.768000  -9.657000
11639   8   2   -70.28000   -15.007000  -9.69000
11640   8   2   -71.57000   -12.792000  -9.687000
11641   8   2   -67.687000   -15.024000  -9.717000
11642   8   2   -68.975000   -12.809000  -9.714000
11643   8   2   -65.1000   -15.039000  -9.745000
11644   8   2   -66.387000   -12.821000  -9.737000
11645   8   2   -63.808000   -12.833000  -9.754000
11646   8   2   -29.009000   -15.257000  -10.425000
11647   8   2   -30.285000   -13.035000  -10.403000
11648   8   2   -26.419000   -15.274000  -10.452000
11649   8   2   -27.699000   -13.054000  -10.444000
11650   8   2   -23.821000   -15.292000  -10.471000
11651   8   2   -25.105000   -13.073000  -10.471000
11652   8   2   -21.212000   -15.313000  -10.48000
11653   8   2   -22.498000   -13.096000  -10.485000
11654   8   2   -18.584000   -15.36000  -10.481000
11655   8   2   -19.87000   -13.116000  -10.484000
11656   8   4   -17.225000   -13.143000  -10.46000
11657   8   2   -77.984000   -10.485000  -9.664000
11658   8   2   -75.422000   -10.544000  -9.66000
11659   8   2   -76.621000   -8.315000  -9.701000
11660   8   2   -72.835000   -10.574000  -9.685000
11661   8   2   -74.076000   -8.348000  -9.688000
11662   8   2   -70.247000   -10.594000  -9.711000
11663   8   2   -71.504000   -8.374000  -9.709000
11664   8   2   -67.662000   -10.606000  -9.733000
11665   8   2   -68.929000   -8.391000  -9.73000
11666   8   2   -65.085000   -10.617000  -9.749000
11667   8   2   -66.354000   -8.402000  -9.747000
11668   8   2   -62.516000   -10.623000  -9.755000
11669   8   2   -63.785000   -8.409000  -9.758000
11670   8   2   -61.223000   -8.411000  -9.757000
11671   8   2   -31.565000   -10.808000  -10.368000
11672   8   2   -32.847000   -8.581000  -10.327000
11673   8   2   -28.987000   -10.831000  -10.423000
11674   8   2   -30.278000   -8.607000  -10.394000
11675   8   2   -26.402000   -10.853000  -10.461000
11676   8   2   -27.701000   -8.628000  -10.442000
11677   8   2   -23.811000   -10.874000  -10.488000
11678   8   2   -25.12000   -8.649000  -10.48000
11679   8   2   -21.217000   -10.895000  -10.503000
11680   8   2   -22.542000   -8.666000  -10.511000
11681   8   2   -18.646000   -10.906000  -10.537000
11682   8   2   -19.989000   -8.684000  -10.569000
11683   8   2   -75.293000   -6.124000  -9.728000
11684   8   2   -72.751000   -6.148000  -9.709000
11685   8   2   -73.979000   -3.929000  -9.744000
11686   8   2   -70.186000   -6.17000  -9.726000
11687   8   2   -71.44000   -3.946000  -9.723000
11688   8   2   -67.619000   -6.185000  -9.744000
11689   8   2   -68.877000   -3.964000  -9.737000
11690   8   2   -65.05000   -6.194000  -9.758000
11691   8   2   -66.315000   -3.976000  -9.755000
11692   8   2   -62.487000   -6.198000  -9.769000
11693   8   2   -63.753000   -3.982000  -9.772000
11694   8   2   -59.929000   -6.201000  -9.774000
11695   8   2   -61.191000   -3.986000  -9.789000
11696   8   2   -58.637000   -3.989000  -9.801000
11697   8   2   -34.135000   -6.358000  -10.293000
11698   8   2   -35.423000   -4.133000  -10.263000
11699   8   2   -31.569000   -6.382000  -10.36000
11700   8   2   -32.859000   -4.157000  -10.327000
11701   8   2   -28.997000   -6.403000  -10.415000
11702   8   2   -30.292000   -4.178000  -10.382000
11703   8   2   -26.425000   -6.421000  -10.461000
11704   8   2   -27.724000   -4.194000  -10.433000
11705   8   2   -23.853000   -6.436000  -10.504000
11706   8   2   -25.157000   -4.208000  -10.483000
11707   8   2   -21.306000   -6.454000  -10.576000
11708   8   2   -22.614000   -4.225000  -10.566000
11709   8   2   -72.675000   -1.732000  -9.751000
11710   8   2   -70.137000   -1.743000  -9.728000
11711   8   2   -71.381000   0.467000  -9.751000
11712   8   2   -67.578000   -1.756000  -9.744000
11713   8   2   -68.843000   0.463000  -9.729000
11714   8   2   -65.018000   -1.764000  -9.765000
11715   8   2   -66.286000   0.455000  -9.747000
11716   8   2   -62.458000   -1.768000  -9.787000
11717   8   2   -63.728000   0.452000  -9.773000
11718   8   2   -59.899000   -1.771000  -9.813000
11719   8   2   -61.171000   0.452000  -9.804000
11720   8   2   -57.342000   -1.774000  -9.842000
11721   8   2   -58.612000   0.45000  -9.84000
11722   8   2   -56.049000   0.442000  -9.886000
11723   8   2   -53.48000   0.423000  -9.946000
11724   8   2   -50.905000   0.408000  -10.009000
11725   8   2   -48.324000   0.394000  -10.068000
11726   8   2   -45.742000   0.375000  -10.118000
11727   8   2   -43.16000   0.355000  -10.16000
11728   8   2   -40.582000   0.335000  -10.193000
11729   8   2   -36.716000   -1.907000  -10.242000
11730   8   2   -38.007000   0.32000  -10.223000
11731   8   2   -34.15000   -1.93000  -10.294000
11732   8   2   -35.439000   0.298000  -10.262000
11733   8   2   -31.584000   -1.951000  -10.346000
11734   8   2   -32.874000   0.277000  -10.304000
11735   8   2   -29.019000   -1.969000  -10.395000
11736   8   2   -30.31000   0.258000  -10.351000
11737   8   2   -26.455000   -1.98000  -10.449000
11738   8   2   -27.748000   0.245000  -10.404000
11739   8   2   -23.914000   -1.998000  -10.539000
11740   8   2   -25.208000   0.228000  -10.496000
11741   8   2   -70.095000   2.667000  -9.741000
11742   8   2   -67.557000   2.67000  -9.721000
11743   8   2   -68.819000   4.868000  -9.718000
11744   8   2   -65.002000   2.671000  -9.744000
11745   8   2   -66.283000   4.882000  -9.703000
11746   8   2   -62.447000   2.675000  -9.777000
11747   8   2   -63.728000   4.895000  -9.733000
11748   8   2   -59.89000   2.678000  -9.818000
11749   8   2   -61.174000   4.907000  -9.775000
11750   8   2   -57.329000   2.674000  -9.864000
11751   8   2   -58.618000   4.91000  -9.824000
11752   8   2   -54.763000   2.661000  -9.918000
11753   8   2   -56.054000   4.9000  -9.879000
11754   8   2   -52.191000   2.642000  -9.977000
11755   8   2   -53.479000   4.881000  -9.937000
11756   8   2   -49.612000   2.626000  -10.033000
11757   8   2   -50.901000   4.859000  -9.993000
11758   8   2   -47.029000   2.608000  -10.085000
11759   8   2   -48.316000   4.839000  -10.045000
11760   8   2   -44.447000   2.589000  -10.128000
11761   8   2   -45.73000   4.821000  -10.089000
11762   8   2   -41.865000   2.569000  -10.163000
11763   8   2   -43.145000   4.803000  -10.123000
11764   8   2   -39.291000   2.551000  -10.193000
11765   8   2   -40.566000   4.785000  -10.151000
11766   8   2   -36.721000   2.529000  -10.223000
11767   8   2   -37.993000   4.767000  -10.175000
11768   8   2   -34.157000   2.507000  -10.257000
11769   8   2   -35.429000   4.742000  -10.201000
11770   8   2   -31.594000   2.486000  -10.296000
11771   8   2   -32.87000   4.716000  -10.232000
11772   8   2   -29.034000   2.469000  -10.346000
11773   8   2   -30.312000   4.693000  -10.275000
11774   8   2   -26.496000   2.449000  -10.439000
11775   8   2   -27.774000   4.669000  -10.364000
11776   8   2   -67.558000   7.07000  -9.684000
11777   8   2   -65.021000   7.102000  -9.674000
11778   8   2   -66.321000   9.273000  -9.631000
11779   8   2   -62.471000   7.132000  -9.712000
11780   8   2   -63.784000   9.339000  -9.631000
11781   8   2   -59.92000   7.149000  -9.765000
11782   8   2   -61.237000   9.388000  -9.681000
11783   8   2   -57.356000   7.143000  -9.825000
11784   8   2   -58.675000   9.391000  -9.749000
11785   8   2   -54.778000   7.121000  -9.886000
11786   8   2   -56.091000   9.365000  -9.819000
11787   8   2   -52.195000   7.096000  -9.944000
11788   8   2   -53.496000   9.333000  -9.886000
11789   8   2   -49.605000   7.072000  -9.998000
11790   8   2   -50.898000   9.303000  -9.944000
11791   8   2   -47.014000   7.05000  -10.042000
11792   8   2   -48.3000   9.278000  -9.993000
11793   8   2   -44.423000   7.033000  -10.078000
11794   8   2   -45.702000   9.259000  -10.028000
11795   8   2   -41.836000   7.018000  -10.103000
11796   8   2   -43.108000   9.245000  -10.051000
11797   8   2   -39.257000   7.003000  -10.121000
11798   8   2   -40.516000   9.234000  -10.063000
11799   8   2   -36.688000   6.985000  -10.136000
11800   8   2   -37.933000   9.226000  -10.067000
11801   8   2   -34.132000   6.954000  -10.155000
11802   8   2   -35.368000   9.207000  -10.069000
11803   8   2   -31.578000   6.919000  -10.189000
11804   8   2   -32.822000   9.156000  -10.085000
11805   8   2   -29.041000   6.885000  -10.271000
11806   8   2   -30.291000   9.096000  -10.158000
11807   8   2   -65.133000   11.491000  -9.568000
11808   8   2   -62.603000   11.629000  -9.578000
11809   8   2   -60.026000   11.644000  -9.649000
11810   8   4   -61.387000   13.895000  -9.541000
11811   8   2   -57.418000   11.612000  -9.737000
11812   8   4   -58.754000   13.869000  -9.648000
11813   8   2   -54.807000   11.57000  -9.817000
11814   8   4   -56.117000   13.81000  -9.753000
11815   8   2   -52.198000   11.533000  -9.886000
11816   8   4   -53.495000   13.767000  -9.838000
11817   8   2   -49.591000   11.503000  -9.941000
11818   8   4   -50.882000   13.733000  -9.905000
11819   8   2   -46.987000   11.48000  -9.98000
11820   8   4   -48.273000   13.706000  -9.952000
11821   8   2   -44.384000   11.464000  -10.004000
11822   8   4   -45.668000   13.686000  -9.979000
11823   8   2   -41.782000   11.455000  -10.011000
11824   8   4   -43.062000   13.674000  -9.986000
11825   8   2   -39.183000   11.452000  -10.003000
11826   8   4   -40.457000   13.669000  -9.97000
11827   8   2   -36.587000   11.455000  -9.981000
11828   8   4   -37.844000   13.673000  -9.93000
11829   8   2   -34.017000   11.427000  -9.963000
11830   8   4   -35.216000   13.699000  -9.859000
11831   8   2   -31.495000   11.309000  -10.015000
11832   8   2   -75.423000   -19.412000  -9.618000
11833   8   2   -76.763000   -17.177000  -9.62000
11834   8   2   -72.841000   -19.415000  -9.628000
11835   8   2   -74.167000   -17.188000  -9.632000
11836   8   2   -70.26000   -19.43000  -9.656000
11837   8   2   -71.571000   -17.207000  -9.659000
11838   8   2   -67.677000   -19.446000  -9.689000
11839   8   2   -68.979000   -17.225000  -9.691000
11840   8   2   -65.096000   -19.464000  -9.725000
11841   8   2   -66.391000   -17.242000  -9.722000
11842   8   2   -62.519000   -19.484000  -9.764000
11843   8   2   -63.809000   -17.259000  -9.755000
11844   8   2   -31.634000   -19.674000  -10.37000
11845   8   2   -29.054000   -19.686000  -10.396000
11846   8   2   -30.323000   -17.463000  -10.403000
11847   8   2   -26.477000   -19.701000  -10.421000
11848   8   2   -27.739000   -17.479000  -10.429000
11849   8   2   -23.903000   -19.721000  -10.445000
11850   8   2   -25.153000   -17.495000  -10.451000
11851   8   2   -21.331000   -19.754000  -10.485000
11852   8   2   -22.569000   -17.515000  -10.469000
11853   8   2   -19.988000   -17.553000  -10.496000
11854   8   2   -72.796000   -23.86000  -9.6000
11855   8   2   -74.103000   -21.639000  -9.61000
11856   8   2   -70.224000   -23.859000  -9.613000
11857   8   2   -71.528000   -21.639000  -9.62000
11858   8   2   -67.655000   -23.871000  -9.646000
11859   8   2   -68.953000   -21.65000  -9.651000
11860   8   2   -65.084000   -23.891000  -9.683000
11861   8   2   -66.378000   -21.667000  -9.687000
11862   8   2   -62.512000   -23.917000  -9.724000
11863   8   2   -63.803000   -21.689000  -9.725000
11864   8   2   -59.941000   -23.946000  -9.766000
11865   8   2   -61.23000   -21.714000  -9.769000
11866   8   2   -34.245000   -24.104000  -10.266000
11867   8   2   -31.671000   -24.106000  -10.299000
11868   8   2   -32.941000   -21.889000  -10.324000
11869   8   2   -29.101000   -24.115000  -10.33000
11870   8   2   -30.365000   -21.897000  -10.353000
11871   8   2   -26.532000   -24.13000  -10.363000
11872   8   2   -27.792000   -21.909000  -10.38000
11873   8   2   -23.967000   -24.157000  -10.414000
11874   8   2   -25.223000   -21.927000  -10.409000
11875   8   2   -22.654000   -21.956000  -10.455000
11876   8   2   -70.211000   -28.284000  -9.591000
11877   8   2   -71.499000   -26.073000  -9.593000
11878   8   2   -67.643000   -28.287000  -9.608000
11879   8   2   -68.93000   -26.075000  -9.607000
11880   8   2   -65.078000   -28.307000  -9.642000
11881   8   2   -66.364000   -26.09000  -9.641000
11882   8   2   -62.51000   -28.34000  -9.678000
11883   8   2   -63.794000   -26.115000  -9.679000
11884   8   2   -59.943000   -28.377000  -9.713000
11885   8   2   -61.225000   -26.146000  -9.719000
11886   8   2   -57.377000   -28.415000  -9.748000
11887   8   2   -58.655000   -26.18000  -9.758000
11888   8   2   -36.835000   -28.534000  -10.123000
11889   8   2   -34.267000   -28.526000  -10.17000
11890   8   2   -35.544000   -26.318000  -10.197000
11891   8   2   -31.698000   -28.523000  -10.212000
11892   8   2   -32.972000   -26.317000  -10.237000
11893   8   2   -29.133000   -28.528000  -10.253000
11894   8   2   -30.402000   -26.32000  -10.272000
11895   8   2   -26.567000   -28.549000  -10.309000
11896   8   2   -27.836000   -26.331000  -10.31000
11897   8   2   -25.27000   -26.356000  -10.364000
11898   8   2   -67.66000   -32.687000  -9.623000
11899   8   2   -68.931000   -30.488000  -9.6000
11900   8   2   -65.089000   -32.705000  -9.638000
11901   8   2   -66.365000   -30.497000  -9.617000
11902   8   2   -62.525000   -32.75000  -9.665000
11903   8   2   -63.797000   -30.527000  -9.649000
11904   8   2   -59.962000   -32.802000  -9.689000
11905   8   2   -61.232000   -30.568000  -9.681000
11906   8   2   -57.398000   -32.848000  -9.713000
11907   8   2   -58.668000   -30.611000  -9.711000
11908   8   2   -54.831000   -32.886000  -9.737000
11909   8   2   -56.103000   -30.652000  -9.741000
11910   8   2   -52.259000   -32.916000  -9.766000
11911   8   2   -53.535000   -30.688000  -9.769000
11912   8   2   -49.687000   -32.942000  -9.799000
11913   8   2   -50.966000   -30.718000  -9.801000
11914   8   2   -47.114000   -32.961000  -9.839000
11915   8   2   -48.395000   -30.741000  -9.841000
11916   8   2   -44.541000   -32.974000  -9.886000
11917   8   2   -45.825000   -30.758000  -9.887000
11918   8   2   -41.971000   -32.978000  -9.939000
11919   8   2   -43.256000   -30.765000  -9.94000
11920   8   2   -39.402000   -32.972000  -9.994000
11921   8   2   -40.687000   -30.763000  -9.998000
11922   8   2   -36.838000   -32.955000  -10.049000
11923   8   2   -38.122000   -30.753000  -10.054000
11924   8   2   -34.275000   -32.93000  -10.101000
11925   8   2   -35.556000   -30.737000  -10.106000
11926   8   2   -31.711000   -32.911000  -10.153000
11927   8   2   -32.99000   -30.725000  -10.153000
11928   8   2   -29.142000   -32.919000  -10.215000
11929   8   2   -30.423000   -30.721000  -10.198000
11930   8   2   -27.858000   -30.738000  -10.258000
11931   8   2   -65.135000   -37.062000  -9.729000
11932   8   2   -66.394000   -34.879000  -9.665000
11933   8   2   -62.578000   -37.158000  -9.721000
11934   8   2   -63.823000   -34.918000  -9.673000
11935   8   2   -60.018000   -37.232000  -9.72000
11936   8   2   -61.263000   -34.985000  -9.688000
11937   8   2   -57.444000   -37.277000  -9.72000
11938   8   2   -58.701000   -35.042000  -9.703000
11939   8   2   -54.865000   -37.311000  -9.727000
11940   8   2   -56.132000   -35.082000  -9.718000
11941   8   2   -52.285000   -37.34000  -9.742000
11942   8   2   -53.558000   -35.114000  -9.739000
11943   8   2   -49.703000   -37.363000  -9.767000
11944   8   2   -50.983000   -35.142000  -9.764000
11945   8   2   -47.122000   -37.382000  -9.801000
11946   8   2   -48.407000   -35.162000  -9.797000
11947   8   2   -44.541000   -37.396000  -9.846000
11948   8   2   -45.83000   -35.179000  -9.839000
11949   8   2   -41.96000   -37.403000  -9.9000
11950   8   2   -43.253000   -35.189000  -9.888000
11951   8   2   -39.383000   -37.4000  -9.961000
11952   8   2   -40.681000   -35.19000  -9.943000
11953   8   2   -36.81000   -37.375000  -10.029000
11954   8   2   -38.112000   -35.177000  -10.0000
11955   8   2   -34.252000   -37.326000  -10.1000
11956   8   2   -35.55000   -35.148000  -10.06000
11957   8   2   -31.683000   -37.255000  -10.181000
11958   8   2   -32.989000   -35.106000  -10.118000
11959   8   2   -30.418000   -35.091000  -10.187000
11960   8   2   -63.937000   -39.298000  -9.808000
11961   8   2   -61.363000   -39.422000  -9.776000
11962   8   2   -58.772000   -39.469000  -9.752000
11963   8   2   -56.181000   -39.506000  -9.739000
11964   8   2   -53.595000   -39.536000  -9.737000
11965   8   2   -51.007000   -39.561000  -9.749000
11966   8   2   -48.422000   -39.583000  -9.774000
11967   8   2   -45.835000   -39.6000  -9.813000
11968   8   2   -43.248000   -39.611000  -9.864000
11969   8   2   -40.659000   -39.616000  -9.928000
11970   8   2   -38.068000   -39.607000  -10.005000
11971   8   2   -35.473000   -39.569000  -10.104000
11972   8   2   -32.9000   -39.417000  -10.209000
11973   8   4   -60.121000   -41.634000  -9.853000
11974   8   4   -57.511000   -41.673000  -9.809000
11975   8   4   -54.912000   -41.708000  -9.785000
11976   8   4   -52.319000   -41.735000  -9.779000
11977   8   4   -49.729000   -41.76000  -9.791000
11978   8   4   -47.139000   -41.779000  -9.819000
11979   8   4   -44.548000   -41.793000  -9.864000
11980   8   4   -41.952000   -41.802000  -9.928000
11981   8   4   -39.349000   -41.803000  -10.009000
11982   8   4   -36.725000   -41.787000  -10.123000
11983   8   4   -62.779000   -41.58000  -9.907000
11984   8   4   -32.805000   -40.954000  -10.278000
11985   8   4   -32.605000   13.611000  -9.802000
11986   8   4   -62.85000   14.654000  -9.434000
11987   8   2   -62.898000   -16.752000  -8.328000
11988   8   2   -62.871000   -16.745000  -6.439000
11989   8   2   -61.606000   -18.973000  -8.342000
11990   8   2   -61.578000   -18.965000  -6.455000
11991   8   2   -31.19000   -16.943000  -8.955000
11992   8   2   -31.164000   -16.934000  -7.065000
11993   8   2   -32.5000   -19.148000  -8.926000
11994   8   2   -32.47000   -19.135000  -7.039000
11995   8   2   -60.315000   -21.202000  -8.349000
11996   8   2   -60.287000   -21.192000  -6.464000
11997   8   2   -59.026000   -23.434000  -8.347000
11998   8   2   -59.001000   -23.422000  -6.462000
11999   8   2   -33.807000   -21.359000  -8.882000
12000   8   2   -33.775000   -21.34000  -6.997000
12001   8   2   -35.109000   -23.572000  -8.824000
12002   8   2   -35.073000   -23.55000  -6.937000
12003   8   2   -57.743000   -25.667000  -8.337000
12004   8   2   -57.719000   -25.655000  -6.451000
12005   8   2   -54.796000   -28.903000  -8.529000
12006   8   2   -54.765000   -28.883000  -6.249000
12007   8   2   -56.468000   -27.905000  -8.324000
12008   8   2   -56.445000   -27.891000  -6.436000
12009   8   2   -52.226000   -28.935000  -8.557000
12010   8   2   -52.193000   -28.91000  -6.284000
12011   8   2   -49.654000   -28.96000  -8.591000
12012   8   2   -49.617000   -28.933000  -6.323000
12013   8   2   -47.084000   -28.977000  -8.636000
12014   8   2   -47.043000   -28.948000  -6.368000
12015   8   2   -44.513000   -28.989000  -8.689000
12016   8   2   -44.469000   -28.957000  -6.42000
12017   8   2   -41.943000   -28.993000  -8.75000
12018   8   2   -41.898000   -28.959000  -6.477000
12019   8   2   -39.377000   -28.987000  -8.813000
12020   8   2   -39.33000   -28.953000  -6.532000
12021   8   2   -36.404000   -25.787000  -8.752000
12022   8   2   -36.367000   -25.763000  -6.864000
12023   8   2   -37.692000   -28.006000  -8.674000
12024   8   2   -37.655000   -27.981000  -6.786000
12025   8   2   -50.838000   -0.63000  -6.687000
12026   8   2   -48.299000   -0.641000  -8.637000
12027   8   2   -48.262000   -0.646000  -6.754000
12028   8   2   -62.906000   -14.816000  -8.523000
12029   8   2   -62.872000   -14.81000  -6.246000
12030   8   2   -61.579000   -12.61000  -6.262000
12031   8   2   -61.613000   -12.613000  -8.519000
12032   8   2   -31.173000   -15.007000  -9.151000
12033   8   2   -31.144000   -15.002000  -6.873000
12034   8   2   -32.416000   -12.79000  -6.855000
12035   8   2   -32.447000   -12.789000  -9.113000
12036   8   2   -58.986000   -8.194000  -6.285000
12037   8   2   -59.023000   -8.194000  -8.516000
12038   8   2   -33.728000   -10.565000  -9.061000
12039   8   2   -33.695000   -10.57000  -6.825000
12040   8   2   -34.978000   -8.352000  -6.788000
12041   8   2   -35.013000   -8.345000  -9.022000
12042   8   2   -57.728000   -5.986000  -8.541000
12043   8   2   -57.689000   -5.985000  -6.308000
12044   8   2   -56.393000   -3.775000  -6.346000
12045   8   2   -56.436000   -3.772000  -8.579000
12046   8   2   -36.299000   -6.124000  -8.989000
12047   8   2   -36.263000   -6.133000  -6.755000
12048   8   2   -37.554000   -3.912000  -6.731000
12049   8   2   -37.587000   -3.9000  -8.967000
12050   8   2   -55.143000   -1.557000  -8.64000
12051   8   2   -55.096000   -1.563000  -6.381000
12052   8   2   -53.445000   -0.6000  -8.505000
12053   8   2   -53.407000   -0.611000  -6.618000
12054   8   2   -50.876000   -0.624000  -8.576000
12055   8   2   -45.685000   -0.667000  -6.806000
12056   8   2   -43.138000   -0.681000  -8.731000
12057   8   2   -43.109000   -0.694000  -6.843000
12058   8   2   -38.879000   -1.672000  -8.964000
12059   8   2   -38.846000   -1.69000  -6.703000
12060   8   2   -40.567000   -0.696000  -8.757000
12061   8   2   -40.54000   -0.714000  -6.872000
12062   8   2   -45.718000   -0.66000  -8.689000
12063   8   2   -60.318000   -10.402000  -8.508000
12064   8   2   -60.282000   -10.403000  -6.273000
12065   9   1   5.803000   -11.889000  -8.897000
12066   9   1   5.819000   -11.885000  -7.32000
12067   9   1   5.762000   -14.876000  -9.412000
12068   9   1   5.796000   -14.869000  -6.782000
12069   9   3   4.475000   -12.594000  -6.764000
12070   9   3   4.434000   -14.097000  -8.874000
12071   9   3   4.454000   -14.098000  -7.291000
12072   9   3   4.446000   -12.592000  -9.397000
12073   9   1   8.437000   -11.953000  -8.929000
12074   9   1   8.454000   -11.947000  -7.363000
12075   9   1   8.407000   -14.898000  -9.433000
12076   9   1   8.438000   -14.884000  -6.826000
12077   9   1   7.128000   -12.655000  -6.82000
12078   9   1   7.09000   -14.148000  -8.903000
12079   9   1   7.108000   -14.142000  -7.331000
12080   9   1   7.098000   -12.666000  -9.428000
12081   9   1   11.051000   -11.984000  -8.959000
12082   9   1   11.068000   -11.977000  -7.396000
12083   9   1   11.028000   -14.924000  -9.463000
12084   9   1   11.058000   -14.909000  -6.857000
12085   9   1   9.76000   -12.691000  -6.855000
12086   9   1   9.727000   -14.178000  -8.932000
12087   9   1   9.745000   -14.169000  -7.368000
12088   9   1   9.73000   -12.704000  -9.461000
12089   9   1   13.651000   -12.004000  -8.986000
12090   9   1   13.669000   -11.998000  -7.421000
12091   9   1   13.633000   -14.945000  -9.494000
12092   9   1   13.663000   -14.931000  -6.884000
12093   9   1   12.369000   -12.716000  -6.883000
12094   9   1   12.339000   -14.201000  -8.962000
12095   9   1   12.358000   -14.193000  -7.397000
12096   9   1   12.342000   -12.729000  -9.491000
12097   9   1   16.243000   -12.021000  -9.009000
12098   9   1   16.261000   -12.015000  -7.445000
12099   9   1   16.227000   -14.961000  -9.521000
12100   9   1   16.259000   -14.95000  -6.91000
12101   9   1   14.967000   -12.736000  -6.908000
12102   9   1   14.938000   -14.22000  -8.989000
12103   9   1   14.958000   -14.211000  -7.424000
12104   9   1   14.938000   -12.747000  -9.518000
12105   9   1   18.825000   -12.033000  -9.028000
12106   9   1   18.847000   -12.03000  -7.465000
12107   9   1   18.815000   -14.978000  -9.549000
12108   9   1   18.849000   -14.969000  -6.938000
12109   9   1   17.557000   -12.753000  -6.93000
12110   9   1   17.529000   -14.235000  -9.015000
12111   9   1   17.55000   -14.23000  -7.45000
12112   9   1   17.526000   -12.761000  -9.541000
12113   9   1   21.406000   -12.046000  -9.043000
12114   9   1   21.431000   -12.044000  -7.488000
12115   9   1   20.143000   -12.771000  -6.954000
12116   9   1   20.115000   -14.251000  -9.04000
12117   9   1   20.139000   -14.246000  -7.477000
12118   9   1   20.107000   -12.775000  -9.558000
12119   9   1   52.353000   -12.234000  -9.659000
12120   9   1   52.373000   -12.233000  -8.105000
12121   9   1   54.935000   -12.251000  -9.707000
12122   9   1   54.955000   -12.249000  -8.143000
12123   9   1   54.906000   -15.196000  -10.229000
12124   9   1   54.937000   -15.187000  -7.619000
12125   9   1   53.667000   -12.974000  -7.604000
12126   9   1   53.625000   -14.453000  -9.691000
12127   9   1   53.645000   -14.448000  -8.128000
12128   9   1   53.632000   -12.978000  -10.207000
12129   9   1   57.52000   -12.27000  -9.741000
12130   9   1   57.537000   -12.265000  -8.176000
12131   9   1   57.494000   -15.213000  -10.256000
12132   9   1   57.518000   -15.201000  -7.646000
12133   9   1   56.246000   -12.988000  -7.637000
12134   9   1   56.212000   -14.469000  -9.723000
12135   9   1   56.229000   -14.463000  -8.158000
12136   9   1   56.216000   -12.995000  -10.248000
12137   9   1   60.115000   -12.288000  -9.764000
12138   9   1   60.127000   -12.281000  -8.201000
12139   9   1   60.089000   -15.232000  -10.275000
12140   9   1   60.105000   -15.22000  -7.666000
12141   9   1   58.831000   -13.004000  -7.665000
12142   9   1   58.802000   -14.487000  -9.747000
12143   9   1   58.815000   -14.48000  -8.183000
12144   9   1   58.809000   -13.013000  -10.275000
12145   9   1   62.725000   -12.308000  -9.774000
12146   9   1   62.73000   -12.301000  -8.208000
12147   9   1   62.694000   -15.256000  -10.284000
12148   9   1   62.698000   -15.244000  -7.673000
12149   9   1   61.424000   -13.022000  -7.682000
12150   9   1   61.403000   -14.507000  -9.762000
12151   9   1   61.408000   -14.5000  -8.198000
12152   9   1   61.412000   -13.034000  -10.289000
12153   9   1   65.352000   -12.322000  -9.765000
12154   9   1   65.351000   -12.32000  -8.187000
12155   9   1   65.314000   -15.307000  -10.285000
12156   9   1   65.303000   -15.301000  -7.651000
12157   9   1   64.034000   -13.047000  -7.678000
12158   9   1   64.021000   -14.539000  -9.765000
12159   9   1   64.02000   -14.532000  -8.192000
12160   9   1   64.037000   -13.057000  -10.288000
12161   9   3   66.656000   -13.096000  -7.627000
12162   9   3   66.65000   -14.592000  -9.742000
12163   9   3   66.641000   -14.594000  -8.158000
12164   9   3   66.673000   -13.092000  -10.264000
12165   9   1   5.917000   -10.419000  -9.468000
12166   9   1   5.943000   -10.41000  -6.776000
12167   9   1   8.554000   -7.515000  -8.963000
12168   9   1   8.57000   -7.511000  -7.38000
12169   9   1   8.481000   -10.476000  -9.464000
12170   9   1   8.508000   -10.466000  -6.847000
12171   9   1   7.302000   -8.235000  -6.803000
12172   9   1   7.214000   -9.706000  -8.934000
12173   9   1   7.228000   -9.701000  -7.353000
12174   9   1   7.277000   -8.244000  -9.505000
12175   9   1   11.129000   -7.558000  -8.981000
12176   9   1   11.144000   -7.555000  -7.414000
12177   9   1   11.073000   -10.51000  -9.489000
12178   9   1   11.099000   -10.499000  -6.88000
12179   9   1   9.85000   -8.272000  -6.871000
12180   9   1   9.795000   -9.758000  -8.957000
12181   9   1   9.812000   -9.752000  -7.391000
12182   9   1   9.825000   -8.28000  -9.492000
12183   9   1   13.704000   -7.585000  -9.002000
12184   9   1   13.72000   -7.582000  -7.437000
12185   9   1   13.664000   -10.531000  -9.515000
12186   9   1   13.689000   -10.523000  -6.905000
12187   9   1   12.428000   -8.304000  -6.901000
12188   9   1   12.383000   -9.786000  -8.983000
12189   9   1   12.399000   -9.781000  -7.419000
12190   9   1   12.403000   -8.311000  -9.513000
12191   9   1   16.279000   -7.601000  -9.021000
12192   9   1   16.295000   -7.6000  -7.455000
12193   9   1   16.249000   -10.547000  -9.537000
12194   9   1   16.276000   -10.541000  -6.925000
12195   9   1   15.005000   -8.325000  -6.922000
12196   9   1   14.968000   -9.805000  -9.006000
12197   9   1   14.985000   -9.801000  -7.44000
12198   9   1   14.98000   -8.331000  -9.534000
12199   9   1   18.852000   -7.612000  -9.035000
12200   9   1   18.869000   -7.611000  -7.47000
12201   9   1   18.827000   -10.559000  -9.553000
12202   9   1   18.857000   -10.554000  -6.943000
12203   9   1   17.583000   -8.339000  -6.938000
12204   9   1   17.548000   -9.818000  -9.023000
12205   9   1   17.567000   -9.815000  -7.458000
12206   9   1   17.557000   -8.343000  -9.551000
12207   9   1   21.422000   -7.616000  -9.043000
12208   9   1   21.444000   -7.618000  -7.484000
12209   9   1   21.402000   -10.568000  -9.559000
12210   9   1   21.439000   -10.566000  -6.965000
12211   9   1   20.159000   -8.35000  -6.953000
12212   9   1   20.123000   -9.826000  -9.036000
12213   9   1   20.145000   -9.825000  -7.474000
12214   9   1   20.128000   -8.352000  -9.562000
12215   9   1   23.994000   -7.624000  -9.05000
12216   9   1   24.023000   -7.626000  -7.505000
12217   9   1   22.736000   -8.358000  -6.975000
12218   9   1   22.698000   -9.834000  -9.041000
12219   9   1   22.726000   -9.835000  -7.493000
12220   9   1   22.697000   -8.356000  -9.561000
12221   9   1   49.789000   -7.787000  -9.579000
12222   9   1   49.812000   -7.793000  -8.034000
12223   9   1   52.366000   -7.807000  -9.644000
12224   9   1   52.389000   -7.81000  -8.084000
12225   9   1   52.353000   -10.754000  -10.172000
12226   9   1   52.39000   -10.758000  -7.577000
12227   9   1   51.109000   -8.538000  -7.544000
12228   9   1   51.075000   -10.009000  -9.618000
12229   9   1   51.095000   -10.012000  -8.071000
12230   9   1   51.069000   -8.529000  -10.131000
12231   9   1   54.94000   -7.827000  -9.699000
12232   9   1   54.963000   -7.829000  -8.135000
12233   9   1   54.931000   -10.775000  -10.227000
12234   9   1   54.966000   -10.775000  -7.617000
12235   9   1   53.684000   -8.557000  -7.589000
12236   9   1   53.652000   -10.03000  -9.678000
12237   9   1   53.674000   -10.031000  -8.117000
12238   9   1   53.642000   -8.552000  -10.198000
12239   9   1   57.516000   -7.842000  -9.743000
12240   9   1   57.538000   -7.842000  -8.178000
12241   9   1   57.516000   -10.794000  -10.265000
12242   9   1   57.546000   -10.788000  -7.655000
12243   9   1   56.257000   -8.572000  -7.635000
12244   9   1   56.232000   -10.049000  -9.724000
12245   9   1   56.252000   -10.048000  -8.16000
12246   9   1   56.22000   -8.571000  -10.246000
12247   9   1   60.097000   -7.853000  -9.779000
12248   9   1   60.114000   -7.851000  -8.212000
12249   9   1   60.106000   -10.812000  -10.292000
12250   9   1   60.129000   -10.803000  -7.683000
12251   9   1   58.832000   -8.584000  -7.673000
12252   9   1   58.816000   -10.066000  -9.759000
12253   9   1   58.832000   -10.061000  -8.195000
12254   9   1   58.801000   -8.587000  -10.284000
12255   9   1   62.676000   -7.855000  -9.812000
12256   9   1   62.693000   -7.852000  -8.229000
12257   9   1   62.7000   -10.829000  -10.307000
12258   9   1   62.715000   -10.818000  -7.692000
12259   9   1   61.409000   -8.592000  -7.697000
12260   9   1   61.405000   -10.08000  -9.783000
12261   9   1   61.416000   -10.075000  -8.216000
12262   9   1   61.382000   -8.6000  -10.315000
12263   9   1   65.27000   -10.841000  -10.341000
12264   9   1   65.277000   -10.836000  -7.651000
12265   9   1   63.961000   -8.608000  -7.672000
12266   9   1   63.993000   -10.085000  -9.798000
12267   9   1   64.002000   -10.082000  -8.216000
12268   9   1   63.937000   -8.614000  -10.373000
12269   9   1   8.604000   -6.054000  -9.532000
12270   9   1   8.628000   -6.048000  -6.826000
12271   9   1   11.185000   -3.127000  -8.996000
12272   9   1   11.2000   -3.128000  -7.413000
12273   9   1   11.149000   -6.082000  -9.513000
12274   9   1   11.172000   -6.078000  -6.89000
12275   9   1   9.94000   -3.859000  -6.841000
12276   9   1   9.876000   -5.322000  -8.983000
12277   9   1   9.89000   -5.32000  -7.401000
12278   9   1   9.917000   -3.862000  -9.548000
12279   9   1   13.754000   -3.158000  -9.008000
12280   9   1   13.768000   -3.161000  -7.44000
12281   9   1   13.72000   -6.108000  -9.53000
12282   9   1   13.743000   -6.107000  -6.916000
12283   9   1   12.484000   -3.884000  -6.903000
12284   9   1   12.447000   -5.358000  -8.998000
12285   9   1   12.461000   -5.358000  -7.43000
12286   9   1   12.46000   -3.882000  -9.527000
12287   9   1   16.321000   -3.176000  -9.026000
12288   9   1   16.337000   -3.18000  -7.46000
12289   9   1   16.291000   -6.126000  -9.548000
12290   9   1   16.316000   -6.125000  -6.935000
12291   9   1   15.051000   -3.908000  -6.927000
12292   9   1   15.017000   -5.381000  -9.016000
12293   9   1   15.03000   -5.382000  -7.45000
12294   9   1   15.029000   -3.905000  -9.541000
12295   9   1   18.888000   -3.185000  -9.044000
12296   9   1   18.905000   -3.191000  -7.479000
12297   9   1   18.861000   -6.135000  -9.562000
12298   9   1   18.887000   -6.135000  -6.95000
12299   9   1   17.62000   -3.922000  -6.946000
12300   9   1   17.585000   -5.394000  -9.033000
12301   9   1   17.602000   -5.396000  -7.468000
12302   9   1   17.595000   -3.919000  -9.559000
12303   9   1   21.452000   -3.19000  -9.063000
12304   9   1   21.472000   -3.195000  -7.499000
12305   9   1   21.428000   -6.141000  -9.573000
12306   9   1   21.459000   -6.142000  -6.965000
12307   9   1   20.19000   -3.929000  -6.962000
12308   9   1   20.154000   -5.402000  -9.047000
12309   9   1   20.172000   -5.404000  -7.483000
12310   9   1   20.16000   -3.925000  -9.576000
12311   9   1   24.016000   -3.193000  -9.083000
12312   9   1   24.041000   -3.197000  -7.523000
12313   9   1   23.993000   -6.146000  -9.578000
12314   9   1   24.035000   -6.148000  -6.991000
12315   9   1   22.76000   -3.932000  -6.984000
12316   9   1   22.719000   -5.405000  -9.059000
12317   9   1   22.743000   -5.408000  -7.5000
12318   9   1   22.725000   -3.929000  -9.593000
12319   9   1   26.585000   -3.198000  -9.109000
12320   9   1   26.616000   -3.205000  -7.563000
12321   9   1   25.333000   -3.936000  -7.019000
12322   9   1   25.291000   -5.413000  -9.074000
12323   9   1   25.32000   -5.416000  -7.527000
12324   9   1   25.288000   -3.934000  -9.605000
12325   9   1   47.213000   -3.339000  -9.523000
12326   9   1   47.235000   -3.352000  -7.976000
12327   9   1   49.786000   -3.36000  -9.578000
12328   9   1   49.81000   -3.372000  -8.019000
12329   9   1   49.781000   -6.308000  -10.097000
12330   9   1   49.822000   -6.318000  -7.509000
12331   9   1   48.532000   -4.099000  -7.48000
12332   9   1   48.503000   -5.564000  -9.547000
12333   9   1   48.525000   -5.572000  -8.002000
12334   9   1   48.491000   -4.083000  -10.067000
12335   9   1   52.356000   -3.382000  -9.633000
12336   9   1   52.382000   -3.393000  -8.069000
12337   9   1   52.352000   -6.329000  -10.164000
12338   9   1   52.396000   -6.338000  -7.557000
12339   9   1   51.105000   -4.121000  -7.523000
12340   9   1   51.077000   -5.583000  -9.61000
12341   9   1   51.101000   -5.592000  -8.051000
12342   9   1   51.061000   -4.105000  -10.131000
12343   9   1   54.924000   -3.397000  -9.684000
12344   9   1   54.952000   -3.407000  -8.12000
12345   9   1   54.925000   -6.348000  -10.219000
12346   9   1   54.967000   -6.356000  -7.608000
12347   9   1   53.677000   -4.139000  -7.574000
12348   9   1   53.648000   -5.603000  -9.667000
12349   9   1   53.673000   -5.61000  -8.104000
12350   9   1   53.631000   -4.125000  -10.186000
12351   9   1   57.497000   -3.406000  -9.735000
12352   9   1   57.523000   -3.414000  -8.168000
12353   9   1   57.499000   -6.363000  -10.265000
12354   9   1   57.539000   -6.366000  -7.653000
12355   9   1   56.246000   -4.151000  -7.624000
12356   9   1   56.22000   -5.62000  -9.718000
12357   9   1   56.244000   -5.625000  -8.154000
12358   9   1   56.202000   -4.139000  -10.237000
12359   9   1   60.07000   -3.405000  -9.789000
12360   9   1   60.096000   -3.41000  -8.205000
12361   9   1   60.075000   -6.372000  -10.308000
12362   9   1   60.112000   -6.372000  -7.688000
12363   9   1   58.818000   -4.154000  -7.666000
12364   9   1   58.795000   -5.629000  -9.763000
12365   9   1   58.817000   -5.631000  -8.195000
12366   9   1   58.774000   -4.147000  -10.287000
12367   9   1   62.625000   -6.386000  -10.38000
12368   9   1   62.66000   -6.384000  -7.678000
12369   9   1   61.364000   -4.163000  -7.666000
12370   9   1   61.37000   -5.628000  -9.808000
12371   9   1   61.392000   -5.629000  -8.225000
12372   9   1   61.321000   -4.159000  -10.37000
12373   9   1   11.22000   -1.667000  -9.555000
12374   9   1   11.244000   -1.67000  -6.848000
12375   9   1   13.779000   1.264000  -8.996000
12376   9   1   13.795000   1.255000  -7.413000
12377   9   1   13.763000   -1.682000  -9.532000
12378   9   1   13.785000   -1.689000  -6.909000
12379   9   1   12.541000   0.518000  -6.847000
12380   9   1   12.486000   -0.932000  -9.0000
12381   9   1   12.501000   -0.936000  -7.417000
12382   9   1   12.516000   0.528000  -9.555000
12383   9   1   16.347000   1.246000  -9.01000
12384   9   1   16.363000   1.233000  -7.443000
12385   9   1   16.329000   -1.699000  -9.548000
12386   9   1   16.354000   -1.709000  -6.934000
12387   9   1   15.083000   0.504000  -6.908000
12388   9   1   15.054000   -0.956000  -9.011000
12389   9   1   15.068000   -0.965000  -7.444000
12390   9   1   15.058000   0.52000  -9.533000
12391   9   1   18.912000   1.24000  -9.035000
12392   9   1   18.931000   1.225000  -7.471000
12393   9   1   18.894000   -1.709000  -9.569000
12394   9   1   18.922000   -1.719000  -6.955000
12395   9   1   17.651000   0.49000  -6.936000
12396   9   1   17.62000   -0.97000  -9.032000
12397   9   1   17.637000   -0.979000  -7.467000
12398   9   1   17.622000   0.508000  -9.551000
12399   9   1   21.476000   1.241000  -9.065000
12400   9   1   21.498000   1.226000  -7.501000
12401   9   1   21.457000   -1.711000  -9.591000
12402   9   1   21.491000   -1.721000  -6.978000
12403   9   1   20.219000   0.487000  -6.963000
12404   9   1   20.185000   -0.975000  -9.056000
12405   9   1   20.204000   -0.984000  -7.491000
12406   9   1   20.187000   0.505000  -9.577000
12407   9   1   24.038000   1.243000  -9.101000
12408   9   1   24.064000   1.23000  -7.537000
12409   9   1   24.019000   -1.714000  -9.617000
12410   9   1   24.06000   -1.721000  -7.007000
12411   9   1   22.787000   0.49000  -6.994000
12412   9   1   22.747000   -0.975000  -9.082000
12413   9   1   22.771000   -0.985000  -7.518000
12414   9   1   22.747000   0.505000  -9.608000
12415   9   1   26.603000   1.241000  -9.145000
12416   9   1   26.633000   1.228000  -7.582000
12417   9   1   26.583000   -1.719000  -9.646000
12418   9   1   26.632000   -1.726000  -7.052000
12419   9   1   25.356000   0.491000  -7.034000
12420   9   1   25.311000   -0.976000  -9.114000
12421   9   1   25.339000   -0.985000  -7.553000
12422   9   1   25.309000   0.504000  -9.644000
12423   9   1   29.173000   1.227000  -9.2000
12424   9   1   29.205000   1.217000  -7.638000
12425   9   1   27.926000   0.485000  -7.086000
12426   9   1   27.882000   -0.985000  -9.157000
12427   9   1   27.914000   -0.994000  -7.602000
12428   9   1   27.875000   0.497000  -9.69000
12429   9   1   31.744000   1.208000  -9.262000
12430   9   1   31.776000   1.2000  -7.701000
12431   9   1   30.501000   0.467000  -7.147000
12432   9   1   30.446000   0.477000  -9.75000
12433   9   1   34.32000   1.187000  -9.323000
12434   9   1   34.35000   1.181000  -7.764000
12435   9   1   33.072000   0.448000  -7.216000
12436   9   1   33.019000   0.456000  -9.813000
12437   9   1   36.899000   1.169000  -9.377000
12438   9   1   36.927000   1.161000  -7.819000
12439   9   1   35.647000   0.431000  -7.28000
12440   9   1   35.596000   0.44000  -9.872000
12441   9   1   39.479000   1.147000  -9.422000
12442   9   1   39.503000   1.137000  -7.863000
12443   9   1   38.222000   0.41000  -7.331000
12444   9   1   38.178000   0.421000  -9.922000
12445   9   1   42.055000   1.127000  -9.457000
12446   9   1   42.078000   1.114000  -7.896000
12447   9   1   40.796000   0.383000  -7.367000
12448   9   1   40.757000   0.4000  -9.964000
12449   9   1   44.628000   1.109000  -9.487000
12450   9   1   44.65000   1.09000  -7.925000
12451   9   1   43.368000   0.361000  -7.393000
12452   9   1   43.333000   0.383000  -9.997000
12453   9   1   47.202000   1.088000  -9.518000
12454   9   1   47.224000   1.066000  -7.955000
12455   9   1   47.199000   -1.858000  -10.046000
12456   9   1   47.237000   -1.88000  -7.452000
12457   9   1   45.943000   0.34000  -7.423000
12458   9   1   45.918000   -1.115000  -9.507000
12459   9   1   45.942000   -1.131000  -7.952000
12460   9   1   45.908000   0.367000  -10.027000
12461   9   1   49.772000   1.064000  -9.556000
12462   9   1   49.796000   1.04000  -7.991000
12463   9   1   49.769000   -1.88000  -10.098000
12464   9   1   49.811000   -1.903000  -7.489000
12465   9   1   48.517000   0.313000  -7.455000
12466   9   1   48.493000   -1.135000  -9.55000
12467   9   1   48.517000   -1.153000  -7.989000
12468   9   1   48.479000   0.345000  -10.066000
12469   9   1   52.341000   1.043000  -9.598000
12470   9   1   52.367000   1.019000  -8.033000
12471   9   1   52.338000   -1.901000  -10.15000
12472   9   1   52.383000   -1.924000  -7.537000
12473   9   1   51.089000   0.289000  -7.495000
12474   9   1   51.062000   -1.16000  -9.597000
12475   9   1   51.089000   -1.176000  -8.032000
12476   9   1   51.047000   0.323000  -10.108000
12477   9   1   54.912000   1.031000  -9.646000
12478   9   1   54.938000   1.01000  -8.079000
12479   9   1   54.907000   -1.916000  -10.199000
12480   9   1   54.953000   -1.937000  -7.586000
12481   9   1   53.662000   0.273000  -7.541000
12482   9   1   53.632000   -1.176000  -9.645000
12483   9   1   53.659000   -1.194000  -8.081000
12484   9   1   53.616000   0.306000  -10.155000
12485   9   1   57.483000   1.032000  -9.705000
12486   9   1   57.51000   1.014000  -8.121000
12487   9   1   57.478000   -1.923000  -10.253000
12488   9   1   57.525000   -1.941000  -7.631000
12489   9   1   56.233000   0.268000  -7.585000
12490   9   1   56.202000   -1.186000  -9.695000
12491   9   1   56.23000   -1.2000  -8.129000
12492   9   1   56.185000   0.298000  -10.208000
12493   9   1   60.023000   -1.937000  -10.343000
12494   9   1   60.071000   -1.948000  -7.638000
12495   9   1   58.778000   0.263000  -7.595000
12496   9   1   58.774000   -1.185000  -9.754000
12497   9   1   58.801000   -1.196000  -8.17000
12498   9   1   58.73000   0.285000  -10.3000
12499   9   1   13.802000   2.725000  -9.545000
12500   9   1   13.832000   2.706000  -6.836000
12501   9   1   16.34000   5.656000  -8.957000
12502   9   1   16.363000   5.633000  -7.375000
12503   9   1   16.345000   2.724000  -9.525000
12504   9   1   16.375000   2.697000  -6.9000
12505   9   1   15.115000   4.89000  -6.814000
12506   9   1   15.063000   3.461000  -8.983000
12507   9   1   15.083000   3.445000  -7.399000
12508   9   1   15.08000   4.92000  -9.522000
12509   9   1   18.909000   5.66000  -8.982000
12510   9   1   18.933000   5.63000  -7.415000
12511   9   1   18.909000   2.721000  -9.548000
12512   9   1   18.944000   2.691000  -6.933000
12513   9   1   17.659000   4.89000  -6.882000
12514   9   1   17.633000   3.45000  -9.001000
12515   9   1   17.652000   3.43000  -7.434000
12516   9   1   17.623000   4.93000  -9.507000
12517   9   1   21.471000   5.678000  -9.022000
12518   9   1   21.499000   5.647000  -7.458000
12519   9   1   21.471000   2.724000  -9.581000
12520   9   1   21.511000   2.695000  -6.969000
12521   9   1   20.229000   4.896000  -6.924000
12522   9   1   20.197000   3.454000  -9.032000
12523   9   1   20.22000   3.432000  -7.468000
12524   9   1   20.186000   4.939000  -9.537000
12525   9   1   24.031000   5.692000  -9.071000
12526   9   1   24.062000   5.665000  -7.507000
12527   9   1   24.031000   2.727000  -9.622000
12528   9   1   24.078000   2.703000  -7.009000
12529   9   1   22.794000   4.911000  -6.969000
12530   9   1   22.759000   3.463000  -9.071000
12531   9   1   22.785000   3.441000  -7.507000
12532   9   1   22.746000   4.951000  -9.579000
12533   9   1   26.596000   5.69000  -9.126000
12534   9   1   26.629000   5.668000  -7.561000
12535   9   1   26.594000   2.724000  -9.668000
12536   9   1   26.644000   2.704000  -7.057000
12537   9   1   25.359000   4.922000  -7.018000
12538   9   1   25.322000   3.465000  -9.117000
12539   9   1   25.351000   3.447000  -7.553000
12540   9   1   25.306000   4.955000  -9.628000
12541   9   1   29.167000   5.676000  -9.184000
12542   9   1   29.201000   5.657000  -7.619000
12543   9   1   29.161000   2.712000  -9.722000
12544   9   1   29.214000   2.695000  -7.113000
12545   9   1   27.927000   4.918000  -7.073000
12546   9   1   27.888000   3.457000  -9.17000
12547   9   1   27.919000   3.443000  -7.605000
12548   9   1   27.871000   4.946000  -9.683000
12549   9   1   31.744000   5.652000  -9.241000
12550   9   1   31.776000   5.638000  -7.676000
12551   9   1   31.733000   2.693000  -9.781000
12552   9   1   31.787000   2.677000  -7.173000
12553   9   1   30.499000   4.905000  -7.131000
12554   9   1   30.458000   3.441000  -9.227000
12555   9   1   30.49000   3.429000  -7.663000
12556   9   1   30.445000   4.929000  -9.741000
12557   9   1   34.325000   5.631000  -9.295000
12558   9   1   34.354000   5.616000  -7.731000
12559   9   1   34.31000   2.674000  -9.837000
12560   9   1   34.361000   2.658000  -7.232000
12561   9   1   33.073000   4.885000  -7.187000
12562   9   1   33.034000   3.421000  -9.285000
12563   9   1   33.065000   3.41000  -7.721000
12564   9   1   33.022000   4.907000  -9.797000
12565   9   1   36.907000   5.609000  -9.342000
12566   9   1   36.932000   5.591000  -7.777000
12567   9   1   36.892000   2.655000  -9.889000
12568   9   1   36.935000   2.637000  -7.284000
12569   9   1   35.65000   4.862000  -7.239000
12570   9   1   35.612000   3.4000  -9.338000
12571   9   1   35.64000   3.389000  -7.775000
12572   9   1   35.604000   4.886000  -9.849000
12573   9   1   39.489000   5.587000  -9.379000
12574   9   1   39.511000   5.568000  -7.814000
12575   9   1   39.471000   2.635000  -9.932000
12576   9   1   39.51000   2.612000  -7.327000
12577   9   1   38.226000   4.838000  -7.282000
12578   9   1   38.192000   3.379000  -9.385000
12579   9   1   38.217000   3.365000  -7.822000
12580   9   1   38.188000   4.867000  -9.893000
12581   9   1   42.068000   5.566000  -9.408000
12582   9   1   42.085000   5.543000  -7.844000
12583   9   1   42.049000   2.614000  -9.967000
12584   9   1   42.083000   2.586000  -7.359000
12585   9   1   40.8000   4.812000  -7.317000
12586   9   1   40.771000   3.359000  -9.422000
12587   9   1   40.792000   3.341000  -7.858000
12588   9   1   40.77000   4.847000  -9.927000
12589   9   1   44.643000   5.547000  -9.433000
12590   9   1   44.658000   5.515000  -7.868000
12591   9   1   44.623000   2.595000  -9.997000
12592   9   1   44.655000   2.56000  -7.387000
12593   9   1   43.373000   4.784000  -7.345000
12594   9   1   43.346000   3.337000  -9.452000
12595   9   1   43.366000   3.315000  -7.888000
12596   9   1   43.347000   4.826000  -9.955000
12597   9   1   47.213000   5.521000  -9.454000
12598   9   1   47.228000   5.483000  -7.889000
12599   9   1   47.194000   2.572000  -10.027000
12600   9   1   47.227000   2.532000  -7.415000
12601   9   1   45.944000   4.753000  -7.368000
12602   9   1   45.918000   3.315000  -9.479000
12603   9   1   45.937000   3.289000  -7.915000
12604   9   1   45.918000   4.805000  -9.979000
12605   9   1   49.779000   5.49000  -9.478000
12606   9   1   49.796000   5.446000  -7.914000
12607   9   1   49.761000   2.548000  -10.061000
12608   9   1   49.798000   2.503000  -7.448000
12609   9   1   48.512000   4.719000  -7.393000
12610   9   1   48.487000   3.289000  -9.508000
12611   9   1   48.507000   3.258000  -7.945000
12612   9   1   48.484000   4.779000  -10.005000
12613   9   1   52.346000   5.464000  -9.51000
12614   9   1   52.366000   5.421000  -7.944000
12615   9   1   52.329000   2.528000  -10.1000
12616   9   1   52.37000   2.481000  -7.487000
12617   9   1   51.083000   4.688000  -7.422000
12618   9   1   51.057000   3.265000  -9.543000
12619   9   1   51.079000   3.231000  -7.978000
12620   9   1   51.05000   4.751000  -10.036000
12621   9   1   54.918000   5.453000  -9.561000
12622   9   1   54.939000   5.419000  -7.978000
12623   9   1   54.898000   2.516000  -10.15000
12624   9   1   54.943000   2.472000  -7.527000
12625   9   1   53.656000   4.673000  -7.455000
12626   9   1   53.625000   3.247000  -9.585000
12627   9   1   53.65000   3.216000  -8.018000
12628   9   1   53.618000   4.733000  -10.079000
12629   9   1   57.442000   2.501000  -10.243000
12630   9   1   57.49000   2.468000  -7.537000
12631   9   1   56.204000   4.666000  -7.461000
12632   9   1   56.197000   3.244000  -9.641000
12633   9   1   56.222000   3.221000  -8.057000
12634   9   1   56.162000   4.715000  -10.168000
12635   9   1   16.344000   7.116000  -9.488000
12636   9   1   16.389000   7.071000  -6.779000
12637   9   1   18.838000   10.057000  -8.865000
12638   9   1   18.879000   10.009000  -7.279000
12639   9   1   18.889000   7.142000  -9.478000
12640   9   1   18.936000   7.085000  -6.854000
12641   9   1   17.648000   9.246000  -6.728000
12642   9   1   17.601000   7.851000  -8.919000
12643   9   1   17.632000   7.818000  -7.336000
12644   9   1   17.588000   9.312000  -9.435000
12645   9   1   21.405000   10.14000  -8.912000
12646   9   1   21.445000   10.087000  -7.34000
12647   9   1   21.449000   7.17000  -9.516000
12648   9   1   21.503000   7.111000  -6.906000
12649   9   1   20.195000   9.296000  -6.813000
12650   9   1   20.17000   7.883000  -8.952000
12651   9   1   20.202000   7.843000  -7.386000
12652   9   1   20.133000   9.374000  -9.435000
12653   9   1   23.972000   10.165000  -8.977000
12654   9   1   24.011000   10.123000  -7.413000
12655   9   1   24.006000   7.188000  -9.569000
12656   9   1   24.065000   7.136000  -6.961000
12657   9   1   22.757000   9.349000  -6.88000
12658   9   1   22.729000   7.918000  -9.003000
12659   9   1   22.764000   7.88000  -7.44000
12660   9   1   22.689000   9.421000  -9.485000
12661   9   1   26.554000   10.152000  -9.052000
12662   9   1   26.594000   10.12000  -7.489000
12663   9   1   26.571000   7.184000  -9.629000
12664   9   1   26.631000   7.143000  -7.021000
12665   9   1   25.323000   9.37000  -6.948000
12666   9   1   25.294000   7.925000  -9.064000
12667   9   1   25.329000   7.894000  -7.5000
12668   9   1   25.256000   9.427000  -9.553000
12669   9   1   29.146000   10.123000  -9.125000
12670   9   1   29.183000   10.099000  -7.561000
12671   9   1   29.148000   7.166000  -9.69000
12672   9   1   29.205000   7.132000  -7.081000
12673   9   1   27.904000   9.362000  -7.017000
12674   9   1   27.868000   7.912000  -9.127000
12675   9   1   27.904000   7.886000  -7.563000
12676   9   1   27.839000   9.406000  -9.623000
12677   9   1   31.741000   10.092000  -9.189000
12678   9   1   31.772000   10.072000  -7.625000
12679   9   1   31.729000   7.142000  -9.748000
12680   9   1   31.784000   7.112000  -7.14000
12681   9   1   30.489000   9.34000  -7.083000
12682   9   1   30.45000   7.888000  -9.189000
12683   9   1   30.483000   7.867000  -7.625000
12684   9   1   30.43000   9.377000  -9.69000
12685   9   1   34.334000   10.065000  -9.243000
12686   9   1   34.361000   10.046000  -7.678000
12687   9   1   34.316000   7.117000  -9.802000
12688   9   1   34.363000   7.088000  -7.192000
12689   9   1   33.074000   9.315000  -7.14000
12690   9   1   33.035000   7.861000  -9.246000
12691   9   1   33.065000   7.843000  -7.681000
12692   9   1   33.024000   9.348000  -9.748000
12693   9   1   36.926000   10.041000  -9.283000
12694   9   1   36.947000   10.019000  -7.719000
12695   9   1   36.903000   7.094000  -9.846000
12696   9   1   36.942000   7.064000  -7.236000
12697   9   1   35.658000   9.289000  -7.188000
12698   9   1   35.622000   7.836000  -9.294000
12699   9   1   35.647000   7.818000  -7.729000
12700   9   1   35.618000   9.322000  -9.797000
12701   9   1   39.516000   10.019000  -9.31000
12702   9   1   39.531000   9.996000  -7.747000
12703   9   1   39.49000   7.074000  -9.882000
12704   9   1   39.52000   7.038000  -7.271000
12705   9   1   38.24000   9.263000  -7.223000
12706   9   1   38.208000   7.814000  -9.333000
12707   9   1   38.229000   7.793000  -7.768000
12708   9   1   38.211000   9.301000  -9.832000
12709   9   1   42.105000   10.002000  -9.325000
12710   9   1   42.114000   9.971000  -7.761000
12711   9   1   42.074000   7.057000  -9.907000
12712   9   1   42.096000   7.01000  -7.296000
12713   9   1   40.821000   9.236000  -7.247000
12714   9   1   40.792000   7.795000  -9.361000
12715   9   1   40.808000   7.768000  -7.796000
12716   9   1   40.801000   9.284000  -9.855000
12717   9   1   44.689000   9.987000  -9.328000
12718   9   1   44.694000   9.944000  -7.763000
12719   9   1   44.651000   7.038000  -9.925000
12720   9   1   44.668000   6.98000  -7.314000
12721   9   1   43.399000   9.208000  -7.259000
12722   9   1   43.373000   7.776000  -9.379000
12723   9   1   43.385000   7.743000  -7.814000
12724   9   1   43.388000   9.269000  -9.867000
12725   9   1   47.268000   9.97000  -9.323000
12726   9   1   47.27000   9.914000  -7.759000
12727   9   1   47.221000   7.015000  -9.94000
12728   9   1   47.237000   6.944000  -7.33000
12729   9   1   45.974000   9.177000  -7.262000
12730   9   1   45.949000   7.755000  -9.391000
12731   9   1   45.958000   7.713000  -7.828000
12732   9   1   45.969000   9.254000  -9.871000
12733   9   1   49.834000   9.93000  -9.322000
12734   9   1   49.836000   9.863000  -7.756000
12735   9   1   49.783000   6.983000  -9.959000
12736   9   1   49.803000   6.902000  -7.347000
12737   9   1   48.541000   9.131000  -7.264000
12738   9   1   48.515000   7.727000  -9.403000
12739   9   1   48.525000   7.675000  -7.839000
12740   9   1   48.536000   9.228000  -9.873000
12741   9   1   52.395000   9.858000  -9.344000
12742   9   1   52.396000   9.794000  -7.764000
12743   9   1   52.346000   6.951000  -9.993000
12744   9   1   52.375000   6.87000  -7.369000
12745   9   1   51.103000   9.073000  -7.267000
12746   9   1   51.078000   7.685000  -9.423000
12747   9   1   51.09000   7.63000  -7.857000
12748   9   1   51.093000   9.178000  -9.889000
12749   9   1   54.891000   6.923000  -10.075000
12750   9   1   54.923000   6.857000  -7.367000
12751   9   1   53.65000   9.035000  -7.254000
12752   9   1   53.648000   7.656000  -9.463000
12753   9   1   53.662000   7.611000  -7.88000
12754   9   1   53.634000   9.125000  -9.962000
12755   9   1   18.784000   11.519000  -9.372000
12756   9   1   18.869000   11.421000  -6.642000
12757   9   1   21.329000   11.653000  -9.383000
12758   9   1   21.41000   11.554000  -6.745000
12759   9   1   20.014000   12.27000  -8.773000
12760   9   1   20.067000   12.205000  -7.218000
12761   9   3   23.874000   14.612000  -8.825000
12762   9   3   23.918000   14.565000  -7.27000
12763   9   1   23.909000   11.674000  -9.453000
12764   9   1   23.987000   11.598000  -6.844000
12765   9   3   22.642000   13.812000  -6.677000
12766   9   1   22.603000   12.405000  -8.863000
12767   9   1   22.647000   12.351000  -7.288000
12768   9   3   22.555000   13.912000  -9.346000
12769   9   3   26.525000   14.563000  -8.945000
12770   9   3   26.566000   14.53000  -7.389000
12771   9   1   26.515000   11.651000  -9.541000
12772   9   1   26.588000   11.594000  -6.932000
12773   9   3   25.262000   13.831000  -6.806000
12774   9   1   25.22000   12.398000  -8.96000
12775   9   1   25.264000   12.358000  -7.385000
12776   9   3   25.182000   13.9000  -9.452000
12777   9   3   29.147000   14.524000  -9.044000
12778   9   3   29.185000   14.499000  -7.486000
12779   9   1   29.124000   11.613000  -9.621000
12780   9   1   29.19000   11.57000  -7.012000
12781   9   3   27.888000   13.801000  -6.908000
12782   9   1   27.835000   12.36000  -9.051000
12783   9   1   27.876000   12.332000  -7.475000
12784   9   3   27.815000   13.851000  -9.557000
12785   9   3   31.758000   14.491000  -9.121000
12786   9   3   31.789000   14.472000  -7.564000
12787   9   1   31.728000   11.58000  -9.69000
12788   9   1   31.785000   11.544000  -7.079000
12789   9   3   30.496000   13.773000  -6.991000
12790   9   1   30.442000   12.326000  -9.128000
12791   9   1   30.478000   12.304000  -7.553000
12792   9   3   30.433000   13.812000  -9.642000
12793   9   3   34.358000   14.462000  -9.179000
12794   9   3   34.385000   14.445000  -7.621000
12795   9   1   34.329000   11.55000  -9.745000
12796   9   1   34.375000   11.516000  -7.133000
12797   9   3   33.093000   13.747000  -7.056000
12798   9   1   33.044000   12.295000  -9.191000
12799   9   1   33.074000   12.276000  -7.616000
12800   9   3   33.041000   13.781000  -9.709000
12801   9   3   36.957000   14.437000  -9.214000
12802   9   3   36.977000   14.419000  -7.657000
12803   9   1   36.928000   11.526000  -9.784000
12804   9   1   36.961000   11.489000  -7.172000
12805   9   3   35.683000   13.719000  -7.103000
12806   9   1   35.641000   12.269000  -9.238000
12807   9   1   35.666000   12.249000  -7.663000
12808   9   3   35.644000   13.753000  -9.756000
12809   9   3   39.553000   14.417000  -9.23000
12810   9   3   39.566000   14.394000  -7.672000
12811   9   1   39.525000   11.507000  -9.808000
12812   9   1   39.545000   11.463000  -7.195000
12813   9   3   38.271000   13.692000  -7.129000
12814   9   1   38.237000   12.245000  -9.268000
12815   9   1   38.254000   12.224000  -7.693000
12816   9   3   38.244000   13.731000  -9.783000
12817   9   3   42.149000   14.4000  -9.221000
12818   9   3   42.157000   14.369000  -7.663000
12819   9   1   42.12000   11.493000  -9.815000
12820   9   1   42.129000   11.435000  -7.203000
12821   9   3   40.856000   13.665000  -7.136000
12822   9   1   40.832000   12.228000  -9.28000
12823   9   1   40.841000   12.2000  -7.705000
12824   9   3   40.844000   13.715000  -9.79000
12825   9   3   44.747000   14.385000  -9.19000
12826   9   3   44.749000   14.342000  -7.632000
12827   9   1   44.714000   11.481000  -9.807000
12828   9   1   44.713000   11.406000  -7.195000
12829   9   3   43.444000   13.637000  -7.121000
12830   9   1   43.424000   12.212000  -9.275000
12831   9   1   43.429000   12.175000  -7.7000
12832   9   3   43.443000   13.703000  -9.774000
12833   9   3   47.353000   14.376000  -9.129000
12834   9   3   47.348000   14.315000  -7.577000
12835   9   1   47.306000   11.475000  -9.785000
12836   9   1   47.296000   11.374000  -7.177000
12837   9   3   46.036000   13.604000  -7.086000
12838   9   1   46.017000   12.2000  -9.253000
12839   9   1   46.018000   12.146000  -7.679000
12840   9   3   46.049000   13.696000  -9.734000
12841   9   1   49.88000   11.439000  -9.768000
12842   9   1   49.869000   11.313000  -7.153000
12843   9   3   48.645000   13.577000  -7.031000
12844   9   1   48.614000   12.188000  -9.218000
12845   9   1   48.609000   12.117000  -7.646000
12846   9   3   48.67000   13.706000  -9.664000
12847   9   1   52.417000   11.325000  -9.819000
12848   9   1   52.406000   11.202000  -7.12000
12849   9   1   51.197000   12.107000  -9.196000
12850   9   1   51.185000   12.029000  -7.62000
12851   9   1   5.869000   -16.362000  -8.867000
12852   9   1   5.889000   -16.356000  -7.314000
12853   9   1   8.442000   -16.381000  -8.907000
12854   9   1   8.461000   -16.371000  -7.334000
12855   9   1   8.488000   -19.352000  -9.422000
12856   9   1   8.521000   -19.333000  -6.769000
12857   9   1   7.182000   -17.105000  -6.775000
12858   9   1   7.222000   -18.592000  -8.867000
12859   9   1   7.242000   -18.583000  -7.309000
12860   9   1   7.149000   -17.118000  -9.424000
12861   9   1   11.045000   -16.398000  -8.933000
12862   9   1   11.065000   -16.389000  -7.368000
12863   9   1   11.069000   -19.353000  -9.432000
12864   9   1   11.102000   -19.333000  -6.818000
12865   9   1   9.777000   -17.11000  -6.823000
12866   9   1   9.775000   -18.608000  -8.905000
12867   9   1   9.794000   -18.598000  -7.329000
12868   9   1   9.746000   -17.127000  -9.436000
12869   9   1   13.644000   -16.417000  -8.961000
12870   9   1   13.664000   -16.408000  -7.397000
12871   9   1   13.654000   -19.366000  -9.46000
12872   9   1   13.688000   -19.345000  -6.851000
12873   9   1   12.374000   -17.127000  -6.855000
12874   9   1   12.364000   -18.619000  -8.929000
12875   9   1   12.384000   -18.608000  -7.364000
12876   9   1   12.342000   -17.143000  -9.463000
12877   9   1   16.236000   -16.434000  -8.991000
12878   9   1   16.257000   -16.427000  -7.426000
12879   9   1   16.239000   -19.382000  -9.493000
12880   9   1   16.274000   -19.363000  -6.882000
12881   9   1   14.968000   -17.146000  -6.883000
12882   9   1   14.951000   -18.634000  -8.96000
12883   9   1   14.971000   -18.624000  -7.395000
12884   9   1   14.935000   -17.161000  -9.495000
12885   9   1   18.824000   -16.452000  -9.022000
12886   9   1   18.845000   -16.445000  -7.457000
12887   9   1   18.82000   -19.4000  -9.529000
12888   9   1   18.857000   -19.383000  -6.917000
12889   9   1   17.558000   -17.165000  -6.914000
12890   9   1   17.536000   -18.652000  -8.992000
12891   9   1   17.558000   -18.643000  -7.428000
12892   9   1   17.523000   -17.179000  -9.526000
12893   9   1   21.4000   -19.419000  -9.568000
12894   9   1   21.44000   -19.405000  -6.962000
12895   9   1   20.146000   -17.185000  -6.95000
12896   9   1   20.119000   -18.67000  -9.03000
12897   9   1   20.142000   -18.664000  -7.466000
12898   9   1   20.109000   -17.197000  -9.559000
12899   9   1   52.282000   -19.606000  -10.174000
12900   9   1   52.318000   -19.584000  -7.566000
12901   9   1   54.896000   -16.67000  -9.701000
12902   9   1   54.916000   -16.662000  -8.136000
12903   9   1   54.861000   -19.62000  -10.2000
12904   9   1   54.891000   -19.597000  -7.588000
12905   9   1   53.625000   -17.384000  -7.596000
12906   9   1   53.584000   -18.872000  -9.672000
12907   9   1   53.604000   -18.861000  -8.108000
12908   9   1   53.592000   -17.398000  -10.207000
12909   9   1   57.48000   -16.687000  -9.726000
12910   9   1   57.496000   -16.678000  -8.161000
12911   9   1   57.438000   -19.637000  -10.225000
12912   9   1   57.465000   -19.614000  -7.612000
12913   9   1   56.203000   -17.4000  -7.62000
12914   9   1   56.162000   -18.888000  -9.697000
12915   9   1   56.18000   -18.876000  -8.132000
12916   9   1   56.175000   -17.415000  -10.233000
12917   9   1   60.066000   -16.706000  -9.745000
12918   9   1   60.078000   -16.697000  -8.181000
12919   9   1   60.012000   -19.659000  -10.249000
12920   9   1   60.035000   -19.64000  -7.633000
12921   9   1   58.782000   -17.417000  -7.644000
12922   9   1   58.74000   -18.907000  -9.72000
12923   9   1   58.756000   -18.896000  -8.155000
12924   9   1   58.759000   -17.432000  -10.255000
12925   9   1   62.652000   -16.734000  -9.761000
12926   9   1   62.659000   -16.726000  -8.187000
12927   9   1   62.582000   -19.693000  -10.289000
12928   9   1   62.602000   -19.678000  -7.631000
12929   9   1   61.357000   -17.442000  -7.658000
12930   9   1   61.317000   -18.934000  -9.744000
12931   9   1   61.329000   -18.924000  -8.17000
12932   9   1   61.342000   -17.456000  -10.273000
12933   9   1   65.201000   -16.777000  -9.749000
12934   9   1   65.201000   -16.772000  -8.195000
12935   9   1   63.924000   -17.486000  -7.647000
12936   9   1   63.856000   -18.958000  -9.749000
12937   9   1   63.865000   -18.952000  -8.191000
12938   9   1   63.917000   -17.496000  -10.3000
12939   9   1   8.548000   -20.819000  -8.859000
12940   9   1   8.567000   -20.808000  -7.302000
12941   9   1   11.094000   -20.832000  -8.897000
12942   9   1   11.114000   -20.82000  -7.322000
12943   9   1   11.115000   -23.797000  -9.404000
12944   9   1   11.151000   -23.773000  -6.748000
12945   9   1   9.841000   -21.556000  -6.759000
12946   9   1   9.859000   -23.04000  -8.849000
12947   9   1   9.881000   -23.026000  -7.291000
12948   9   1   9.807000   -21.577000  -9.414000
12949   9   1   13.674000   -20.839000  -8.923000
12950   9   1   13.695000   -20.828000  -7.358000
12951   9   1   13.687000   -23.795000  -9.417000
12952   9   1   13.723000   -23.774000  -6.801000
12953   9   1   12.417000   -21.554000  -6.81000
12954   9   1   12.401000   -23.052000  -8.888000
12955   9   1   12.423000   -23.039000  -7.313000
12956   9   1   12.383000   -21.576000  -9.424000
12957   9   1   16.255000   -20.854000  -8.956000
12958   9   1   16.276000   -20.844000  -7.391000
12959   9   1   16.26000   -23.807000  -9.45000
12960   9   1   16.296000   -23.787000  -6.838000
12961   9   1   14.996000   -21.565000  -6.845000
12962   9   1   14.977000   -23.059000  -8.917000
12963   9   1   14.999000   -23.048000  -7.352000
12964   9   1   14.96000   -21.586000  -9.455000
12965   9   1   18.833000   -20.873000  -8.993000
12966   9   1   18.857000   -20.863000  -7.428000
12967   9   1   18.833000   -23.826000  -9.487000
12968   9   1   18.871000   -23.807000  -6.875000
12969   9   1   17.575000   -21.583000  -6.879000
12970   9   1   17.553000   -23.075000  -8.952000
12971   9   1   17.575000   -23.064000  -7.387000
12972   9   1   17.538000   -21.602000  -9.491000
12973   9   1   21.412000   -20.895000  -9.034000
12974   9   1   21.436000   -20.886000  -7.472000
12975   9   1   21.406000   -23.851000  -9.528000
12976   9   1   21.444000   -23.833000  -6.916000
12977   9   1   20.155000   -21.606000  -6.918000
12978   9   1   20.128000   -23.098000  -8.991000
12979   9   1   20.15000   -23.086000  -7.426000
12980   9   1   20.115000   -21.624000  -9.529000
12981   9   1   23.979000   -23.88000  -9.57000
12982   9   1   24.019000   -23.86000  -6.963000
12983   9   1   22.732000   -21.631000  -6.966000
12984   9   1   22.703000   -23.123000  -9.034000
12985   9   1   22.725000   -23.114000  -7.471000
12986   9   1   22.69000   -21.648000  -9.573000
12987   9   1   49.673000   -24.031000  -10.07000
12988   9   1   49.716000   -23.996000  -7.462000
12989   9   1   52.275000   -21.078000  -9.632000
12990   9   1   52.298000   -21.064000  -8.068000
12991   9   1   52.246000   -24.035000  -10.103000
12992   9   1   52.285000   -24.001000  -7.492000
12993   9   1   51.014000   -21.787000  -7.522000
12994   9   1   50.972000   -23.288000  -9.578000
12995   9   1   50.997000   -23.271000  -8.015000
12996   9   1   50.975000   -21.818000  -10.128000
12997   9   1   54.85000   -21.091000  -9.658000
12998   9   1   54.871000   -21.076000  -8.093000
12999   9   1   54.817000   -24.045000  -10.134000
13000   9   1   54.853000   -24.012000  -7.521000
13001   9   1   53.586000   -21.796000  -7.545000
13002   9   1   53.544000   -23.296000  -9.608000
13003   9   1   53.567000   -23.279000  -8.044000
13004   9   1   53.551000   -21.827000  -10.157000
13005   9   1   57.424000   -21.109000  -9.684000
13006   9   1   57.442000   -21.094000  -8.119000
13007   9   1   57.386000   -24.063000  -10.167000
13008   9   1   57.419000   -24.031000  -7.549000
13009   9   1   56.156000   -21.812000  -7.572000
13010   9   1   56.116000   -23.31000  -9.638000
13011   9   1   56.135000   -23.292000  -8.073000
13012   9   1   56.123000   -21.841000  -10.184000
13013   9   1   59.997000   -21.134000  -9.714000
13014   9   1   60.013000   -21.121000  -8.139000
13015   9   1   59.952000   -24.09000  -10.218000
13016   9   1   59.984000   -24.06000  -7.56000
13017   9   1   58.724000   -21.835000  -7.596000
13018   9   1   58.686000   -23.334000  -9.672000
13019   9   1   58.705000   -23.316000  -8.097000
13020   9   1   58.694000   -21.861000  -10.213000
13021   9   1   62.535000   -21.153000  -9.729000
13022   9   1   62.55000   -21.142000  -8.171000
13023   9   1   61.289000   -21.868000  -7.602000
13024   9   1   61.223000   -23.349000  -9.693000
13025   9   1   61.241000   -23.333000  -8.135000
13026   9   1   61.263000   -21.893000  -10.259000
13027   9   1   11.161000   -25.257000  -8.839000
13028   9   1   11.183000   -25.244000  -7.28000
13029   9   1   13.7000   -25.271000  -8.88000
13030   9   1   13.724000   -25.259000  -7.306000
13031   9   1   13.701000   -28.224000  -9.395000
13032   9   1   13.741000   -28.207000  -6.737000
13033   9   1   12.452000   -25.99000  -6.739000
13034   9   1   12.452000   -27.471000  -8.832000
13035   9   1   12.475000   -27.458000  -7.275000
13036   9   1   12.412000   -26.012000  -9.397000
13037   9   1   16.273000   -25.279000  -8.911000
13038   9   1   16.296000   -25.268000  -7.346000
13039   9   1   16.268000   -28.228000  -9.412000
13040   9   1   16.308000   -28.216000  -6.795000
13041   9   1   15.02000   -25.994000  -6.795000
13042   9   1   14.99000   -27.487000  -8.878000
13043   9   1   15.014000   -27.477000  -7.302000
13044   9   1   14.982000   -26.014000  -9.411000
13045   9   1   18.845000   -25.298000  -8.948000
13046   9   1   18.868000   -25.288000  -7.384000
13047   9   1   18.837000   -28.249000  -9.446000
13048   9   1   18.874000   -28.238000  -6.834000
13049   9   1   17.59000   -26.01000  -6.834000
13050   9   1   17.562000   -27.5000  -8.909000
13051   9   1   17.584000   -27.492000  -7.344000
13052   9   1   17.551000   -26.027000  -9.445000
13053   9   1   21.417000   -25.325000  -8.988000
13054   9   1   21.44000   -25.315000  -7.423000
13055   9   1   21.405000   -28.279000  -9.482000
13056   9   1   21.441000   -28.268000  -6.869000
13057   9   1   20.16000   -26.035000  -6.871000
13058   9   1   20.131000   -27.524000  -8.946000
13059   9   1   20.153000   -27.516000  -7.381000
13060   9   1   20.122000   -26.051000  -9.483000
13061   9   1   23.989000   -25.355000  -9.029000
13062   9   1   24.01000   -25.344000  -7.465000
13063   9   1   23.972000   -28.314000  -9.517000
13064   9   1   24.006000   -28.3000  -6.905000
13065   9   1   22.729000   -26.063000  -6.91000
13066   9   1   22.7000   -27.556000  -8.983000
13067   9   1   22.72000   -27.547000  -7.418000
13068   9   1   22.693000   -26.082000  -9.523000
13069   9   1   26.539000   -28.351000  -9.552000
13070   9   1   26.574000   -28.332000  -6.943000
13071   9   1   25.3000   -26.094000  -6.954000
13072   9   1   25.267000   -27.589000  -9.021000
13073   9   1   25.288000   -27.579000  -7.456000
13074   9   1   25.263000   -26.114000  -9.562000
13075   9   1   47.088000   -28.463000  -9.927000
13076   9   1   47.137000   -28.427000  -7.316000
13077   9   1   49.673000   -25.499000  -9.515000
13078   9   1   49.701000   -25.48000  -7.951000
13079   9   1   49.654000   -28.456000  -9.974000
13080   9   1   49.7000   -28.421000  -7.362000
13081   9   1   48.424000   -26.208000  -7.392000
13082   9   1   48.38000   -27.714000  -9.443000
13083   9   1   48.41000   -27.694000  -7.88000
13084   9   1   48.377000   -26.245000  -10.001000
13085   9   1   52.242000   -25.503000  -9.55000
13086   9   1   52.268000   -25.482000  -7.985000
13087   9   1   52.222000   -28.453000  -10.016000
13088   9   1   52.263000   -28.42000  -7.403000
13089   9   1   50.989000   -26.208000  -7.429000
13090   9   1   50.948000   -27.712000  -9.486000
13091   9   1   50.975000   -27.692000  -7.922000
13092   9   1   50.947000   -26.245000  -10.041000
13093   9   1   54.813000   -25.512000  -9.583000
13094   9   1   54.835000   -25.492000  -8.019000
13095   9   1   54.789000   -28.46000  -10.057000
13096   9   1   54.826000   -28.426000  -7.439000
13097   9   1   53.554000   -26.214000  -7.464000
13098   9   1   53.517000   -27.715000  -9.524000
13099   9   1   53.54000   -27.695000  -7.959000
13100   9   1   53.516000   -26.25000  -10.076000
13101   9   1   57.382000   -25.532000  -9.621000
13102   9   1   57.403000   -25.513000  -8.046000
13103   9   1   57.355000   -28.481000  -10.113000
13104   9   1   57.391000   -28.445000  -7.455000
13105   9   1   56.119000   -26.227000  -7.495000
13106   9   1   56.086000   -27.73000  -9.566000
13107   9   1   56.107000   -27.709000  -7.991000
13108   9   1   56.084000   -26.262000  -10.114000
13109   9   1   59.919000   -25.544000  -9.646000
13110   9   1   59.94000   -25.526000  -8.089000
13111   9   1   58.684000   -26.252000  -7.508000
13112   9   1   58.622000   -27.738000  -9.592000
13113   9   1   58.643000   -27.718000  -8.034000
13114   9   1   58.65000   -26.288000  -10.168000
13115   9   1   13.734000   -29.68000  -8.835000
13116   9   1   13.759000   -29.671000  -7.278000
13117   9   1   16.272000   -29.701000  -8.883000
13118   9   1   16.296000   -29.696000  -7.308000
13119   9   1   16.251000   -32.637000  -9.427000
13120   9   1   16.287000   -32.643000  -6.767000
13121   9   1   15.02000   -30.424000  -6.744000
13122   9   1   15.007000   -31.888000  -8.852000
13123   9   1   15.03000   -31.886000  -7.294000
13124   9   1   14.98000   -30.432000  -9.404000
13125   9   1   18.843000   -29.722000  -8.914000
13126   9   1   18.863000   -29.718000  -7.35000
13127   9   1   18.82000   -32.658000  -9.442000
13128   9   1   18.85000   -32.671000  -6.823000
13129   9   1   17.585000   -30.441000  -6.803000
13130   9   1   17.545000   -31.917000  -8.9000
13131   9   1   17.567000   -31.918000  -7.325000
13132   9   1   17.548000   -30.444000  -9.421000
13133   9   1   21.41000   -29.753000  -8.947000
13134   9   1   21.429000   -29.75000  -7.383000
13135   9   1   21.386000   -32.702000  -9.469000
13136   9   1   21.411000   -32.713000  -6.856000
13137   9   1   20.149000   -30.472000  -6.84000
13138   9   1   20.115000   -31.947000  -8.928000
13139   9   1   20.132000   -31.95000  -7.363000
13140   9   1   20.116000   -30.472000  -9.453000
13141   9   1   23.975000   -29.791000  -8.981000
13142   9   1   23.993000   -29.786000  -7.415000
13143   9   1   23.949000   -32.749000  -9.493000
13144   9   1   23.97000   -32.756000  -6.882000
13145   9   1   22.711000   -30.508000  -6.872000
13146   9   1   22.681000   -31.989000  -8.956000
13147   9   1   22.695000   -31.991000  -7.392000
13148   9   1   22.681000   -30.511000  -9.485000
13149   9   1   26.541000   -29.828000  -9.012000
13150   9   1   26.559000   -29.82000  -7.448000
13151   9   1   26.514000   -32.791000  -9.517000
13152   9   1   26.535000   -32.789000  -6.906000
13153   9   1   25.275000   -30.544000  -6.903000
13154   9   1   25.244000   -32.031000  -8.984000
13155   9   1   25.257000   -32.03000  -7.418000
13156   9   1   25.246000   -30.552000  -9.515000
13157   9   1   29.107000   -29.863000  -9.043000
13158   9   1   29.126000   -29.852000  -7.48000
13159   9   1   29.082000   -32.826000  -9.541000
13160   9   1   29.108000   -32.814000  -6.931000
13161   9   1   27.842000   -30.574000  -6.933000
13162   9   1   27.809000   -32.067000  -9.009000
13163   9   1   27.824000   -32.062000  -7.444000
13164   9   1   27.812000   -30.589000  -9.545000
13165   9   1   31.678000   -29.895000  -9.073000
13166   9   1   31.699000   -29.88000  -7.512000
13167   9   1   31.655000   -32.854000  -9.57000
13168   9   1   31.686000   -32.835000  -6.959000
13169   9   1   30.413000   -30.602000  -6.965000
13170   9   1   30.379000   -32.098000  -9.037000
13171   9   1   30.397000   -32.088000  -7.473000
13172   9   1   30.38000   -30.623000  -9.573000
13173   9   1   34.25000   -29.921000  -9.108000
13174   9   1   34.274000   -29.903000  -7.55000
13175   9   1   34.231000   -32.876000  -9.603000
13176   9   1   34.267000   -32.854000  -6.993000
13177   9   1   32.99000   -30.625000  -6.999000
13178   9   1   32.954000   -32.124000  -9.069000
13179   9   1   32.975000   -32.111000  -7.504000
13180   9   1   32.952000   -30.651000  -9.605000
13181   9   1   36.822000   -29.938000  -9.153000
13182   9   1   36.849000   -29.919000  -7.593000
13183   9   1   36.806000   -32.894000  -9.643000
13184   9   1   36.849000   -32.868000  -7.033000
13185   9   1   35.567000   -30.642000  -7.038000
13186   9   1   35.53000   -32.145000  -9.106000
13187   9   1   35.553000   -32.13000  -7.542000
13188   9   1   35.524000   -30.673000  -9.645000
13189   9   1   39.394000   -29.949000  -9.203000
13190   9   1   39.424000   -29.928000  -7.643000
13191   9   1   39.382000   -32.907000  -9.69000
13192   9   1   39.431000   -32.879000  -7.08000
13193   9   1   38.146000   -30.656000  -7.084000
13194   9   1   38.105000   -32.159000  -9.15000
13195   9   1   38.133000   -32.143000  -7.586000
13196   9   1   38.097000   -30.688000  -9.691000
13197   9   1   41.965000   -29.951000  -9.261000
13198   9   1   41.995000   -29.93000  -7.7000
13199   9   1   41.954000   -32.912000  -9.743000
13200   9   1   42.008000   -32.885000  -7.132000
13201   9   1   40.719000   -30.662000  -7.137000
13202   9   1   40.679000   -32.167000  -9.202000
13203   9   1   40.71000   -32.15000  -7.637000
13204   9   1   40.668000   -30.695000  -9.744000
13205   9   1   44.531000   -29.944000  -9.319000
13206   9   1   44.563000   -29.924000  -7.756000
13207   9   1   44.523000   -32.906000  -9.798000
13208   9   1   44.579000   -32.884000  -7.187000
13209   9   1   43.291000   -30.661000  -7.192000
13210   9   1   43.249000   -32.166000  -9.256000
13211   9   1   43.281000   -32.15000  -7.692000
13212   9   1   43.238000   -30.693000  -9.802000
13213   9   1   47.095000   -29.933000  -9.374000
13214   9   1   47.125000   -29.915000  -7.81000
13215   9   1   47.087000   -32.893000  -9.853000
13216   9   1   47.142000   -32.874000  -7.241000
13217   9   1   45.856000   -30.654000  -7.247000
13218   9   1   45.814000   -32.157000  -9.311000
13219   9   1   45.848000   -32.143000  -7.747000
13220   9   1   45.802000   -30.684000  -9.858000
13221   9   1   49.659000   -29.923000  -9.422000
13222   9   1   49.688000   -29.906000  -7.858000
13223   9   1   49.65000   -32.871000  -9.905000
13224   9   1   49.702000   -32.855000  -7.293000
13225   9   1   48.418000   -30.643000  -7.298000
13226   9   1   48.377000   -32.141000  -9.363000
13227   9   1   48.409000   -32.128000  -7.8000
13228   9   1   48.366000   -30.671000  -9.91000
13229   9   1   52.225000   -29.919000  -9.466000
13230   9   1   52.252000   -29.9000  -7.901000
13231   9   1   52.216000   -32.854000  -9.957000
13232   9   1   52.262000   -32.838000  -7.337000
13233   9   1   50.978000   -30.632000  -7.344000
13234   9   1   50.941000   -32.125000  -9.413000
13235   9   1   50.97000   -32.114000  -7.849000
13236   9   1   50.932000   -30.659000  -9.957000
13237   9   1   54.795000   -29.925000  -9.511000
13238   9   1   54.817000   -29.907000  -7.937000
13239   9   1   54.784000   -32.858000  -10.019000
13240   9   1   54.826000   -32.835000  -7.358000
13241   9   1   53.54000   -30.629000  -7.384000
13242   9   1   53.511000   -32.122000  -9.463000
13243   9   1   53.536000   -32.107000  -7.887000
13244   9   1   53.499000   -30.657000  -10.002000
13245   9   1   57.332000   -29.93000  -9.54000
13246   9   1   57.354000   -29.91000  -7.982000
13247   9   1   56.104000   -30.64000  -7.402000
13248   9   1   56.048000   -32.119000  -9.493000
13249   9   1   56.071000   -32.101000  -7.935000
13250   9   1   56.066000   -30.672000  -10.062000
13251   9   1   16.27000   -34.093000  -8.888000
13252   9   1   16.289000   -34.097000  -7.33000
13253   9   1   18.81000   -34.133000  -8.932000
13254   9   1   18.826000   -34.143000  -7.357000
13255   9   1   18.764000   -37.031000  -9.533000
13256   9   1   18.773000   -37.083000  -6.872000
13257   9   1   17.54000   -34.862000  -6.808000
13258   9   1   17.522000   -36.289000  -8.946000
13259   9   1   17.532000   -36.306000  -7.388000
13260   9   1   17.512000   -34.836000  -9.469000
13261   9   1   21.379000   -34.181000  -8.953000
13262   9   1   21.387000   -34.194000  -7.388000
13263   9   1   21.321000   -37.13000  -9.525000
13264   9   1   21.32000   -37.182000  -6.911000
13265   9   1   20.101000   -34.912000  -6.859000
13266   9   1   20.061000   -36.358000  -8.98000
13267   9   1   20.066000   -36.382000  -7.406000
13268   9   1   20.083000   -34.879000  -9.477000
13269   9   1   23.937000   -34.232000  -8.973000
13270   9   1   23.946000   -34.242000  -7.408000
13271   9   1   23.884000   -37.196000  -9.524000
13272   9   1   23.881000   -37.235000  -6.917000
13273   9   1   22.656000   -34.971000  -6.882000
13274   9   1   22.619000   -36.433000  -8.988000
13275   9   1   22.618000   -36.454000  -7.423000
13276   9   1   22.643000   -34.944000  -9.492000
13277   9   1   26.504000   -34.273000  -8.991000
13278   9   1   26.512000   -34.276000  -7.427000
13279   9   1   26.461000   -37.233000  -9.524000
13280   9   1   26.464000   -37.251000  -6.918000
13281   9   1   25.219000   -35.008000  -6.898000
13282   9   1   25.185000   -36.483000  -8.994000
13283   9   1   25.185000   -36.495000  -7.43000
13284   9   1   25.208000   -34.994000  -9.507000
13285   9   1   29.076000   -34.304000  -9.012000
13286   9   1   29.086000   -34.3000  -7.447000
13287   9   1   29.043000   -37.261000  -9.531000
13288   9   1   29.054000   -37.264000  -6.923000
13289   9   1   27.792000   -35.031000  -6.913000
13290   9   1   27.761000   -36.512000  -9.003000
13291   9   1   27.766000   -36.516000  -7.438000
13292   9   1   27.777000   -35.028000  -9.522000
13293   9   1   31.654000   -34.329000  -9.036000
13294   9   1   31.668000   -34.321000  -7.471000
13295   9   1   31.627000   -37.285000  -9.546000
13296   9   1   31.648000   -37.277000  -6.937000
13297   9   1   30.375000   -35.048000  -6.934000
13298   9   1   30.344000   -36.535000  -9.016000
13299   9   1   30.354000   -36.533000  -7.452000
13300   9   1   30.353000   -35.057000  -9.543000
13301   9   1   34.232000   -34.351000  -9.067000
13302   9   1   34.252000   -34.339000  -7.502000
13303   9   1   34.212000   -37.305000  -9.571000
13304   9   1   34.242000   -37.29000  -6.961000
13305   9   1   32.962000   -35.064000  -6.959000
13306   9   1   32.929000   -36.557000  -9.038000
13307   9   1   32.944000   -36.549000  -7.473000
13308   9   1   32.932000   -35.08000  -9.568000
13309   9   1   36.813000   -34.368000  -9.105000
13310   9   1   36.837000   -34.354000  -7.541000
13311   9   1   36.796000   -37.323000  -9.605000
13312   9   1   36.836000   -37.305000  -6.996000
13313   9   1   35.549000   -35.079000  -6.992000
13314   9   1   35.513000   -36.576000  -9.069000
13315   9   1   35.535000   -36.566000  -7.504000
13316   9   1   35.511000   -35.1000  -9.601000
13317   9   1   39.391000   -34.38000  -9.15000
13318   9   1   39.421000   -34.366000  -7.587000
13319   9   1   39.381000   -37.337000  -9.65000
13320   9   1   39.43000   -37.319000  -7.041000
13321   9   1   38.137000   -35.094000  -7.034000
13322   9   1   38.099000   -36.591000  -9.109000
13323   9   1   38.126000   -36.579000  -7.544000
13324   9   1   38.091000   -35.115000  -9.643000
13325   9   1   41.968000   -34.386000  -9.203000
13326   9   1   42.001000   -34.373000  -7.639000
13327   9   1   41.965000   -37.346000  -9.704000
13328   9   1   42.023000   -37.331000  -7.096000
13329   9   1   40.723000   -35.105000  -7.083000
13330   9   1   40.684000   -36.602000  -9.158000
13331   9   1   40.716000   -36.592000  -7.594000
13332   9   1   40.669000   -35.125000  -9.692000
13333   9   1   44.539000   -34.383000  -9.259000
13334   9   1   44.574000   -34.372000  -7.694000
13335   9   1   44.546000   -37.347000  -9.765000
13336   9   1   44.613000   -37.342000  -7.158000
13337   9   1   43.303000   -35.112000  -7.138000
13338   9   1   43.266000   -36.607000  -9.215000
13339   9   1   43.302000   -36.601000  -7.652000
13340   9   1   43.245000   -35.129000  -9.747000
13341   9   1   47.104000   -34.367000  -9.316000
13342   9   1   47.141000   -34.361000  -7.751000
13343   9   1   47.121000   -37.329000  -9.833000
13344   9   1   47.193000   -37.339000  -7.225000
13345   9   1   45.877000   -35.11000  -7.196000
13346   9   1   45.841000   -36.601000  -9.276000
13347   9   1   45.882000   -36.6000  -7.713000
13348   9   1   45.814000   -35.12000  -9.804000
13349   9   1   49.666000   -34.34000  -9.37000
13350   9   1   49.7000   -34.337000  -7.806000
13351   9   1   49.683000   -37.286000  -9.904000
13352   9   1   49.754000   -37.308000  -7.286000
13353   9   1   48.44000   -35.094000  -7.253000
13354   9   1   48.406000   -36.575000  -9.34000
13355   9   1   48.449000   -36.579000  -7.776000
13356   9   1   48.379000   -35.095000  -9.864000
13357   9   1   52.232000   -34.319000  -9.426000
13358   9   1   52.264000   -34.312000  -7.851000
13359   9   1   52.253000   -37.213000  -9.985000
13360   9   1   52.317000   -37.235000  -7.318000
13361   9   1   50.997000   -35.059000  -7.303000
13362   9   1   50.968000   -36.528000  -9.405000
13363   9   1   51.008000   -36.534000  -7.829000
13364   9   1   50.94000   -35.058000  -9.922000
13365   9   1   54.774000   -34.303000  -9.459000
13366   9   1   54.8000   -34.292000  -7.9000
13367   9   1   53.56000   -35.032000  -7.328000
13368   9   1   53.511000   -36.479000  -9.445000
13369   9   1   53.546000   -36.479000  -7.886000
13370   9   1   53.51000   -35.037000  -9.991000
13371   9   1   18.737000   -38.48000  -9.027000
13372   9   1   18.731000   -38.513000  -7.474000
13373   9   1   21.269000   -38.627000  -9.044000
13374   9   1   21.257000   -38.663000  -7.473000
13375   9   1   19.93000   -39.365000  -6.973000
13376   9   1   19.95000   -39.281000  -9.612000
13377   9   1   23.843000   -38.694000  -9.029000
13378   9   1   23.833000   -38.722000  -7.463000
13379   9   1   22.509000   -39.468000  -6.97000
13380   9   1   22.53000   -39.401000  -9.58000
13381   9   1   26.435000   -38.722000  -9.017000
13382   9   1   26.431000   -38.736000  -7.45000
13383   9   1   25.117000   -39.476000  -6.944000
13384   9   1   25.127000   -39.438000  -9.556000
13385   9   1   29.027000   -38.744000  -9.013000
13386   9   1   29.031000   -38.748000  -7.447000
13387   9   1   27.723000   -39.48000  -6.928000
13388   9   1   27.722000   -39.467000  -9.543000
13389   9   1   31.619000   -38.765000  -9.022000
13390   9   1   31.629000   -38.762000  -7.455000
13391   9   1   30.326000   -39.49000  -6.924000
13392   9   1   30.314000   -39.491000  -9.541000
13393   9   1   34.209000   -38.784000  -9.042000
13394   9   1   34.227000   -38.776000  -7.475000
13395   9   1   32.928000   -39.501000  -6.936000
13396   9   1   32.904000   -39.512000  -9.553000
13397   9   1   36.8000   -38.801000  -9.074000
13398   9   1   36.824000   -38.792000  -7.508000
13399   9   1   35.528000   -39.516000  -6.961000
13400   9   1   35.494000   -39.531000  -9.578000
13401   9   1   39.392000   -38.815000  -9.12000
13402   9   1   39.421000   -38.805000  -7.553000
13403   9   1   38.129000   -39.53000  -6.999000
13404   9   1   38.084000   -39.547000  -9.617000
13405   9   1   41.983000   -38.826000  -9.177000
13406   9   1   42.02000   -38.82000  -7.611000
13407   9   1   40.731000   -39.545000  -7.052000
13408   9   1   40.676000   -39.56000  -9.668000
13409   9   1   44.577000   -38.832000  -9.244000
13410   9   1   44.62000   -38.832000  -7.679000
13411   9   1   43.336000   -39.562000  -7.118000
13412   9   1   43.269000   -39.568000  -9.732000
13413   9   1   47.169000   -38.819000  -9.323000
13414   9   1   47.218000   -38.829000  -7.753000
13415   9   1   45.941000   -39.577000  -7.197000
13416   9   1   45.865000   -39.565000  -9.809000
13417   9   1   49.737000   -38.774000  -9.401000
13418   9   1   49.789000   -38.793000  -7.828000
13419   9   1   48.549000   -39.572000  -7.272000
13420   9   1   48.463000   -39.534000  -9.908000
13421   9   1   52.291000   -38.652000  -9.453000
13422   9   1   52.336000   -38.669000  -7.898000
13423   9   1   51.128000   -39.443000  -7.319000
13424   9   1   51.041000   -39.389000  -10.014000
13425   9   3   23.773000   -41.615000  -9.657000
13426   9   3   23.76000   -41.676000  -6.971000
13427   9   3   22.459000   -40.914000  -9.114000
13428   9   3   22.443000   -40.961000  -7.537000
13429   9   3   26.389000   -41.643000  -9.613000
13430   9   3   26.391000   -41.67000  -6.916000
13431   9   3   25.09000   -40.933000  -9.066000
13432   9   3   25.086000   -40.959000  -7.484000
13433   9   3   28.992000   -41.669000  -9.589000
13434   9   3   29.005000   -41.676000  -6.889000
13435   9   3   27.7000   -40.956000  -9.036000
13436   9   3   27.703000   -40.966000  -7.454000
13437   9   3   31.59000   -41.692000  -9.583000
13438   9   3   31.613000   -41.686000  -6.882000
13439   9   3   30.301000   -40.976000  -9.025000
13440   9   3   30.31000   -40.978000  -7.441000
13441   9   3   34.184000   -41.713000  -9.595000
13442   9   3   34.217000   -41.698000  -6.893000
13443   9   3   32.898000   -40.996000  -9.03000
13444   9   3   32.913000   -40.99000  -7.447000
13445   9   3   36.779000   -41.731000  -9.623000
13446   9   3   36.821000   -41.712000  -6.922000
13447   9   3   35.493000   -41.014000  -9.052000
13448   9   3   35.515000   -41.005000  -7.469000
13449   9   3   39.374000   -41.746000  -9.668000
13450   9   3   39.425000   -41.728000  -6.968000
13451   9   3   38.089000   -41.03000  -9.09000
13452   9   3   38.116000   -41.02000  -7.507000
13453   9   3   41.975000   -41.756000  -9.732000
13454   9   3   42.033000   -41.744000  -7.034000
13455   9   3   40.688000   -41.044000  -9.144000
13456   9   3   40.72000   -41.036000  -7.561000
13457   9   3   44.583000   -41.761000  -9.813000
13458   9   3   44.649000   -41.764000  -7.119000
13459   9   3   43.291000   -41.054000  -9.214000
13460   9   3   43.328000   -41.051000  -7.633000
13461   9   3   47.209000   -41.754000  -9.927000
13462   9   3   47.287000   -41.787000  -7.217000
13463   9   3   45.905000   -41.061000  -9.306000
13464   9   3   45.949000   -41.071000  -7.719000
13465   9   3   48.492000   -41.013000  -9.399000
13466   9   3   48.547000   -41.042000  -7.836000
13467   9   3   21.061000   -41.679000  -7.076000
13468   9   3   19.845000   -40.771000  -9.166000
13469   9   3   19.821000   -40.827000  -7.583000
13470   9   3   21.101000   -41.571000  -9.712000
13471   9   3   51.236000   -41.011000  -7.379000
13472   9   3   49.926000   -41.736000  -9.494000
13473   9   3   49.983000   -41.779000  -7.931000
13474   9   3   51.136000   -40.937000  -10.083000
13475   9   3   51.244000   13.459000  -6.965000
13476   9   3   50.012000   14.377000  -9.049000
13477   9   3   49.997000   14.296000  -7.467000
13478   9   3   51.282000   13.612000  -9.607000
13479   9   3   21.184000   14.537000  -6.548000
13480   9   3   19.885000   13.832000  -8.666000
13481   9   3   19.94000   13.759000  -7.106000
13482   9   3   21.09000   14.66000  -9.239000
13483   9   4   3.558000   -12.104000  -9.017000
13484   9   4   3.57000   -12.109000  -7.107000
13485   9   4   3.506000   -14.522000  -9.235000
13486   9   4   3.539000   -14.533000  -6.911000
13487   9   4   67.581000   -12.652000  -9.873000
13488   9   4   67.583000   -12.654000  -7.97000
13489   9   4   67.549000   -15.077000  -10.099000
13490   9   4   67.523000   -15.088000  -7.773000
13491   9   2   5.019000   -16.91000  -6.988000
13492   9   2   4.99000   -16.917000  -9.167000
13493   9   4   23.772000   -42.663000  -9.387000
13494   9   4   23.775000   -42.712000  -7.284000
13495   9   4   20.939000   -42.596000  -9.405000
13496   9   4   20.907000   -42.66000  -7.507000
13497   9   4   18.946000   -41.194000  -9.596000
13498   9   4   18.901000   -41.297000  -7.261000
13499   9   4   52.07000   -41.369000  -9.748000
13500   9   4   52.13000   -41.426000  -7.826000
13501   9   4   50.015000   -42.714000  -9.949000
13502   9   4   50.099000   -42.799000  -7.589000
13503   9   4   52.169000   14.051000  -9.17000
13504   9   4   20.96000   15.633000  -8.784000
13505   9   4   21.026000   15.56000  -6.863000
13506   9   4   18.943000   14.26000  -8.984000
13507   9   4   19.041000   14.14000  -6.64000
13508   9   2   5.06000   -9.831000  -9.169000
13509   9   2   5.077000   -9.829000  -7.065000
13510   9   2   11.621000   1.055000  -9.252000
13511   9   2   11.643000   1.049000  -7.135000
13512   9   2   10.325000   -1.138000  -9.254000
13513   9   2   10.346000   -1.139000  -7.137000
13514   9   2   6.392000   -7.698000  -9.207000
13515   9   2   6.411000   -7.693000  -7.091000
13516   9   2   14.182000   5.438000  -9.213000
13517   9   2   14.214000   5.42000  -7.095000
13518   9   2   12.905000   3.246000  -9.237000
13519   9   2   12.933000   3.237000  -7.121000
13520   9   2   9.024000   -3.329000  -9.249000
13521   9   2   9.044000   -3.326000  -7.13000
13522   9   2   7.714000   -5.517000  -9.233000
13523   9   2   7.733000   -5.512000  -7.115000
13524   9   2   16.682000   9.806000  -9.109000
13525   9   2   16.738000   9.767000  -6.995000
13526   9   2   15.444000   7.625000  -9.17000
13527   9   2   15.486000   7.6000  -7.054000
13528   9   2   62.226000   -3.635000  -10.094000
13529   9   2   62.259000   -3.639000  -7.976000
13530   9   2   64.835000   -8.08000  -10.092000
13531   9   2   64.858000   -8.085000  -7.977000
13532   9   2   66.149000   -10.279000  -10.054000
13533   9   2   66.16000   -10.285000  -7.948000
13534   9   2   63.527000   -5.856000  -10.104000
13535   9   2   63.555000   -5.86000  -7.985000
13536   9   2   59.637000   0.805000  -10.021000
13537   9   2   59.671000   0.79000  -7.904000
13538   9   2   60.928000   -1.413000  -10.066000
13539   9   2   60.964000   -1.422000  -7.948000
13540   9   2   57.07000   5.228000  -9.881000
13541   9   2   57.097000   5.197000  -7.764000
13542   9   2   58.349000   3.018000  -9.961000
13543   9   2   58.382000   2.998000  -7.843000
13544   9   2   54.547000   9.62000  -9.659000
13545   9   2   54.548000   9.566000  -7.542000
13546   9   2   55.801000   7.43000  -9.782000
13547   9   2   55.817000   7.39000  -7.664000
13548   9   4   23.868000   15.656000  -9.111000
13549   9   4   23.932000   15.589000  -6.922000
13550   9   4   26.529000   15.605000  -9.238000
13551   9   4   26.59000   15.559000  -7.055000
13552   9   4   29.151000   15.564000  -9.343000
13553   9   4   29.206000   15.53000  -7.157000
13554   9   4   31.761000   15.53000  -9.424000
13555   9   4   31.808000   15.503000  -7.237000
13556   9   4   34.364000   15.501000  -9.482000
13557   9   4   34.402000   15.477000  -7.295000
13558   9   4   36.963000   15.475000  -9.518000
13559   9   4   36.991000   15.45000  -7.33000
13560   9   4   39.559000   15.457000  -9.53000
13561   9   4   39.579000   15.424000  -7.342000
13562   9   4   42.156000   15.441000  -9.517000
13563   9   4   42.164000   15.398000  -7.328000
13564   9   4   44.757000   15.429000  -9.475000
13565   9   4   44.756000   15.368000  -7.289000
13566   9   4   47.342000   15.423000  -9.404000
13567   9   4   47.334000   15.337000  -7.222000
13568   9   2   6.33000   -19.126000  -9.167000
13569   9   2   6.357000   -19.113000  -6.982000
13570   9   2   11.553000   -27.993000  -9.132000
13571   9   2   11.586000   -27.974000  -6.938000
13572   9   2   10.293000   -25.761000  -6.946000
13573   9   2   10.263000   -25.782000  -9.138000
13574   9   2   8.964000   -23.569000  -9.149000
13575   9   2   8.994000   -23.548000  -6.959000
13576   9   2   7.68000   -21.332000  -6.972000
13577   9   2   7.654000   -21.349000  -9.161000
13578   9   2   14.105000   -32.404000  -9.155000
13579   9   2   14.137000   -32.398000  -6.961000
13580   9   2   12.868000   -30.185000  -6.943000
13581   9   2   12.834000   -30.2000  -9.135000
13582   9   2   64.738000   -19.497000  -10.069000
13583   9   2   64.753000   -19.485000  -7.878000
13584   9   2   66.059000   -17.349000  -7.878000
13585   9   2   66.061000   -17.353000  -10.066000
13586   9   2   56.936000   -32.646000  -9.817000
13587   9   2   56.969000   -32.617000  -7.623000
13588   9   2   60.834000   -26.048000  -7.776000
13589   9   2   60.804000   -26.076000  -9.968000
13590   9   2   62.108000   -23.882000  -10.016000
13591   9   2   62.134000   -23.859000  -7.823000
13592   9   2   63.441000   -21.67000  -7.859000
13593   9   2   63.419000   -21.687000  -10.05000
13594   9   2   58.251000   -30.426000  -7.668000
13595   9   2   58.219000   -30.459000  -9.863000
13596   9   2   59.507000   -28.269000  -9.916000
13597   9   2   59.539000   -28.237000  -7.72000
13598   9   2   17.792000   -38.891000  -9.356000
13599   9   2   16.617000   -36.79000  -9.264000
13600   9   2   16.63000   -36.811000  -7.068000
13601   9   2   15.394000   -34.608000  -7.0000
13602   9   2   15.367000   -34.603000  -9.196000
13603   9   2   17.79000   -38.944000  -7.159000
13604   9   2   53.277000   -39.108000  -7.596000
13605   9   2   53.221000   -39.074000  -9.812000
13606   9   2   54.403000   -36.989000  -9.783000
13607   9   2   54.453000   -36.986000  -7.585000
13608   9   2   55.701000   -34.805000  -7.592000
13609   9   2   55.662000   -34.826000  -9.789000
13610   9   4   26.375000   -42.688000  -9.332000
13611   9   4   26.392000   -42.71000  -7.216000
13612   9   4   28.982000   -42.711000  -9.298000
13613   9   4   29.004000   -42.718000  -7.18000
13614   9   4   31.583000   -42.733000  -9.288000
13615   9   4   31.606000   -42.729000  -7.168000
13616   9   4   34.18000   -42.753000  -9.296000
13617   9   4   34.21000   -42.742000  -7.178000
13618   9   4   36.778000   -42.771000  -9.323000
13619   9   4   36.81000   -42.757000  -7.204000
13620   9   4   39.377000   -42.786000  -9.37000
13621   9   4   39.414000   -42.772000  -7.251000
13622   9   4   41.981000   -42.796000  -9.435000
13623   9   4   42.02000   -42.788000  -7.317000
13624   9   4   44.593000   -42.803000  -9.522000
13625   9   4   44.632000   -42.807000  -7.408000
13626   9   4   47.224000   -42.796000  -9.637000
13627   9   4   47.272000   -42.824000  -7.526000
13628   9   2   53.364000   11.745000  -9.506000
13629   9   2   53.347000   11.655000  -7.403000
13630   9   2   17.841000   11.925000  -9.031000
13631   9   2   17.917000   11.858000  -6.914000
13632   9   4   50.142000   15.411000  -9.341000
13633   9   4   50.109000   15.266000  -7.002000
13634   9   4   52.158000   13.95000  -7.273000
13635   9   4   23.756000   -41.687000  -5.89000
13636   9   2   58.789000   -17.409000  -6.563000
13637   9   4   26.39000   -41.664000  -5.834000
13638   9   2   13.703000   -19.335000  -5.77000
13639   9   2   12.388000   -17.117000  -5.774000
13640   9   4   29.008000   -41.659000  -5.808000
13641   9   4   31.62000   -41.664000  -5.801000
13642   9   2   16.288000   -19.353000  -5.801000
13643   9   2   14.981000   -17.138000  -5.802000
13644   9   4   36.836000   -41.685000  -5.841000
13645   9   4   39.446000   -41.701000  -5.887000
13646   9   2   21.455000   -19.398000  -5.881000
13647   9   2   20.231000   9.258000  -5.733000
13648   9   4   44.676000   -41.747000  -6.038000
13649   9   2   17.557000   -34.87000  -5.727000
13650   9   4   47.316000   -41.784000  -6.136000
13651   9   2   51.032000   -21.774000  -6.441000
13652   9   2   17.572000   -17.158000  -5.833000
13653   9   2   52.408000   -10.758000  -6.496000
13654   9   2   51.129000   -8.539000  -6.463000
13655   9   2   61.358000   -17.434000  -6.576000
13656   9   2   54.981000   -10.775000  -6.536000
13657   9   2   53.699000   -8.56000  -6.508000
13658   9   2   57.557000   -10.788000  -6.574000
13659   9   2   56.272000   -8.575000  -6.554000
13660   9   2   40.827000   9.214000  -6.166000
13661   9   2   60.135000   -10.803000  -6.601000
13662   9   2   58.842000   -8.587000  -6.592000
13663   9   2   35.566000   -35.069000  -5.911000
13664   9   2   36.853000   -37.291000  -5.915000
13665   9   2   22.792000   9.318000  -5.799000
13666   9   4   51.275000   -41.039000  -6.299000
13667   9   2   62.711000   -10.819000  -6.61000
13668   9   2   61.41000   -8.596000  -6.615000
13669   9   2   47.157000   -28.413000  -6.235000
13670   9   2   53.6000   -21.783000  -6.464000
13671   9   2   65.267000   -10.839000  -6.57000
13672   9   2   63.957000   -8.612000  -6.59000
13673   9   2   8.652000   -6.055000  -5.745000
13674   9   2   11.193000   -6.082000  -5.809000
13675   9   2   9.962000   -3.867000  -5.76000
13676   9   4   34.228000   -41.673000  -5.812000
13677   9   4   51.224000   13.39000  -5.886000
13678   9   2   13.758000   -6.108000  -5.835000
13679   9   2   12.504000   -3.89000  -5.822000
13680   9   2   31.656000   -37.267000  -5.856000
13681   9   2   52.335000   -19.573000  -6.485000
13682   9   2   16.327000   -6.125000  -5.854000
13683   9   2   15.066000   -3.912000  -5.846000
13684   9   2   54.904000   -19.586000  -6.507000
13685   9   2   18.9000   -6.135000  -5.869000
13686   9   2   17.634000   -3.925000  -5.865000
13687   9   2   39.451000   -37.305000  -5.96000
13688   9   2   25.355000   9.345000  -5.867000
13689   9   2   57.473000   -19.604000  -6.531000
13690   9   2   21.473000   -6.141000  -5.884000
13691   9   2   20.204000   -3.929000  -5.881000
13692   9   2   38.155000   -35.081000  -5.953000
13693   9   2   21.458000   -28.262000  -5.788000
13694   9   2   18.872000   -19.375000  -5.836000
13695   9   2   56.166000   -21.798000  -6.491000
13696   9   2   60.041000   -19.629000  -6.552000
13697   9   2   24.049000   -6.147000  -5.91000
13698   9   2   22.777000   -3.932000  -5.903000
13699   9   2   62.603000   -19.667000  -6.55000
13700   9   2   25.35000   -3.936000  -5.938000
13701   9   2   11.172000   -23.76000  -5.667000
13702   9   2   63.921000   -17.478000  -6.565000
13703   9   2   13.743000   -23.761000  -5.72000
13704   9   2   12.437000   -21.541000  -5.729000
13705   9   4   42.058000   -41.72000  -5.953000
13706   9   2   16.314000   -23.776000  -5.757000
13707   9   2   40.744000   -35.094000  -6.002000
13708   9   2   58.731000   -21.821000  -6.515000
13709   9   2   20.16000   -17.179000  -5.869000
13710   9   2   17.59000   -21.573000  -5.798000
13711   9   2   22.749000   -21.623000  -5.885000
13712   9   2   49.842000   -6.322000  -6.428000
13713   9   2   48.55000   -4.105000  -6.399000
13714   9   2   51.096000   9.027000  -6.186000
13715   9   2   52.414000   -6.344000  -6.476000
13716   9   2   51.122000   -4.127000  -6.442000
13717   9   2   44.638000   -37.335000  -6.077000
13718   9   2   30.514000   9.323000  -6.002000
13719   9   2   54.984000   -6.36000  -6.527000
13720   9   2   53.692000   -4.146000  -6.493000
13721   9   2   43.327000   -35.104000  -6.057000
13722   9   2   54.837000   -28.409000  -6.358000
13723   9   2   57.552000   -6.372000  -6.572000
13724   9   2   56.261000   -4.158000  -6.543000
13725   9   2   60.118000   -6.378000  -6.606000
13726   9   2   58.825000   -4.164000  -6.585000
13727   9   2   62.66000   -6.39000  -6.596000
13728   9   2   61.367000   -4.173000  -6.585000
13729   9   2   15.011000   -21.554000  -5.764000
13730   9   2   11.266000   -1.68000  -5.767000
13731   9   2   42.047000   -37.32000  -6.015000
13732   9   2   13.806000   -1.699000  -5.828000
13733   9   2   12.565000   0.505000  -5.766000
13734   9   2   16.371000   -1.716000  -5.853000
13735   9   2   15.104000   0.491000  -5.827000
13736   9   2   47.218000   -37.339000  -6.144000
13737   9   2   33.095000   9.298000  -6.059000
13738   9   2   18.936000   -1.723000  -5.874000
13739   9   2   17.668000   0.48000  -5.855000
13740   9   2   45.901000   -35.106000  -6.115000
13741   9   2   57.399000   -28.427000  -6.374000
13742   9   2   52.299000   -23.986000  -6.411000
13743   9   2   21.506000   -1.724000  -5.897000
13744   9   2   20.236000   0.48000  -5.882000
13745   9   2   12.473000   -25.977000  -5.658000
13746   9   2   54.864000   -23.995000  -6.44000
13747   9   2   24.077000   -1.722000  -5.926000
13748   9   2   22.805000   0.484000  -5.913000
13749   9   2   18.888000   -23.797000  -5.794000
13750   9   2   57.427000   -24.013000  -6.468000
13751   9   2   26.652000   -1.725000  -5.971000
13752   9   2   25.376000   0.487000  -5.953000
13753   9   2   59.99000   -24.045000  -6.479000
13754   9   2   27.947000   0.484000  -6.005000
13755   9   2   61.295000   -21.855000  -6.521000
13756   9   2   30.522000   0.467000  -6.066000
13757   9   2   49.718000   -28.406000  -6.281000
13758   9   2   35.675000   9.272000  -6.107000
13759   9   2   33.094000   0.451000  -6.135000
13760   9   2   58.692000   -26.234000  -6.427000
13761   9   2   56.114000   -30.623000  -6.321000
13762   9   2   35.668000   0.434000  -6.199000
13763   9   2   15.04000   -25.983000  -5.714000
13764   9   2   38.24000   0.411000  -6.25000
13765   9   2   32.975000   -35.056000  -5.878000
13766   9   2   21.462000   -23.823000  -5.835000
13767   9   2   40.813000   0.384000  -6.286000
13768   9   2   20.17000   -21.598000  -5.837000
13769   9   2   43.385000   0.355000  -6.312000
13770   9   2   47.255000   -1.886000  -6.371000
13771   9   2   45.958000   0.33000  -6.342000
13772   9   2   38.251000   9.245000  -6.142000
13773   9   2   49.826000   -1.913000  -6.408000
13774   9   2   48.531000   0.3000  -6.374000
13775   9   2   51.014000   -35.058000  -6.222000
13776   9   2   24.023000   -28.294000  -5.824000
13777   9   2   13.762000   -28.197000  -5.656000
13778   9   2   52.4000   -1.934000  -6.456000
13779   9   2   51.104000   0.275000  -6.414000
13780   9   2   17.608000   -26.002000  -5.753000
13781   9   2   15.042000   -30.418000  -5.663000
13782   9   2   54.968000   -1.95000  -6.505000
13783   9   2   53.675000   0.256000  -6.46000
13784   9   2   24.036000   -23.852000  -5.882000
13785   9   2   57.535000   -1.954000  -6.55000
13786   9   2   56.243000   0.25000  -6.504000
13787   9   2   60.077000   -1.962000  -6.557000
13788   9   2   58.785000   0.245000  -6.514000
13789   9   2   13.857000   2.691000  -5.755000
13790   9   2   16.397000   2.68000  -5.819000
13791   9   2   15.142000   4.869000  -5.733000
13792   9   2   9.862000   -21.542000  -5.678000
13793   9   2   18.964000   2.677000  -5.852000
13794   9   2   17.686000   4.868000  -5.801000
13795   9   2   53.644000   8.99000  -6.173000
13796   9   2   21.531000   2.685000  -5.888000
13797   9   2   20.251000   4.878000  -5.843000
13798   9   2   39.451000   -32.868000  -5.999000
13799   9   2   20.177000   -26.027000  -5.79000
13800   9   2   24.099000   2.695000  -5.928000
13801   9   2   22.818000   4.896000  -5.888000
13802   9   2   48.444000   -26.191000  -6.311000
13803   9   2   22.508000   -39.493000  -5.889000
13804   9   2   26.666000   2.697000  -5.976000
13805   9   2   25.381000   4.909000  -5.937000
13806   9   2   51.006000   -26.191000  -6.348000
13807   9   2   29.236000   2.689000  -6.032000
13808   9   2   27.951000   4.907000  -5.992000
13809   9   2   53.567000   -26.197000  -6.383000
13810   9   2   31.809000   2.673000  -6.092000
13811   9   2   30.521000   4.895000  -6.05000
13812   9   2   56.129000   -26.209000  -6.414000
13813   9   2   44.674000   6.956000  -6.233000
13814   9   2   34.382000   2.652000  -6.151000
13815   9   2   33.094000   4.875000  -6.106000
13816   9   2   36.953000   2.63000  -6.203000
13817   9   2   35.668000   4.852000  -6.158000
13818   9   2   16.307000   -32.643000  -5.686000
13819   9   2   22.746000   -26.056000  -5.829000
13820   9   2   39.525000   2.605000  -6.246000
13821   9   2   38.24000   4.825000  -6.201000
13822   9   2   18.87000   -32.675000  -5.742000
13823   9   2   17.606000   -30.438000  -5.722000
13824   9   2   42.097000   2.576000  -6.278000
13825   9   2   40.813000   4.798000  -6.236000
13826   9   2   21.425000   -32.72000  -5.775000
13827   9   2   20.166000   -30.471000  -5.759000
13828   9   2   44.666000   2.547000  -6.306000
13829   9   2   43.383000   4.767000  -6.264000
13830   9   2   23.981000   -32.76000  -5.801000
13831   9   2   22.726000   -30.508000  -5.791000
13832   9   2   47.238000   2.515000  -6.334000
13833   9   2   45.951000   4.732000  -6.287000
13834   9   2   26.546000   -32.788000  -5.825000
13835   9   2   25.289000   -30.54000  -5.822000
13836   9   2   27.933000   9.341000  -5.936000
13837   9   2   49.809000   2.483000  -6.367000
13838   9   2   48.519000   4.695000  -6.312000
13839   9   2   29.121000   -32.81000  -5.85000
13840   9   2   27.855000   -30.568000  -5.852000
13841   9   2   52.381000   2.46000  -6.406000
13842   9   2   51.09000   4.661000  -6.341000
13843   9   2   31.7000   -32.828000  -5.878000
13844   9   2   30.427000   -30.592000  -5.884000
13845   9   2   25.317000   -26.086000  -5.873000
13846   9   2   54.951000   2.45000  -6.446000
13847   9   2   53.663000   4.642000  -6.374000
13848   9   2   34.282000   -32.843000  -5.912000
13849   9   2   33.005000   -30.612000  -5.918000
13850   9   2   57.496000   2.446000  -6.456000
13851   9   2   56.208000   4.638000  -6.38000
13852   9   2   36.867000   -32.857000  -5.952000
13853   9   2   35.587000   -30.629000  -5.957000
13854   9   4   21.053000   -41.724000  -5.995000
13855   9   2   16.42000   7.043000  -5.698000
13856   9   2   18.965000   7.057000  -5.773000
13857   9   2   17.683000   9.211000  -5.648000
13858   9   2   38.166000   -30.642000  -6.003000
13859   9   2   21.532000   7.087000  -5.825000
13860   9   2   5.814000   -14.862000  -5.701000
13861   9   4   4.493000   -12.593000  -5.683000
13862   9   2   42.03000   -32.874000  -6.051000
13863   9   2   40.741000   -30.648000  -6.056000
13864   9   2   52.278000   -28.405000  -6.322000
13865   9   2   24.093000   7.116000  -5.88000
13866   9   2   8.455000   -14.876000  -5.745000
13867   9   2   7.146000   -12.652000  -5.739000
13868   9   2   44.601000   -32.874000  -6.106000
13869   9   2   43.312000   -30.647000  -6.111000
13870   9   2   26.659000   7.126000  -5.94000
13871   9   2   11.072000   -14.901000  -5.776000
13872   9   2   9.775000   -12.687000  -5.774000
13873   9   2   47.164000   -32.867000  -6.16000
13874   9   2   45.877000   -30.643000  -6.166000
13875   9   2   29.23000   7.118000  -6.0000
13876   9   2   13.676000   -14.923000  -5.803000
13877   9   2   12.382000   -12.712000  -5.802000
13878   9   2   49.72000   -32.849000  -6.212000
13879   9   2   48.436000   -30.632000  -6.217000
13880   9   2   31.805000   7.099000  -6.059000
13881   9   2   16.272000   -14.944000  -5.829000
13882   9   2   14.978000   -12.733000  -5.827000
13883   9   2   52.276000   -32.828000  -6.256000
13884   9   2   50.995000   -30.621000  -6.263000
13885   9   2   34.383000   7.074000  -6.111000
13886   9   2   18.863000   -14.965000  -5.857000
13887   9   2   17.568000   -12.75000  -5.849000
13888   9   2   54.839000   -32.824000  -6.277000
13889   9   2   53.553000   -30.615000  -6.303000
13890   9   2   20.115000   -34.926000  -5.778000
13891   9   2   36.957000   7.049000  -6.155000
13892   9   2   20.154000   -12.768000  -5.873000
13893   9   2   39.531000   7.02000  -6.19000
13894   9   2   21.327000   -37.206000  -5.83000
13895   9   2   26.588000   -28.325000  -5.862000
13896   9   2   42.103000   6.99000  -6.215000
13897   9   2   43.4000   9.181000  -6.178000
13898   9   2   47.24000   6.916000  -6.249000
13899   9   2   45.973000   9.142000  -6.181000
13900   9   2   34.255000   -37.277000  -5.88000
13901   9   2   49.804000   6.868000  -6.266000
13902   9   2   48.535000   9.09000  -6.183000
13903   9   2   18.783000   -37.107000  -5.791000
13904   9   2   54.924000   6.821000  -6.286000
13905   9   2   52.375000   6.834000  -6.288000
13906   9   2   30.386000   -35.042000  -5.853000
13907   9   4   22.688000   13.766000  -5.597000
13908   9   2   23.885000   -37.248000  -5.836000
13909   9   2   18.912000   11.379000  -5.562000
13910   9   2   22.664000   -34.984000  -5.801000
13911   9   2   25.226000   -35.014000  -5.817000
13912   9   2   24.025000   11.562000  -5.764000
13913   9   2   29.061000   -37.258000  -5.842000
13914   9   4   25.298000   13.796000  -5.726000
13915   9   2   21.453000   11.513000  -5.665000
13916   9   4   27.919000   13.772000  -5.827000
13917   9   4   21.236000   14.488000  -5.469000
13918   9   2   54.951000   -15.183000  -6.538000
13919   9   2   53.684000   -12.971000  -6.523000
13920   9   2   31.807000   11.523000  -5.998000
13921   9   4   30.523000   13.749000  -5.91000
13922   9   2   57.529000   -15.195000  -6.565000
13923   9   2   56.26000   -12.987000  -6.556000
13924   9   2   34.392000   11.495000  -6.052000
13925   9   4   33.114000   13.723000  -5.975000
13926   9   2   60.109000   -15.214000  -6.584000
13927   9   2   58.839000   -13.001000  -6.583000
13928   9   2   36.974000   11.468000  -6.091000
13929   9   4   35.7000   13.697000  -6.022000
13930   9   2   18.892000   -28.232000  -5.753000
13931   9   2   62.697000   -15.238000  -6.591000
13932   9   2   61.425000   -13.019000  -6.6000
13933   9   2   39.553000   11.438000  -6.114000
13934   9   4   38.281000   13.668000  -6.048000
13935   9   2   65.293000   -15.297000  -6.57000
13936   9   2   64.027000   -13.044000  -6.596000
13937   9   2   42.129000   11.407000  -6.122000
13938   9   4   40.86000   13.637000  -6.055000
13939   9   2   53.64000   -17.377000  -6.515000
13940   9   4   66.643000   -13.095000  -6.546000
13941   9   2   44.707000   11.37000  -6.114000
13942   9   4   43.443000   13.602000  -6.04000
13943   9   2   26.468000   -37.255000  -5.836000
13944   9   2   49.776000   -37.316000  -6.205000
13945   9   2   48.462000   -35.093000  -6.172000
13946   9   2   47.286000   11.328000  -6.096000
13947   9   4   46.029000   13.559000  -6.005000
13948   9   2   5.965000   -10.414000  -5.695000
13949   9   2   52.337000   -37.242000  -6.237000
13950   9   2   49.855000   11.258000  -6.073000
13951   9   4   48.63000   13.517000  -5.951000
13952   9   2   8.528000   -10.467000  -5.766000
13953   9   2   7.326000   -8.239000  -5.722000
13954   9   2   52.392000   11.146000  -6.04000
13955   9   2   53.575000   -35.028000  -6.247000
13956   9   2   11.114000   -10.498000  -5.799000
13957   9   2   9.871000   -8.276000  -5.79000
13958   9   2   16.328000   -28.209000  -5.714000
13959   9   2   27.802000   -35.03000  -5.832000
13960   9   2   19.929000   -39.404000  -5.892000
13961   9   2   8.538000   -19.32000  -5.688000
13962   9   2   13.702000   -10.52000  -5.824000
13963   9   2   12.442000   -8.304000  -5.82000
13964   9   2   26.623000   11.565000  -5.851000
13965   9   2   7.2000   -17.094000  -5.694000
13966   9   2   25.116000   -39.48000  -5.862000
13967   9   2   16.286000   -10.538000  -5.844000
13968   9   2   15.018000   -8.324000  -5.841000
13969   9   2   27.724000   -39.473000  -5.846000
13970   9   2   30.332000   -39.476000  -5.843000
13971   9   2   56.216000   -17.392000  -6.539000
13972   9   2   18.87000   -10.553000  -5.862000
13973   9   2   17.594000   -8.338000  -5.857000
13974   9   2   32.938000   -39.483000  -5.855000
13975   9   2   35.543000   -39.495000  -5.88000
13976   9   2   21.45000   -10.565000  -5.884000
13977   9   2   20.172000   -8.349000  -5.872000
13978   9   2   38.147000   -39.508000  -5.918000
13979   9   2   40.755000   -39.525000  -5.971000
13980   9   2   22.749000   -8.355000  -5.894000
13981   9   2   43.361000   -39.545000  -6.037000
13982   9   2   45.969000   -39.569000  -6.116000
13983   9   2   48.577000   -39.583000  -6.191000
13984   9   2   49.734000   -23.981000  -6.381000
13985   9   2   51.159000   -39.467000  -6.238000
13986   9   2   29.218000   11.546000  -5.931000
13987   9   2   11.12000   -19.32000  -5.737000
13988   9   2   9.794000   -17.099000  -5.742000
13989   9   2   5.75000   -14.876000  -10.494000
13990   9   4   4.438000   -12.589000  -10.479000
13991   9   2   8.397000   -14.903000  -10.515000
13992   9   2   7.091000   -12.672000  -10.51000
13993   9   2   11.017000   -14.93000  -10.545000
13994   9   2   9.722000   -12.712000  -10.543000
13995   9   2   13.621000   -14.951000  -10.576000
13996   9   2   12.332000   -12.735000  -10.573000
13997   9   2   16.215000   -14.967000  -10.603000
13998   9   2   14.927000   -12.752000  -10.6000
13999   9   2   18.802000   -14.982000  -10.631000
14000   9   2   17.515000   -12.764000  -10.623000
14001   9   2   20.094000   -12.776000  -10.64000
14002   9   2   54.892000   -15.2000  -11.311000
14003   9   2   53.617000   -12.979000  -11.289000
14004   9   2   57.483000   -15.217000  -11.338000
14005   9   2   56.202000   -12.998000  -11.33000
14006   9   2   60.081000   -15.235000  -11.357000
14007   9   2   58.797000   -13.016000  -11.357000
14008   9   2   62.689000   -15.257000  -11.366000
14009   9   2   61.404000   -13.039000  -11.371000
14010   9   2   65.317000   -15.304000  -11.367000
14011   9   2   64.031000   -13.06000  -11.37000
14012   9   4   66.676000   -13.087000  -11.346000
14013   9   2   5.918000   -10.429000  -10.55000
14014   9   2   8.48000   -10.487000  -10.546000
14015   9   2   7.28000   -8.258000  -10.587000
14016   9   2   11.067000   -10.518000  -10.571000
14017   9   2   9.826000   -8.292000  -10.574000
14018   9   2   13.655000   -10.537000  -10.597000
14019   9   2   12.397000   -8.317000  -10.595000
14020   9   2   16.239000   -10.55000  -10.619000
14021   9   2   14.972000   -8.334000  -10.616000
14022   9   2   18.817000   -10.56000  -10.635000
14023   9   2   17.547000   -8.345000  -10.633000
14024   9   2   21.385000   -10.567000  -10.641000
14025   9   2   20.116000   -8.353000  -10.644000
14026   9   2   22.679000   -8.354000  -10.643000
14027   9   2   52.337000   -10.751000  -11.254000
14028   9   2   51.054000   -8.524000  -11.213000
14029   9   2   54.914000   -10.774000  -11.309000
14030   9   2   53.623000   -8.55000  -11.28000
14031   9   2   57.5000   -10.796000  -11.347000
14032   9   2   56.201000   -8.572000  -11.328000
14033   9   2   60.091000   -10.818000  -11.374000
14034   9   2   58.782000   -8.593000  -11.366000
14035   9   2   62.684000   -10.839000  -11.389000
14036   9   2   61.36000   -8.609000  -11.397000
14037   9   2   65.256000   -10.849000  -11.423000
14038   9   2   63.913000   -8.627000  -11.455000
14039   9   2   8.609000   -6.067000  -10.614000
14040   9   2   11.15000   -6.091000  -10.595000
14041   9   2   9.923000   -3.872000  -10.63000
14042   9   2   13.716000   -6.113000  -10.612000
14043   9   2   12.461000   -3.889000  -10.609000
14044   9   2   16.283000   -6.128000  -10.63000
14045   9   2   15.024000   -3.908000  -10.623000
14046   9   2   18.851000   -6.137000  -10.644000
14047   9   2   17.587000   -3.92000  -10.641000
14048   9   2   21.415000   -6.142000  -10.655000
14049   9   2   20.149000   -3.926000  -10.658000
14050   9   2   23.973000   -6.145000  -10.66000
14051   9   2   22.71000   -3.93000  -10.675000
14052   9   2   25.265000   -3.933000  -10.687000
14053   9   2   49.766000   -6.302000  -11.179000
14054   9   2   48.478000   -4.077000  -11.149000
14055   9   2   52.333000   -6.325000  -11.246000
14056   9   2   51.042000   -4.1000  -11.213000
14057   9   2   54.904000   -6.346000  -11.301000
14058   9   2   53.61000   -4.121000  -11.268000
14059   9   2   57.477000   -6.364000  -11.347000
14060   9   2   56.178000   -4.138000  -11.319000
14061   9   2   60.049000   -6.38000  -11.39000
14062   9   2   58.744000   -4.151000  -11.369000
14063   9   2   62.596000   -6.398000  -11.462000
14064   9   2   61.288000   -4.169000  -11.452000
14065   9   2   11.226000   -1.675000  -10.637000
14066   9   2   13.764000   -1.686000  -10.614000
14067   9   2   12.521000   0.524000  -10.637000
14068   9   2   16.323000   -1.699000  -10.63000
14069   9   2   15.059000   0.519000  -10.615000
14070   9   2   18.884000   -1.707000  -10.651000
14071   9   2   17.616000   0.511000  -10.633000
14072   9   2   21.444000   -1.711000  -10.673000
14073   9   2   20.174000   0.509000  -10.659000
14074   9   2   24.002000   -1.714000  -10.699000
14075   9   2   22.731000   0.508000  -10.69000
14076   9   2   26.56000   -1.718000  -10.728000
14077   9   2   25.29000   0.507000  -10.726000
14078   9   2   27.852000   0.499000  -10.772000
14079   9   2   30.422000   0.48000  -10.832000
14080   9   2   32.997000   0.465000  -10.895000
14081   9   2   35.577000   0.45000  -10.954000
14082   9   2   38.159000   0.432000  -11.004000
14083   9   2   40.742000   0.412000  -11.046000
14084   9   2   43.32000   0.392000  -11.079000
14085   9   2   47.186000   -1.85000  -11.128000
14086   9   2   45.895000   0.377000  -11.109000
14087   9   2   49.752000   -1.874000  -11.18000
14088   9   2   48.462000   0.355000  -11.148000
14089   9   2   52.317000   -1.894000  -11.232000
14090   9   2   51.028000   0.333000  -11.19000
14091   9   2   54.883000   -1.912000  -11.281000
14092   9   2   53.592000   0.315000  -11.237000
14093   9   2   57.446000   -1.924000  -11.335000
14094   9   2   56.154000   0.301000  -11.29000
14095   9   2   59.988000   -1.941000  -11.425000
14096   9   2   58.694000   0.284000  -11.382000
14097   9   2   13.807000   2.724000  -10.627000
14098   9   2   16.344000   2.727000  -10.607000
14099   9   2   15.083000   4.925000  -10.604000
14100   9   2   18.9000   2.728000  -10.63000
14101   9   2   17.619000   4.939000  -10.589000
14102   9   2   21.455000   2.732000  -10.663000
14103   9   2   20.174000   4.951000  -10.619000
14104   9   2   24.012000   2.735000  -10.704000
14105   9   2   22.727000   4.964000  -10.661000
14106   9   2   26.573000   2.73000  -10.75000
14107   9   2   25.284000   4.967000  -10.71000
14108   9   2   29.139000   2.718000  -10.804000
14109   9   2   27.847000   4.956000  -10.765000
14110   9   2   31.711000   2.699000  -10.863000
14111   9   2   30.422000   4.937000  -10.823000
14112   9   2   34.289000   2.682000  -10.919000
14113   9   2   33.001000   4.916000  -10.879000
14114   9   2   36.873000   2.665000  -10.971000
14115   9   2   35.586000   4.896000  -10.931000
14116   9   2   39.455000   2.645000  -11.014000
14117   9   2   38.172000   4.877000  -10.975000
14118   9   2   42.037000   2.626000  -11.049000
14119   9   2   40.757000   4.859000  -11.009000
14120   9   2   44.611000   2.607000  -11.079000
14121   9   2   43.336000   4.842000  -11.037000
14122   9   2   47.181000   2.586000  -11.109000
14123   9   2   45.908000   4.824000  -11.061000
14124   9   2   49.745000   2.563000  -11.143000
14125   9   2   48.472000   4.799000  -11.087000
14126   9   2   52.308000   2.542000  -11.182000
14127   9   2   51.032000   4.772000  -11.118000
14128   9   2   54.868000   2.526000  -11.232000
14129   9   2   53.59000   4.749000  -11.161000
14130   9   2   57.406000   2.506000  -11.325000
14131   9   2   56.127000   4.725000  -11.25000
14132   9   2   16.343000   7.126000  -10.57000
14133   9   2   18.881000   7.158000  -10.56000
14134   9   2   17.58000   9.329000  -10.517000
14135   9   2   21.431000   7.189000  -10.598000
14136   9   2   20.117000   9.396000  -10.517000
14137   9   2   23.982000   7.205000  -10.651000
14138   9   2   22.665000   9.445000  -10.567000
14139   9   2   26.545000   7.199000  -10.711000
14140   9   2   25.227000   9.448000  -10.635000
14141   9   2   29.123000   7.178000  -10.772000
14142   9   2   27.811000   9.422000  -10.705000
14143   9   2   31.707000   7.153000  -10.83000
14144   9   2   30.405000   9.389000  -10.772000
14145   9   2   34.297000   7.129000  -10.884000
14146   9   2   33.003000   9.36000  -10.83000
14147   9   2   36.888000   7.106000  -10.928000
14148   9   2   35.601000   9.334000  -10.879000
14149   9   2   39.479000   7.089000  -10.964000
14150   9   2   38.199000   9.316000  -10.914000
14151   9   2   42.066000   7.075000  -10.989000
14152   9   2   40.794000   9.301000  -10.937000
14153   9   2   44.645000   7.06000  -11.007000
14154   9   2   43.385000   9.291000  -10.949000
14155   9   2   47.213000   7.041000  -11.022000
14156   9   2   45.969000   9.283000  -10.953000
14157   9   2   49.77000   7.011000  -11.041000
14158   9   2   48.533000   9.263000  -10.955000
14159   9   2   52.324000   6.976000  -11.075000
14160   9   2   51.079000   9.213000  -10.971000
14161   9   2   54.86000   6.942000  -11.157000
14162   9   2   53.61000   9.153000  -11.044000
14163   9   2   18.769000   11.548000  -10.454000
14164   9   2   21.299000   11.686000  -10.465000
14165   9   2   23.876000   11.701000  -10.535000
14166   9   4   22.515000   13.951000  -10.427000
14167   9   2   26.483000   11.669000  -10.623000
14168   9   4   25.147000   13.925000  -10.534000
14169   9   2   29.095000   11.627000  -10.703000
14170   9   4   27.785000   13.867000  -10.639000
14171   9   2   31.704000   11.59000  -10.772000
14172   9   4   30.406000   13.824000  -10.724000
14173   9   2   34.31000   11.56000  -10.827000
14174   9   4   33.02000   13.789000  -10.791000
14175   9   2   36.915000   11.536000  -10.866000
14176   9   4   35.628000   13.763000  -10.838000
14177   9   2   39.518000   11.521000  -10.89000
14178   9   4   38.234000   13.743000  -10.865000
14179   9   2   42.119000   11.512000  -10.897000
14180   9   4   40.839000   13.731000  -10.872000
14181   9   2   44.718000   11.509000  -10.889000
14182   9   4   43.445000   13.726000  -10.856000
14183   9   2   47.314000   11.512000  -10.867000
14184   9   4   46.058000   13.73000  -10.816000
14185   9   2   49.884000   11.484000  -10.85000
14186   9   4   48.686000   13.755000  -10.745000
14187   9   2   52.407000   11.366000  -10.901000
14188   9   2   8.478000   -19.355000  -10.504000
14189   9   2   7.139000   -17.121000  -10.506000
14190   9   2   11.061000   -19.359000  -10.514000
14191   9   2   9.735000   -17.131000  -10.518000
14192   9   2   13.642000   -19.373000  -10.542000
14193   9   2   12.331000   -17.15000  -10.545000
14194   9   2   16.224000   -19.39000  -10.575000
14195   9   2   14.923000   -17.169000  -10.577000
14196   9   2   18.805000   -19.408000  -10.611000
14197   9   2   17.511000   -17.185000  -10.608000
14198   9   2   21.383000   -19.427000  -10.65000
14199   9   2   20.093000   -17.202000  -10.641000
14200   9   2   52.267000   -19.618000  -11.256000
14201   9   2   54.847000   -19.63000  -11.282000
14202   9   2   53.578000   -17.406000  -11.289000
14203   9   2   57.425000   -19.645000  -11.307000
14204   9   2   56.163000   -17.423000  -11.315000
14205   9   2   59.999000   -19.664000  -11.331000
14206   9   2   58.749000   -17.438000  -11.337000
14207   9   2   62.571000   -19.697000  -11.371000
14208   9   2   61.333000   -17.458000  -11.355000
14209   9   2   63.914000   -17.496000  -11.382000
14210   9   2   11.106000   -23.803000  -10.486000
14211   9   2   9.799000   -21.582000  -10.496000
14212   9   2   13.677000   -23.802000  -10.499000
14213   9   2   12.374000   -21.582000  -10.506000
14214   9   2   16.246000   -23.814000  -10.532000
14215   9   2   14.948000   -21.594000  -10.537000
14216   9   2   18.818000   -23.834000  -10.569000
14217   9   2   17.523000   -21.61000  -10.573000
14218   9   2   21.389000   -23.86000  -10.61000
14219   9   2   20.099000   -21.632000  -10.611000
14220   9   2   23.96000   -23.89000  -10.652000
14221   9   2   22.672000   -21.657000  -10.655000
14222   9   2   49.656000   -24.047000  -11.152000
14223   9   2   52.231000   -24.05000  -11.185000
14224   9   2   50.96000   -21.833000  -11.21000
14225   9   2   54.801000   -24.059000  -11.216000
14226   9   2   53.536000   -21.84000  -11.239000
14227   9   2   57.369000   -24.073000  -11.249000
14228   9   2   56.109000   -21.852000  -11.266000
14229   9   2   59.935000   -24.1000  -11.3000
14230   9   2   58.679000   -21.87000  -11.295000
14231   9   2   61.247000   -21.899000  -11.341000
14232   9   2   13.691000   -28.227000  -10.477000
14233   9   2   12.402000   -26.017000  -10.479000
14234   9   2   16.258000   -28.231000  -10.494000
14235   9   2   14.972000   -26.018000  -10.493000
14236   9   2   18.824000   -28.25000  -10.528000
14237   9   2   17.538000   -26.033000  -10.527000
14238   9   2   21.391000   -28.283000  -10.564000
14239   9   2   20.107000   -26.058000  -10.565000
14240   9   2   23.958000   -28.32000  -10.599000
14241   9   2   22.676000   -26.09000  -10.605000
14242   9   2   26.524000   -28.359000  -10.634000
14243   9   2   25.246000   -26.123000  -10.644000
14244   9   2   47.067000   -28.478000  -11.009000
14245   9   2   49.635000   -28.47000  -11.056000
14246   9   2   48.358000   -26.262000  -11.083000
14247   9   2   52.203000   -28.466000  -11.098000
14248   9   2   50.93000   -26.26000  -11.123000
14249   9   2   54.769000   -28.472000  -11.139000
14250   9   2   53.499000   -26.263000  -11.158000
14251   9   2   57.334000   -28.492000  -11.195000
14252   9   2   56.066000   -26.274000  -11.196000
14253   9   2   58.632000   -26.299000  -11.25000
14254   9   2   16.242000   -32.63000  -10.509000
14255   9   2   14.97000   -30.431000  -10.486000
14256   9   2   18.812000   -32.648000  -10.524000
14257   9   2   17.537000   -30.441000  -10.503000
14258   9   2   21.377000   -32.693000  -10.551000
14259   9   2   20.104000   -30.47000  -10.535000
14260   9   2   23.939000   -32.745000  -10.575000
14261   9   2   22.669000   -30.511000  -10.567000
14262   9   2   26.504000   -32.791000  -10.599000
14263   9   2   25.234000   -30.555000  -10.597000
14264   9   2   29.071000   -32.829000  -10.623000
14265   9   2   27.799000   -30.595000  -10.627000
14266   9   2   31.643000   -32.86000  -10.652000
14267   9   2   30.367000   -30.631000  -10.655000
14268   9   2   34.215000   -32.885000  -10.685000
14269   9   2   32.936000   -30.661000  -10.687000
14270   9   2   36.788000   -32.904000  -10.725000
14271   9   2   35.507000   -30.685000  -10.727000
14272   9   2   39.361000   -32.917000  -10.772000
14273   9   2   38.077000   -30.701000  -10.773000
14274   9   2   41.93000   -32.921000  -10.825000
14275   9   2   40.646000   -30.709000  -10.826000
14276   9   2   44.499000   -32.915000  -10.88000
14277   9   2   43.214000   -30.706000  -10.884000
14278   9   2   47.063000   -32.899000  -10.935000
14279   9   2   45.78000   -30.696000  -10.94000
14280   9   2   49.626000   -32.873000  -10.987000
14281   9   2   48.345000   -30.681000  -10.992000
14282   9   2   52.191000   -32.855000  -11.039000
14283   9   2   50.911000   -30.668000  -11.039000
14284   9   2   54.76000   -32.862000  -11.101000
14285   9   2   53.478000   -30.665000  -11.084000
14286   9   2   56.044000   -30.682000  -11.144000
14287   9   2   18.767000   -37.006000  -10.615000
14288   9   2   17.508000   -34.822000  -10.551000
14289   9   2   21.324000   -37.102000  -10.607000
14290   9   2   20.079000   -34.861000  -10.559000
14291   9   2   23.884000   -37.175000  -10.606000
14292   9   2   22.638000   -34.929000  -10.574000
14293   9   2   26.458000   -37.22000  -10.606000
14294   9   2   25.201000   -34.985000  -10.589000
14295   9   2   29.037000   -37.254000  -10.613000
14296   9   2   27.769000   -35.025000  -10.604000
14297   9   2   31.617000   -37.283000  -10.628000
14298   9   2   30.343000   -35.058000  -10.625000
14299   9   2   34.198000   -37.306000  -10.653000
14300   9   2   32.919000   -35.085000  -10.65000
14301   9   2   36.779000   -37.325000  -10.687000
14302   9   2   35.495000   -35.106000  -10.683000
14303   9   2   39.36000   -37.34000  -10.732000
14304   9   2   38.072000   -35.123000  -10.725000
14305   9   2   41.941000   -37.347000  -10.786000
14306   9   2   40.648000   -35.132000  -10.774000
14307   9   2   44.519000   -37.343000  -10.847000
14308   9   2   43.221000   -35.133000  -10.829000
14309   9   2   47.091000   -37.318000  -10.915000
14310   9   2   45.789000   -35.121000  -10.886000
14311   9   2   49.65000   -37.27000  -10.986000
14312   9   2   48.352000   -35.091000  -10.946000
14313   9   2   52.219000   -37.198000  -11.067000
14314   9   2   50.912000   -35.05000  -11.004000
14315   9   2   53.483000   -35.034000  -11.073000
14316   9   2   19.964000   -39.241000  -10.694000
14317   9   2   22.538000   -39.365000  -10.662000
14318   9   2   25.13000   -39.412000  -10.638000
14319   9   2   27.721000   -39.45000  -10.625000
14320   9   2   30.307000   -39.479000  -10.623000
14321   9   2   32.894000   -39.504000  -10.635000
14322   9   2   35.48000   -39.526000  -10.66000
14323   9   2   38.067000   -39.543000  -10.699000
14324   9   2   40.653000   -39.554000  -10.75000
14325   9   2   43.243000   -39.559000  -10.814000
14326   9   2   45.834000   -39.55000  -10.891000
14327   9   2   48.429000   -39.512000  -10.99000
14328   9   2   51.002000   -39.36000  -11.095000
14329   9   4   23.781000   -41.577000  -10.739000
14330   9   4   26.39000   -41.617000  -10.695000
14331   9   4   28.989000   -41.651000  -10.671000
14332   9   4   31.582000   -41.679000  -10.665000
14333   9   4   34.172000   -41.703000  -10.677000
14334   9   4   36.763000   -41.723000  -10.705000
14335   9   4   39.354000   -41.736000  -10.75000
14336   9   4   41.95000   -41.745000  -10.814000
14337   9   4   44.553000   -41.746000  -10.895000
14338   9   4   47.177000   -41.73000  -11.009000
14339   9   4   21.123000   -41.524000  -10.793000
14340   9   4   51.096000   -40.898000  -11.164000
14341   9   4   51.297000   13.668000  -10.688000
14342   9   4   21.051000   14.711000  -10.32000
14343   9   2   21.003000   -16.695000  -9.214000
14344   9   2   21.031000   -16.688000  -7.325000
14345   9   2   22.296000   -18.916000  -9.228000
14346   9   2   22.324000   -18.909000  -7.341000
14347   9   2   52.712000   -16.887000  -9.841000
14348   9   2   52.737000   -16.877000  -7.951000
14349   9   2   51.402000   -19.091000  -9.812000
14350   9   2   51.431000   -19.078000  -7.925000
14351   9   2   23.587000   -21.146000  -9.235000
14352   9   2   23.614000   -21.136000  -7.35000
14353   9   2   24.876000   -23.378000  -9.233000
14354   9   2   24.901000   -23.365000  -7.348000
14355   9   2   50.094000   -21.302000  -9.768000
14356   9   2   50.127000   -21.283000  -7.883000
14357   9   2   48.792000   -23.516000  -9.71000
14358   9   2   48.828000   -23.493000  -7.823000
14359   9   2   26.158000   -25.61000  -9.223000
14360   9   2   26.182000   -25.598000  -7.337000
14361   9   2   29.106000   -28.847000  -9.415000
14362   9   2   29.137000   -28.827000  -7.135000
14363   9   2   27.434000   -27.848000  -9.21000
14364   9   2   27.457000   -27.834000  -7.323000
14365   9   2   31.676000   -28.878000  -9.443000
14366   9   2   31.709000   -28.853000  -7.171000
14367   9   2   34.248000   -28.904000  -9.477000
14368   9   2   34.284000   -28.876000  -7.209000
14369   9   2   36.818000   -28.921000  -9.522000
14370   9   2   36.859000   -28.892000  -7.254000
14371   9   2   39.388000   -28.933000  -9.575000
14372   9   2   39.433000   -28.9000  -7.306000
14373   9   2   41.959000   -28.936000  -9.636000
14374   9   2   42.004000   -28.902000  -7.363000
14375   9   2   44.525000   -28.931000  -9.699000
14376   9   2   44.571000   -28.896000  -7.418000
14377   9   2   47.497000   -25.731000  -9.638000
14378   9   2   47.535000   -25.706000  -7.75000
14379   9   2   46.209000   -27.95000  -9.56000
14380   9   2   46.247000   -27.925000  -7.672000
14381   9   2   33.064000   -0.574000  -7.573000
14382   9   2   35.602000   -0.584000  -9.523000
14383   9   2   35.639000   -0.589000  -7.64000
14384   9   2   20.996000   -14.759000  -9.409000
14385   9   2   21.03000   -14.754000  -7.132000
14386   9   2   22.323000   -12.554000  -7.148000
14387   9   2   22.289000   -12.556000  -9.405000
14388   9   2   52.729000   -14.951000  -10.038000
14389   9   2   52.758000   -14.946000  -7.759000
14390   9   2   51.485000   -12.733000  -7.741000
14391   9   2   51.455000   -12.733000  -9.999000
14392   9   2   24.916000   -8.138000  -7.171000
14393   9   2   24.879000   -8.137000  -9.402000
14394   9   2   50.173000   -10.509000  -9.947000
14395   9   2   50.206000   -10.514000  -7.712000
14396   9   2   48.924000   -8.295000  -7.674000
14397   9   2   48.888000   -8.289000  -9.908000
14398   9   2   26.174000   -5.929000  -9.427000
14399   9   2   26.213000   -5.928000  -7.195000
14400   9   2   27.509000   -3.718000  -7.232000
14401   9   2   27.466000   -3.716000  -9.465000
14402   9   2   47.603000   -6.067000  -9.875000
14403   9   2   47.638000   -6.076000  -7.641000
14404   9   2   46.347000   -3.856000  -7.617000
14405   9   2   46.314000   -3.843000  -9.853000
14406   9   2   28.759000   -1.5000  -9.526000
14407   9   2   28.806000   -1.507000  -7.267000
14408   9   2   30.456000   -0.543000  -9.391000
14409   9   2   30.495000   -0.555000  -7.504000
14410   9   2   33.025000   -0.567000  -9.462000
14411   9   2   38.216000   -0.61000  -7.692000
14412   9   2   40.763000   -0.625000  -9.617000
14413   9   2   40.793000   -0.637000  -7.729000
14414   9   2   45.022000   -1.616000  -9.85000
14415   9   2   45.055000   -1.633000  -7.589000
14416   9   2   43.334000   -0.639000  -9.643000
14417   9   2   43.362000   -0.658000  -7.758000
14418   9   2   38.183000   -0.604000  -9.575000
14419   9   2   23.584000   -10.346000  -9.394000
14420   9   2   23.619000   -10.346000  -7.159000
14421   10   1   5.8000   -11.785000  14.21000
14422   10   1   5.816000   -11.781000  15.787000
14423   10   1   5.759000   -14.772000  13.695000
14424   10   1   5.793000   -14.765000  16.325000
14425   10   3   4.472000   -12.49000  16.343000
14426   10   3   4.431000   -13.993000  14.233000
14427   10   3   4.451000   -13.994000  15.816000
14428   10   3   4.443000   -12.488000  13.71000
14429   10   1   8.434000   -11.849000  14.178000
14430   10   1   8.451000   -11.843000  15.744000
14431   10   1   8.404000   -14.794000  13.674000
14432   10   1   8.435000   -14.78000  16.281000
14433   10   1   7.125000   -12.551000  16.287000
14434   10   1   7.087000   -14.044000  14.204000
14435   10   1   7.105000   -14.038000  15.776000
14436   10   1   7.095000   -12.562000  13.679000
14437   10   1   11.048000   -11.88000  14.148000
14438   10   1   11.065000   -11.873000  15.711000
14439   10   1   11.025000   -14.82000  13.644000
14440   10   1   11.055000   -14.805000  16.25000
14441   10   1   9.757000   -12.587000  16.252000
14442   10   1   9.724000   -14.074000  14.175000
14443   10   1   9.742000   -14.065000  15.739000
14444   10   1   9.727000   -12.6000  13.646000
14445   10   1   13.648000   -11.9000  14.121000
14446   10   1   13.666000   -11.894000  15.686000
14447   10   1   13.63000   -14.841000  13.613000
14448   10   1   13.66000   -14.827000  16.223000
14449   10   1   12.366000   -12.612000  16.224000
14450   10   1   12.336000   -14.097000  14.145000
14451   10   1   12.355000   -14.089000  15.71000
14452   10   1   12.339000   -12.625000  13.616000
14453   10   1   16.24000   -11.917000  14.098000
14454   10   1   16.258000   -11.911000  15.662000
14455   10   1   16.224000   -14.857000  13.586000
14456   10   1   16.256000   -14.846000  16.197000
14457   10   1   14.964000   -12.632000  16.199000
14458   10   1   14.935000   -14.116000  14.118000
14459   10   1   14.955000   -14.107000  15.683000
14460   10   1   14.935000   -12.643000  13.589000
14461   10   1   18.822000   -11.929000  14.079000
14462   10   1   18.844000   -11.926000  15.642000
14463   10   1   18.812000   -14.874000  13.558000
14464   10   1   18.846000   -14.865000  16.169000
14465   10   1   17.554000   -12.649000  16.177000
14466   10   1   17.526000   -14.131000  14.092000
14467   10   1   17.547000   -14.126000  15.657000
14468   10   1   17.523000   -12.657000  13.566000
14469   10   1   21.403000   -11.942000  14.064000
14470   10   1   21.428000   -11.94000  15.619000
14471   10   1   20.14000   -12.667000  16.153000
14472   10   1   20.112000   -14.147000  14.067000
14473   10   1   20.136000   -14.142000  15.63000
14474   10   1   20.104000   -12.671000  13.549000
14475   10   1   52.35000   -12.13000  13.448000
14476   10   1   52.37000   -12.129000  15.002000
14477   10   1   54.932000   -12.147000  13.4000
14478   10   1   54.952000   -12.145000  14.964000
14479   10   1   54.903000   -15.092000  12.878000
14480   10   1   54.934000   -15.083000  15.488000
14481   10   1   53.664000   -12.87000  15.503000
14482   10   1   53.622000   -14.349000  13.416000
14483   10   1   53.642000   -14.344000  14.979000
14484   10   1   53.629000   -12.874000  12.9000
14485   10   1   57.517000   -12.166000  13.366000
14486   10   1   57.534000   -12.161000  14.931000
14487   10   1   57.491000   -15.109000  12.851000
14488   10   1   57.515000   -15.097000  15.461000
14489   10   1   56.243000   -12.884000  15.47000
14490   10   1   56.209000   -14.365000  13.384000
14491   10   1   56.226000   -14.359000  14.949000
14492   10   1   56.213000   -12.891000  12.859000
14493   10   1   60.112000   -12.184000  13.343000
14494   10   1   60.124000   -12.177000  14.906000
14495   10   1   60.086000   -15.128000  12.832000
14496   10   1   60.102000   -15.116000  15.441000
14497   10   1   58.828000   -12.9000  15.442000
14498   10   1   58.799000   -14.383000  13.36000
14499   10   1   58.812000   -14.376000  14.924000
14500   10   1   58.806000   -12.909000  12.832000
14501   10   1   62.722000   -12.204000  13.333000
14502   10   1   62.727000   -12.197000  14.899000
14503   10   1   62.691000   -15.152000  12.823000
14504   10   1   62.695000   -15.14000  15.434000
14505   10   1   61.421000   -12.918000  15.425000
14506   10   1   61.4000   -14.403000  13.345000
14507   10   1   61.405000   -14.396000  14.909000
14508   10   1   61.409000   -12.93000  12.818000
14509   10   1   65.349000   -12.218000  13.342000
14510   10   1   65.348000   -12.216000  14.92000
14511   10   1   65.311000   -15.203000  12.822000
14512   10   1   65.3000   -15.197000  15.456000
14513   10   1   64.031000   -12.943000  15.429000
14514   10   1   64.018000   -14.435000  13.342000
14515   10   1   64.017000   -14.428000  14.915000
14516   10   1   64.034000   -12.953000  12.819000
14517   10   3   66.653000   -12.992000  15.48000
14518   10   3   66.647000   -14.488000  13.365000
14519   10   3   66.638000   -14.49000  14.949000
14520   10   3   66.67000   -12.988000  12.843000
14521   10   1   5.914000   -10.315000  13.639000
14522   10   1   5.94000   -10.306000  16.331000
14523   10   1   8.551000   -7.411000  14.144000
14524   10   1   8.567000   -7.407000  15.727000
14525   10   1   8.478000   -10.372000  13.643000
14526   10   1   8.505000   -10.362000  16.26000
14527   10   1   7.299000   -8.131000  16.304000
14528   10   1   7.211000   -9.602000  14.173000
14529   10   1   7.225000   -9.597000  15.754000
14530   10   1   7.274000   -8.14000  13.602000
14531   10   1   11.126000   -7.454000  14.126000
14532   10   1   11.141000   -7.451000  15.693000
14533   10   1   11.07000   -10.406000  13.618000
14534   10   1   11.096000   -10.395000  16.227000
14535   10   1   9.847000   -8.168000  16.236000
14536   10   1   9.792000   -9.654000  14.15000
14537   10   1   9.809000   -9.648000  15.716000
14538   10   1   9.822000   -8.176000  13.615000
14539   10   1   13.701000   -7.481000  14.105000
14540   10   1   13.717000   -7.478000  15.67000
14541   10   1   13.661000   -10.427000  13.592000
14542   10   1   13.686000   -10.419000  16.202000
14543   10   1   12.425000   -8.2000  16.206000
14544   10   1   12.38000   -9.682000  14.124000
14545   10   1   12.396000   -9.677000  15.688000
14546   10   1   12.4000   -8.207000  13.594000
14547   10   1   16.276000   -7.497000  14.086000
14548   10   1   16.292000   -7.496000  15.652000
14549   10   1   16.246000   -10.443000  13.57000
14550   10   1   16.273000   -10.437000  16.182000
14551   10   1   15.002000   -8.221000  16.185000
14552   10   1   14.965000   -9.701000  14.101000
14553   10   1   14.982000   -9.697000  15.667000
14554   10   1   14.977000   -8.227000  13.573000
14555   10   1   18.849000   -7.508000  14.072000
14556   10   1   18.866000   -7.507000  15.637000
14557   10   1   18.824000   -10.455000  13.554000
14558   10   1   18.854000   -10.45000  16.164000
14559   10   1   17.58000   -8.235000  16.169000
14560   10   1   17.545000   -9.714000  14.084000
14561   10   1   17.564000   -9.711000  15.649000
14562   10   1   17.554000   -8.239000  13.556000
14563   10   1   21.419000   -7.512000  14.064000
14564   10   1   21.441000   -7.514000  15.623000
14565   10   1   21.399000   -10.464000  13.548000
14566   10   1   21.436000   -10.462000  16.142000
14567   10   1   20.156000   -8.246000  16.154000
14568   10   1   20.12000   -9.722000  14.071000
14569   10   1   20.142000   -9.721000  15.633000
14570   10   1   20.125000   -8.248000  13.545000
14571   10   1   23.991000   -7.52000  14.057000
14572   10   1   24.02000   -7.522000  15.602000
14573   10   1   22.733000   -8.254000  16.132000
14574   10   1   22.695000   -9.73000  14.066000
14575   10   1   22.723000   -9.731000  15.614000
14576   10   1   22.694000   -8.252000  13.546000
14577   10   1   49.786000   -7.683000  13.528000
14578   10   1   49.809000   -7.689000  15.073000
14579   10   1   52.363000   -7.703000  13.463000
14580   10   1   52.386000   -7.706000  15.023000
14581   10   1   52.35000   -10.65000  12.935000
14582   10   1   52.387000   -10.654000  15.53000
14583   10   1   51.106000   -8.434000  15.563000
14584   10   1   51.072000   -9.905000  13.489000
14585   10   1   51.092000   -9.908000  15.036000
14586   10   1   51.066000   -8.425000  12.976000
14587   10   1   54.937000   -7.723000  13.408000
14588   10   1   54.96000   -7.725000  14.972000
14589   10   1   54.928000   -10.671000  12.88000
14590   10   1   54.963000   -10.671000  15.49000
14591   10   1   53.681000   -8.453000  15.518000
14592   10   1   53.649000   -9.926000  13.429000
14593   10   1   53.671000   -9.927000  14.99000
14594   10   1   53.639000   -8.448000  12.909000
14595   10   1   57.513000   -7.738000  13.364000
14596   10   1   57.535000   -7.738000  14.929000
14597   10   1   57.513000   -10.69000  12.842000
14598   10   1   57.543000   -10.684000  15.452000
14599   10   1   56.254000   -8.468000  15.472000
14600   10   1   56.229000   -9.945000  13.383000
14601   10   1   56.249000   -9.944000  14.947000
14602   10   1   56.217000   -8.467000  12.861000
14603   10   1   60.094000   -7.749000  13.328000
14604   10   1   60.111000   -7.747000  14.895000
14605   10   1   60.103000   -10.708000  12.815000
14606   10   1   60.126000   -10.699000  15.424000
14607   10   1   58.829000   -8.48000  15.434000
14608   10   1   58.813000   -9.962000  13.348000
14609   10   1   58.829000   -9.957000  14.912000
14610   10   1   58.798000   -8.483000  12.823000
14611   10   1   62.673000   -7.751000  13.295000
14612   10   1   62.69000   -7.748000  14.878000
14613   10   1   62.697000   -10.725000  12.8000
14614   10   1   62.712000   -10.714000  15.415000
14615   10   1   61.406000   -8.488000  15.41000
14616   10   1   61.402000   -9.976000  13.324000
14617   10   1   61.413000   -9.971000  14.891000
14618   10   1   61.379000   -8.496000  12.792000
14619   10   1   65.267000   -10.737000  12.766000
14620   10   1   65.274000   -10.732000  15.456000
14621   10   1   63.958000   -8.504000  15.435000
14622   10   1   63.99000   -9.981000  13.309000
14623   10   1   63.999000   -9.978000  14.891000
14624   10   1   63.934000   -8.51000  12.734000
14625   10   1   8.601000   -5.95000  13.575000
14626   10   1   8.625000   -5.944000  16.281000
14627   10   1   11.182000   -3.023000  14.111000
14628   10   1   11.197000   -3.024000  15.694000
14629   10   1   11.146000   -5.978000  13.594000
14630   10   1   11.169000   -5.974000  16.217000
14631   10   1   9.937000   -3.755000  16.266000
14632   10   1   9.873000   -5.218000  14.124000
14633   10   1   9.887000   -5.216000  15.706000
14634   10   1   9.914000   -3.758000  13.559000
14635   10   1   13.751000   -3.054000  14.099000
14636   10   1   13.765000   -3.057000  15.667000
14637   10   1   13.717000   -6.004000  13.577000
14638   10   1   13.74000   -6.003000  16.191000
14639   10   1   12.481000   -3.78000  16.204000
14640   10   1   12.444000   -5.254000  14.109000
14641   10   1   12.458000   -5.254000  15.677000
14642   10   1   12.457000   -3.778000  13.58000
14643   10   1   16.318000   -3.072000  14.081000
14644   10   1   16.334000   -3.076000  15.647000
14645   10   1   16.288000   -6.022000  13.559000
14646   10   1   16.313000   -6.021000  16.172000
14647   10   1   15.048000   -3.804000  16.18000
14648   10   1   15.014000   -5.277000  14.091000
14649   10   1   15.027000   -5.278000  15.657000
14650   10   1   15.026000   -3.801000  13.566000
14651   10   1   18.885000   -3.081000  14.063000
14652   10   1   18.902000   -3.087000  15.628000
14653   10   1   18.858000   -6.031000  13.545000
14654   10   1   18.884000   -6.031000  16.157000
14655   10   1   17.617000   -3.818000  16.161000
14656   10   1   17.582000   -5.29000  14.074000
14657   10   1   17.599000   -5.292000  15.639000
14658   10   1   17.592000   -3.815000  13.548000
14659   10   1   21.449000   -3.086000  14.044000
14660   10   1   21.469000   -3.091000  15.608000
14661   10   1   21.425000   -6.037000  13.534000
14662   10   1   21.456000   -6.038000  16.142000
14663   10   1   20.187000   -3.825000  16.145000
14664   10   1   20.151000   -5.298000  14.06000
14665   10   1   20.169000   -5.3000  15.624000
14666   10   1   20.157000   -3.821000  13.531000
14667   10   1   24.013000   -3.089000  14.024000
14668   10   1   24.038000   -3.093000  15.584000
14669   10   1   23.99000   -6.042000  13.529000
14670   10   1   24.032000   -6.044000  16.116000
14671   10   1   22.757000   -3.828000  16.123000
14672   10   1   22.716000   -5.301000  14.048000
14673   10   1   22.74000   -5.304000  15.607000
14674   10   1   22.722000   -3.825000  13.514000
14675   10   1   26.582000   -3.094000  13.998000
14676   10   1   26.613000   -3.101000  15.544000
14677   10   1   25.33000   -3.832000  16.088000
14678   10   1   25.288000   -5.309000  14.033000
14679   10   1   25.317000   -5.312000  15.58000
14680   10   1   25.285000   -3.83000  13.502000
14681   10   1   47.21000   -3.235000  13.584000
14682   10   1   47.232000   -3.248000  15.131000
14683   10   1   49.783000   -3.256000  13.529000
14684   10   1   49.807000   -3.268000  15.088000
14685   10   1   49.778000   -6.204000  13.01000
14686   10   1   49.819000   -6.214000  15.598000
14687   10   1   48.529000   -3.995000  15.627000
14688   10   1   48.5000   -5.46000  13.56000
14689   10   1   48.522000   -5.468000  15.105000
14690   10   1   48.488000   -3.979000  13.04000
14691   10   1   52.353000   -3.278000  13.474000
14692   10   1   52.379000   -3.289000  15.038000
14693   10   1   52.349000   -6.225000  12.943000
14694   10   1   52.393000   -6.234000  15.55000
14695   10   1   51.102000   -4.017000  15.584000
14696   10   1   51.074000   -5.479000  13.497000
14697   10   1   51.098000   -5.488000  15.056000
14698   10   1   51.058000   -4.001000  12.976000
14699   10   1   54.921000   -3.293000  13.423000
14700   10   1   54.949000   -3.303000  14.987000
14701   10   1   54.922000   -6.244000  12.888000
14702   10   1   54.964000   -6.252000  15.499000
14703   10   1   53.674000   -4.035000  15.533000
14704   10   1   53.645000   -5.499000  13.44000
14705   10   1   53.67000   -5.506000  15.003000
14706   10   1   53.628000   -4.021000  12.921000
14707   10   1   57.494000   -3.302000  13.372000
14708   10   1   57.52000   -3.31000  14.939000
14709   10   1   57.496000   -6.259000  12.842000
14710   10   1   57.536000   -6.262000  15.454000
14711   10   1   56.243000   -4.047000  15.483000
14712   10   1   56.217000   -5.516000  13.389000
14713   10   1   56.241000   -5.521000  14.953000
14714   10   1   56.199000   -4.035000  12.87000
14715   10   1   60.067000   -3.301000  13.318000
14716   10   1   60.093000   -3.306000  14.902000
14717   10   1   60.072000   -6.268000  12.799000
14718   10   1   60.109000   -6.268000  15.419000
14719   10   1   58.815000   -4.05000  15.441000
14720   10   1   58.792000   -5.525000  13.344000
14721   10   1   58.814000   -5.527000  14.912000
14722   10   1   58.771000   -4.043000  12.82000
14723   10   1   62.622000   -6.282000  12.727000
14724   10   1   62.657000   -6.28000  15.429000
14725   10   1   61.361000   -4.059000  15.441000
14726   10   1   61.367000   -5.524000  13.299000
14727   10   1   61.389000   -5.525000  14.882000
14728   10   1   61.318000   -4.055000  12.737000
14729   10   1   11.217000   -1.563000  13.552000
14730   10   1   11.241000   -1.566000  16.259000
14731   10   1   13.776000   1.368000  14.111000
14732   10   1   13.792000   1.359000  15.694000
14733   10   1   13.76000   -1.578000  13.575000
14734   10   1   13.782000   -1.585000  16.198000
14735   10   1   12.538000   0.622000  16.26000
14736   10   1   12.483000   -0.828000  14.107000
14737   10   1   12.498000   -0.832000  15.69000
14738   10   1   12.513000   0.632000  13.552000
14739   10   1   16.344000   1.35000  14.097000
14740   10   1   16.36000   1.337000  15.664000
14741   10   1   16.326000   -1.595000  13.559000
14742   10   1   16.351000   -1.605000  16.173000
14743   10   1   15.08000   0.608000  16.199000
14744   10   1   15.051000   -0.852000  14.096000
14745   10   1   15.065000   -0.861000  15.663000
14746   10   1   15.055000   0.624000  13.574000
14747   10   1   18.909000   1.344000  14.072000
14748   10   1   18.928000   1.329000  15.636000
14749   10   1   18.891000   -1.605000  13.538000
14750   10   1   18.919000   -1.615000  16.152000
14751   10   1   17.648000   0.594000  16.171000
14752   10   1   17.617000   -0.866000  14.075000
14753   10   1   17.634000   -0.875000  15.64000
14754   10   1   17.619000   0.612000  13.556000
14755   10   1   21.473000   1.345000  14.042000
14756   10   1   21.495000   1.33000  15.606000
14757   10   1   21.454000   -1.607000  13.516000
14758   10   1   21.488000   -1.617000  16.129000
14759   10   1   20.216000   0.591000  16.144000
14760   10   1   20.182000   -0.871000  14.051000
14761   10   1   20.201000   -0.88000  15.616000
14762   10   1   20.184000   0.609000  13.53000
14763   10   1   24.035000   1.347000  14.006000
14764   10   1   24.061000   1.334000  15.57000
14765   10   1   24.016000   -1.61000  13.49000
14766   10   1   24.057000   -1.617000  16.1000
14767   10   1   22.784000   0.594000  16.113000
14768   10   1   22.744000   -0.871000  14.025000
14769   10   1   22.768000   -0.881000  15.589000
14770   10   1   22.744000   0.609000  13.499000
14771   10   1   26.6000   1.345000  13.962000
14772   10   1   26.63000   1.332000  15.525000
14773   10   1   26.58000   -1.615000  13.461000
14774   10   1   26.629000   -1.622000  16.055000
14775   10   1   25.353000   0.595000  16.073000
14776   10   1   25.308000   -0.872000  13.993000
14777   10   1   25.336000   -0.881000  15.554000
14778   10   1   25.306000   0.608000  13.463000
14779   10   1   29.17000   1.331000  13.907000
14780   10   1   29.202000   1.321000  15.469000
14781   10   1   27.923000   0.589000  16.021000
14782   10   1   27.879000   -0.881000  13.95000
14783   10   1   27.911000   -0.89000  15.505000
14784   10   1   27.872000   0.601000  13.417000
14785   10   1   31.741000   1.312000  13.845000
14786   10   1   31.773000   1.304000  15.406000
14787   10   1   30.498000   0.571000  15.96000
14788   10   1   30.443000   0.581000  13.357000
14789   10   1   34.317000   1.291000  13.784000
14790   10   1   34.347000   1.285000  15.343000
14791   10   1   33.069000   0.552000  15.891000
14792   10   1   33.016000   0.56000  13.294000
14793   10   1   36.896000   1.273000  13.73000
14794   10   1   36.924000   1.265000  15.288000
14795   10   1   35.644000   0.535000  15.827000
14796   10   1   35.593000   0.544000  13.235000
14797   10   1   39.476000   1.251000  13.685000
14798   10   1   39.5000   1.241000  15.244000
14799   10   1   38.219000   0.514000  15.776000
14800   10   1   38.175000   0.525000  13.185000
14801   10   1   42.052000   1.231000  13.65000
14802   10   1   42.075000   1.218000  15.211000
14803   10   1   40.793000   0.487000  15.74000
14804   10   1   40.754000   0.504000  13.143000
14805   10   1   44.625000   1.213000  13.62000
14806   10   1   44.647000   1.194000  15.182000
14807   10   1   43.365000   0.465000  15.714000
14808   10   1   43.33000   0.487000  13.11000
14809   10   1   47.199000   1.192000  13.589000
14810   10   1   47.221000   1.17000  15.152000
14811   10   1   47.196000   -1.754000  13.061000
14812   10   1   47.234000   -1.776000  15.655000
14813   10   1   45.94000   0.444000  15.684000
14814   10   1   45.915000   -1.011000  13.6000
14815   10   1   45.939000   -1.027000  15.155000
14816   10   1   45.905000   0.471000  13.08000
14817   10   1   49.769000   1.168000  13.551000
14818   10   1   49.793000   1.144000  15.116000
14819   10   1   49.766000   -1.776000  13.009000
14820   10   1   49.808000   -1.799000  15.618000
14821   10   1   48.514000   0.417000  15.652000
14822   10   1   48.49000   -1.031000  13.557000
14823   10   1   48.514000   -1.049000  15.118000
14824   10   1   48.476000   0.449000  13.041000
14825   10   1   52.338000   1.147000  13.509000
14826   10   1   52.364000   1.123000  15.074000
14827   10   1   52.335000   -1.797000  12.957000
14828   10   1   52.38000   -1.82000  15.57000
14829   10   1   51.086000   0.393000  15.612000
14830   10   1   51.059000   -1.056000  13.51000
14831   10   1   51.086000   -1.072000  15.075000
14832   10   1   51.044000   0.427000  12.999000
14833   10   1   54.909000   1.135000  13.461000
14834   10   1   54.935000   1.114000  15.028000
14835   10   1   54.904000   -1.812000  12.908000
14836   10   1   54.95000   -1.833000  15.521000
14837   10   1   53.659000   0.377000  15.566000
14838   10   1   53.629000   -1.072000  13.462000
14839   10   1   53.656000   -1.09000  15.026000
14840   10   1   53.613000   0.41000  12.952000
14841   10   1   57.48000   1.136000  13.402000
14842   10   1   57.507000   1.118000  14.986000
14843   10   1   57.475000   -1.819000  12.854000
14844   10   1   57.522000   -1.837000  15.476000
14845   10   1   56.23000   0.372000  15.522000
14846   10   1   56.199000   -1.082000  13.412000
14847   10   1   56.227000   -1.096000  14.978000
14848   10   1   56.182000   0.402000  12.899000
14849   10   1   60.02000   -1.833000  12.764000
14850   10   1   60.068000   -1.844000  15.469000
14851   10   1   58.775000   0.367000  15.512000
14852   10   1   58.771000   -1.081000  13.353000
14853   10   1   58.798000   -1.092000  14.937000
14854   10   1   58.727000   0.389000  12.807000
14855   10   1   13.799000   2.829000  13.562000
14856   10   1   13.829000   2.81000  16.271000
14857   10   1   16.337000   5.76000  14.15000
14858   10   1   16.36000   5.737000  15.732000
14859   10   1   16.342000   2.828000  13.582000
14860   10   1   16.372000   2.801000  16.207000
14861   10   1   15.112000   4.994000  16.293000
14862   10   1   15.06000   3.565000  14.124000
14863   10   1   15.08000   3.549000  15.708000
14864   10   1   15.077000   5.024000  13.585000
14865   10   1   18.906000   5.764000  14.125000
14866   10   1   18.93000   5.734000  15.692000
14867   10   1   18.906000   2.825000  13.559000
14868   10   1   18.941000   2.795000  16.174000
14869   10   1   17.656000   4.994000  16.225000
14870   10   1   17.63000   3.554000  14.106000
14871   10   1   17.649000   3.534000  15.673000
14872   10   1   17.62000   5.034000  13.6000
14873   10   1   21.468000   5.782000  14.085000
14874   10   1   21.496000   5.751000  15.649000
14875   10   1   21.468000   2.828000  13.526000
14876   10   1   21.508000   2.799000  16.138000
14877   10   1   20.226000   5.0000  16.183000
14878   10   1   20.194000   3.558000  14.075000
14879   10   1   20.217000   3.536000  15.639000
14880   10   1   20.183000   5.043000  13.57000
14881   10   1   24.028000   5.796000  14.036000
14882   10   1   24.059000   5.769000  15.6000
14883   10   1   24.028000   2.831000  13.485000
14884   10   1   24.075000   2.807000  16.098000
14885   10   1   22.791000   5.015000  16.138000
14886   10   1   22.756000   3.567000  14.036000
14887   10   1   22.782000   3.545000  15.6000
14888   10   1   22.743000   5.055000  13.528000
14889   10   1   26.593000   5.794000  13.981000
14890   10   1   26.626000   5.772000  15.546000
14891   10   1   26.591000   2.828000  13.439000
14892   10   1   26.641000   2.808000  16.05000
14893   10   1   25.356000   5.026000  16.089000
14894   10   1   25.319000   3.569000  13.99000
14895   10   1   25.348000   3.551000  15.554000
14896   10   1   25.303000   5.059000  13.479000
14897   10   1   29.164000   5.78000  13.923000
14898   10   1   29.198000   5.761000  15.488000
14899   10   1   29.158000   2.816000  13.385000
14900   10   1   29.211000   2.799000  15.994000
14901   10   1   27.924000   5.022000  16.034000
14902   10   1   27.885000   3.561000  13.937000
14903   10   1   27.916000   3.547000  15.502000
14904   10   1   27.868000   5.05000  13.424000
14905   10   1   31.741000   5.756000  13.866000
14906   10   1   31.773000   5.742000  15.431000
14907   10   1   31.73000   2.797000  13.326000
14908   10   1   31.784000   2.781000  15.934000
14909   10   1   30.496000   5.009000  15.976000
14910   10   1   30.455000   3.545000  13.88000
14911   10   1   30.487000   3.533000  15.444000
14912   10   1   30.442000   5.033000  13.366000
14913   10   1   34.322000   5.735000  13.812000
14914   10   1   34.351000   5.72000  15.376000
14915   10   1   34.307000   2.778000  13.27000
14916   10   1   34.358000   2.762000  15.875000
14917   10   1   33.07000   4.989000  15.92000
14918   10   1   33.031000   3.525000  13.822000
14919   10   1   33.062000   3.514000  15.386000
14920   10   1   33.019000   5.011000  13.31000
14921   10   1   36.904000   5.713000  13.765000
14922   10   1   36.929000   5.695000  15.33000
14923   10   1   36.889000   2.759000  13.218000
14924   10   1   36.932000   2.741000  15.823000
14925   10   1   35.647000   4.966000  15.868000
14926   10   1   35.609000   3.504000  13.769000
14927   10   1   35.637000   3.493000  15.332000
14928   10   1   35.601000   4.99000  13.258000
14929   10   1   39.486000   5.691000  13.728000
14930   10   1   39.508000   5.672000  15.293000
14931   10   1   39.468000   2.739000  13.175000
14932   10   1   39.507000   2.716000  15.78000
14933   10   1   38.223000   4.942000  15.825000
14934   10   1   38.189000   3.483000  13.722000
14935   10   1   38.214000   3.469000  15.285000
14936   10   1   38.185000   4.971000  13.214000
14937   10   1   42.065000   5.67000  13.699000
14938   10   1   42.082000   5.647000  15.263000
14939   10   1   42.046000   2.718000  13.14000
14940   10   1   42.08000   2.69000  15.748000
14941   10   1   40.797000   4.916000  15.79000
14942   10   1   40.768000   3.463000  13.685000
14943   10   1   40.789000   3.445000  15.249000
14944   10   1   40.767000   4.951000  13.18000
14945   10   1   44.64000   5.651000  13.674000
14946   10   1   44.655000   5.619000  15.239000
14947   10   1   44.62000   2.699000  13.11000
14948   10   1   44.652000   2.664000  15.72000
14949   10   1   43.37000   4.888000  15.762000
14950   10   1   43.343000   3.441000  13.655000
14951   10   1   43.363000   3.419000  15.219000
14952   10   1   43.344000   4.93000  13.152000
14953   10   1   47.21000   5.625000  13.653000
14954   10   1   47.225000   5.587000  15.218000
14955   10   1   47.191000   2.676000  13.08000
14956   10   1   47.224000   2.636000  15.692000
14957   10   1   45.941000   4.857000  15.739000
14958   10   1   45.915000   3.419000  13.628000
14959   10   1   45.934000   3.393000  15.192000
14960   10   1   45.915000   4.909000  13.128000
14961   10   1   49.776000   5.594000  13.629000
14962   10   1   49.793000   5.55000  15.193000
14963   10   1   49.758000   2.652000  13.046000
14964   10   1   49.795000   2.607000  15.659000
14965   10   1   48.509000   4.823000  15.714000
14966   10   1   48.484000   3.393000  13.599000
14967   10   1   48.504000   3.362000  15.162000
14968   10   1   48.481000   4.883000  13.102000
14969   10   1   52.343000   5.568000  13.597000
14970   10   1   52.363000   5.525000  15.163000
14971   10   1   52.326000   2.632000  13.007000
14972   10   1   52.367000   2.585000  15.62000
14973   10   1   51.08000   4.792000  15.685000
14974   10   1   51.054000   3.369000  13.564000
14975   10   1   51.076000   3.335000  15.129000
14976   10   1   51.047000   4.855000  13.071000
14977   10   1   54.915000   5.557000  13.546000
14978   10   1   54.936000   5.523000  15.129000
14979   10   1   54.895000   2.62000  12.957000
14980   10   1   54.94000   2.576000  15.58000
14981   10   1   53.653000   4.777000  15.652000
14982   10   1   53.622000   3.351000  13.522000
14983   10   1   53.647000   3.32000  15.089000
14984   10   1   53.615000   4.837000  13.028000
14985   10   1   57.439000   2.605000  12.864000
14986   10   1   57.487000   2.572000  15.57000
14987   10   1   56.201000   4.77000  15.646000
14988   10   1   56.194000   3.348000  13.466000
14989   10   1   56.219000   3.325000  15.05000
14990   10   1   56.159000   4.819000  12.939000
14991   10   1   16.341000   7.22000  13.619000
14992   10   1   16.386000   7.175000  16.328000
14993   10   1   18.835000   10.161000  14.242000
14994   10   1   18.876000   10.113000  15.828000
14995   10   1   18.886000   7.246000  13.629000
14996   10   1   18.933000   7.189000  16.253000
14997   10   1   17.645000   9.35000  16.379000
14998   10   1   17.598000   7.955000  14.188000
14999   10   1   17.629000   7.922000  15.771000
15000   10   1   17.585000   9.416000  13.672000
15001   10   1   21.402000   10.244000  14.195000
15002   10   1   21.442000   10.191000  15.767000
15003   10   1   21.446000   7.274000  13.591000
15004   10   1   21.5000   7.215000  16.201000
15005   10   1   20.192000   9.4000  16.294000
15006   10   1   20.167000   7.987000  14.155000
15007   10   1   20.199000   7.947000  15.721000
15008   10   1   20.13000   9.478000  13.672000
15009   10   1   23.969000   10.269000  14.13000
15010   10   1   24.008000   10.227000  15.694000
15011   10   1   24.003000   7.292000  13.538000
15012   10   1   24.062000   7.24000  16.146000
15013   10   1   22.754000   9.453000  16.227000
15014   10   1   22.726000   8.022000  14.104000
15015   10   1   22.761000   7.984000  15.667000
15016   10   1   22.686000   9.525000  13.622000
15017   10   1   26.551000   10.256000  14.055000
15018   10   1   26.591000   10.224000  15.618000
15019   10   1   26.568000   7.288000  13.478000
15020   10   1   26.628000   7.247000  16.086000
15021   10   1   25.32000   9.474000  16.159000
15022   10   1   25.291000   8.029000  14.043000
15023   10   1   25.326000   7.998000  15.607000
15024   10   1   25.253000   9.531000  13.554000
15025   10   1   29.143000   10.227000  13.982000
15026   10   1   29.18000   10.203000  15.546000
15027   10   1   29.145000   7.27000  13.417000
15028   10   1   29.202000   7.236000  16.026000
15029   10   1   27.901000   9.466000  16.09000
15030   10   1   27.865000   8.016000  13.98000
15031   10   1   27.901000   7.99000  15.544000
15032   10   1   27.836000   9.51000  13.484000
15033   10   1   31.738000   10.196000  13.918000
15034   10   1   31.769000   10.176000  15.482000
15035   10   1   31.726000   7.246000  13.359000
15036   10   1   31.781000   7.216000  15.967000
15037   10   1   30.486000   9.444000  16.024000
15038   10   1   30.447000   7.992000  13.918000
15039   10   1   30.48000   7.971000  15.482000
15040   10   1   30.427000   9.481000  13.417000
15041   10   1   34.331000   10.169000  13.864000
15042   10   1   34.358000   10.15000  15.429000
15043   10   1   34.313000   7.221000  13.305000
15044   10   1   34.36000   7.192000  15.915000
15045   10   1   33.071000   9.419000  15.967000
15046   10   1   33.032000   7.965000  13.861000
15047   10   1   33.062000   7.947000  15.426000
15048   10   1   33.021000   9.452000  13.359000
15049   10   1   36.923000   10.145000  13.824000
15050   10   1   36.944000   10.123000  15.388000
15051   10   1   36.9000   7.198000  13.261000
15052   10   1   36.939000   7.168000  15.871000
15053   10   1   35.655000   9.393000  15.919000
15054   10   1   35.619000   7.94000  13.813000
15055   10   1   35.644000   7.922000  15.378000
15056   10   1   35.615000   9.426000  13.31000
15057   10   1   39.513000   10.123000  13.797000
15058   10   1   39.528000   10.1000  15.36000
15059   10   1   39.487000   7.178000  13.225000
15060   10   1   39.517000   7.142000  15.836000
15061   10   1   38.237000   9.367000  15.884000
15062   10   1   38.205000   7.918000  13.774000
15063   10   1   38.226000   7.897000  15.339000
15064   10   1   38.208000   9.405000  13.275000
15065   10   1   42.102000   10.106000  13.782000
15066   10   1   42.111000   10.075000  15.346000
15067   10   1   42.071000   7.161000  13.2000
15068   10   1   42.093000   7.114000  15.811000
15069   10   1   40.818000   9.34000  15.86000
15070   10   1   40.789000   7.899000  13.746000
15071   10   1   40.805000   7.872000  15.311000
15072   10   1   40.798000   9.388000  13.252000
15073   10   1   44.686000   10.091000  13.779000
15074   10   1   44.691000   10.048000  15.344000
15075   10   1   44.648000   7.142000  13.182000
15076   10   1   44.665000   7.084000  15.793000
15077   10   1   43.396000   9.312000  15.848000
15078   10   1   43.37000   7.88000  13.728000
15079   10   1   43.382000   7.847000  15.293000
15080   10   1   43.385000   9.373000  13.24000
15081   10   1   47.265000   10.074000  13.784000
15082   10   1   47.267000   10.018000  15.348000
15083   10   1   47.218000   7.119000  13.167000
15084   10   1   47.234000   7.048000  15.777000
15085   10   1   45.971000   9.281000  15.845000
15086   10   1   45.946000   7.859000  13.716000
15087   10   1   45.955000   7.817000  15.279000
15088   10   1   45.966000   9.358000  13.236000
15089   10   1   49.831000   10.034000  13.785000
15090   10   1   49.833000   9.967000  15.351000
15091   10   1   49.78000   7.087000  13.148000
15092   10   1   49.8000   7.006000  15.76000
15093   10   1   48.538000   9.235000  15.843000
15094   10   1   48.512000   7.831000  13.704000
15095   10   1   48.522000   7.779000  15.268000
15096   10   1   48.533000   9.332000  13.234000
15097   10   1   52.392000   9.962000  13.763000
15098   10   1   52.393000   9.898000  15.343000
15099   10   1   52.343000   7.055000  13.114000
15100   10   1   52.372000   6.974000  15.738000
15101   10   1   51.1000   9.177000  15.84000
15102   10   1   51.075000   7.789000  13.684000
15103   10   1   51.087000   7.734000  15.25000
15104   10   1   51.09000   9.282000  13.218000
15105   10   1   54.888000   7.027000  13.032000
15106   10   1   54.92000   6.961000  15.74000
15107   10   1   53.647000   9.139000  15.853000
15108   10   1   53.645000   7.76000  13.644000
15109   10   1   53.659000   7.715000  15.227000
15110   10   1   53.631000   9.229000  13.145000
15111   10   1   18.781000   11.623000  13.735000
15112   10   1   18.866000   11.525000  16.465000
15113   10   1   21.326000   11.757000  13.724000
15114   10   1   21.407000   11.658000  16.362000
15115   10   1   20.011000   12.374000  14.334000
15116   10   1   20.064000   12.309000  15.889000
15117   10   3   23.871000   14.716000  14.282000
15118   10   3   23.915000   14.669000  15.837000
15119   10   1   23.906000   11.778000  13.654000
15120   10   1   23.984000   11.702000  16.263000
15121   10   3   22.639000   13.916000  16.43000
15122   10   1   22.6000   12.509000  14.244000
15123   10   1   22.644000   12.455000  15.819000
15124   10   3   22.552000   14.016000  13.761000
15125   10   3   26.522000   14.667000  14.162000
15126   10   3   26.563000   14.634000  15.718000
15127   10   1   26.512000   11.755000  13.566000
15128   10   1   26.585000   11.698000  16.175000
15129   10   3   25.259000   13.935000  16.301000
15130   10   1   25.217000   12.502000  14.147000
15131   10   1   25.261000   12.462000  15.722000
15132   10   3   25.179000   14.004000  13.655000
15133   10   3   29.144000   14.628000  14.063000
15134   10   3   29.182000   14.603000  15.621000
15135   10   1   29.121000   11.717000  13.486000
15136   10   1   29.187000   11.674000  16.095000
15137   10   3   27.885000   13.905000  16.199000
15138   10   1   27.832000   12.464000  14.056000
15139   10   1   27.873000   12.436000  15.632000
15140   10   3   27.812000   13.955000  13.55000
15141   10   3   31.755000   14.595000  13.986000
15142   10   3   31.786000   14.576000  15.543000
15143   10   1   31.725000   11.684000  13.417000
15144   10   1   31.782000   11.648000  16.028000
15145   10   3   30.493000   13.877000  16.116000
15146   10   1   30.439000   12.43000  13.979000
15147   10   1   30.475000   12.408000  15.554000
15148   10   3   30.43000   13.916000  13.465000
15149   10   3   34.355000   14.566000  13.928000
15150   10   3   34.382000   14.549000  15.486000
15151   10   1   34.326000   11.654000  13.362000
15152   10   1   34.372000   11.62000  15.974000
15153   10   3   33.09000   13.851000  16.051000
15154   10   1   33.041000   12.399000  13.916000
15155   10   1   33.071000   12.38000  15.491000
15156   10   3   33.038000   13.885000  13.398000
15157   10   3   36.954000   14.541000  13.893000
15158   10   3   36.974000   14.523000  15.45000
15159   10   1   36.925000   11.63000  13.323000
15160   10   1   36.958000   11.593000  15.935000
15161   10   3   35.68000   13.823000  16.004000
15162   10   1   35.638000   12.373000  13.869000
15163   10   1   35.663000   12.353000  15.444000
15164   10   3   35.641000   13.857000  13.351000
15165   10   3   39.55000   14.521000  13.877000
15166   10   3   39.563000   14.498000  15.435000
15167   10   1   39.522000   11.611000  13.299000
15168   10   1   39.542000   11.567000  15.912000
15169   10   3   38.268000   13.796000  15.978000
15170   10   1   38.234000   12.349000  13.839000
15171   10   1   38.251000   12.328000  15.414000
15172   10   3   38.241000   13.835000  13.324000
15173   10   3   42.146000   14.504000  13.886000
15174   10   3   42.154000   14.473000  15.444000
15175   10   1   42.117000   11.597000  13.292000
15176   10   1   42.126000   11.539000  15.904000
15177   10   3   40.853000   13.769000  15.971000
15178   10   1   40.829000   12.332000  13.827000
15179   10   1   40.838000   12.304000  15.402000
15180   10   3   40.841000   13.819000  13.317000
15181   10   3   44.744000   14.489000  13.917000
15182   10   3   44.746000   14.446000  15.475000
15183   10   1   44.711000   11.585000  13.3000
15184   10   1   44.71000   11.51000  15.912000
15185   10   3   43.441000   13.741000  15.986000
15186   10   1   43.421000   12.316000  13.832000
15187   10   1   43.426000   12.279000  15.407000
15188   10   3   43.44000   13.807000  13.333000
15189   10   3   47.35000   14.48000  13.978000
15190   10   3   47.345000   14.419000  15.53000
15191   10   1   47.303000   11.579000  13.322000
15192   10   1   47.293000   11.478000  15.93000
15193   10   3   46.033000   13.708000  16.021000
15194   10   1   46.014000   12.304000  13.854000
15195   10   1   46.015000   12.25000  15.428000
15196   10   3   46.046000   13.8000  13.373000
15197   10   1   49.877000   11.543000  13.339000
15198   10   1   49.866000   11.417000  15.954000
15199   10   3   48.642000   13.681000  16.076000
15200   10   1   48.611000   12.292000  13.889000
15201   10   1   48.606000   12.221000  15.461000
15202   10   3   48.667000   13.81000  13.443000
15203   10   1   52.414000   11.429000  13.288000
15204   10   1   52.403000   11.306000  15.987000
15205   10   1   51.194000   12.211000  13.911000
15206   10   1   51.182000   12.133000  15.487000
15207   10   1   5.866000   -16.258000  14.24000
15208   10   1   5.886000   -16.252000  15.793000
15209   10   1   8.439000   -16.277000  14.2000
15210   10   1   8.458000   -16.267000  15.773000
15211   10   1   8.485000   -19.248000  13.685000
15212   10   1   8.518000   -19.229000  16.338000
15213   10   1   7.179000   -17.001000  16.332000
15214   10   1   7.219000   -18.488000  14.24000
15215   10   1   7.239000   -18.479000  15.798000
15216   10   1   7.146000   -17.014000  13.683000
15217   10   1   11.042000   -16.294000  14.174000
15218   10   1   11.062000   -16.285000  15.739000
15219   10   1   11.066000   -19.249000  13.675000
15220   10   1   11.099000   -19.229000  16.289000
15221   10   1   9.774000   -17.006000  16.284000
15222   10   1   9.772000   -18.504000  14.202000
15223   10   1   9.791000   -18.494000  15.778000
15224   10   1   9.743000   -17.023000  13.671000
15225   10   1   13.641000   -16.313000  14.146000
15226   10   1   13.661000   -16.304000  15.71000
15227   10   1   13.651000   -19.262000  13.647000
15228   10   1   13.685000   -19.241000  16.256000
15229   10   1   12.371000   -17.023000  16.252000
15230   10   1   12.361000   -18.515000  14.178000
15231   10   1   12.381000   -18.504000  15.743000
15232   10   1   12.339000   -17.039000  13.644000
15233   10   1   16.233000   -16.33000  14.116000
15234   10   1   16.254000   -16.323000  15.681000
15235   10   1   16.236000   -19.278000  13.614000
15236   10   1   16.271000   -19.259000  16.225000
15237   10   1   14.965000   -17.042000  16.224000
15238   10   1   14.948000   -18.53000  14.147000
15239   10   1   14.968000   -18.52000  15.712000
15240   10   1   14.932000   -17.057000  13.612000
15241   10   1   18.821000   -16.348000  14.085000
15242   10   1   18.842000   -16.341000  15.65000
15243   10   1   18.817000   -19.296000  13.578000
15244   10   1   18.854000   -19.279000  16.19000
15245   10   1   17.555000   -17.061000  16.193000
15246   10   1   17.533000   -18.548000  14.115000
15247   10   1   17.555000   -18.539000  15.679000
15248   10   1   17.52000   -17.075000  13.581000
15249   10   1   21.397000   -19.315000  13.539000
15250   10   1   21.437000   -19.301000  16.145000
15251   10   1   20.143000   -17.081000  16.157000
15252   10   1   20.116000   -18.566000  14.077000
15253   10   1   20.139000   -18.56000  15.641000
15254   10   1   20.106000   -17.093000  13.548000
15255   10   1   52.279000   -19.502000  12.933000
15256   10   1   52.315000   -19.48000  15.541000
15257   10   1   54.893000   -16.566000  13.406000
15258   10   1   54.913000   -16.558000  14.971000
15259   10   1   54.858000   -19.516000  12.907000
15260   10   1   54.888000   -19.493000  15.519000
15261   10   1   53.622000   -17.28000  15.511000
15262   10   1   53.581000   -18.768000  13.435000
15263   10   1   53.601000   -18.757000  14.999000
15264   10   1   53.589000   -17.294000  12.9000
15265   10   1   57.477000   -16.583000  13.381000
15266   10   1   57.493000   -16.574000  14.946000
15267   10   1   57.435000   -19.533000  12.882000
15268   10   1   57.462000   -19.51000  15.495000
15269   10   1   56.2000   -17.296000  15.487000
15270   10   1   56.159000   -18.784000  13.41000
15271   10   1   56.177000   -18.772000  14.975000
15272   10   1   56.172000   -17.311000  12.874000
15273   10   1   60.063000   -16.602000  13.362000
15274   10   1   60.075000   -16.593000  14.926000
15275   10   1   60.009000   -19.555000  12.858000
15276   10   1   60.032000   -19.536000  15.474000
15277   10   1   58.779000   -17.313000  15.463000
15278   10   1   58.737000   -18.803000  13.387000
15279   10   1   58.753000   -18.792000  14.952000
15280   10   1   58.756000   -17.328000  12.852000
15281   10   1   62.649000   -16.63000  13.346000
15282   10   1   62.656000   -16.622000  14.92000
15283   10   1   62.579000   -19.589000  12.818000
15284   10   1   62.599000   -19.574000  15.476000
15285   10   1   61.354000   -17.338000  15.449000
15286   10   1   61.314000   -18.83000  13.363000
15287   10   1   61.326000   -18.82000  14.937000
15288   10   1   61.339000   -17.352000  12.834000
15289   10   1   65.198000   -16.673000  13.358000
15290   10   1   65.198000   -16.668000  14.912000
15291   10   1   63.921000   -17.382000  15.46000
15292   10   1   63.853000   -18.854000  13.358000
15293   10   1   63.862000   -18.848000  14.916000
15294   10   1   63.914000   -17.392000  12.807000
15295   10   1   8.545000   -20.715000  14.248000
15296   10   1   8.564000   -20.704000  15.805000
15297   10   1   11.091000   -20.728000  14.21000
15298   10   1   11.111000   -20.716000  15.785000
15299   10   1   11.112000   -23.693000  13.703000
15300   10   1   11.148000   -23.669000  16.359000
15301   10   1   9.838000   -21.452000  16.348000
15302   10   1   9.856000   -22.936000  14.258000
15303   10   1   9.878000   -22.922000  15.816000
15304   10   1   9.804000   -21.473000  13.693000
15305   10   1   13.671000   -20.735000  14.184000
15306   10   1   13.692000   -20.724000  15.749000
15307   10   1   13.684000   -23.691000  13.69000
15308   10   1   13.72000   -23.67000  16.306000
15309   10   1   12.414000   -21.45000  16.297000
15310   10   1   12.398000   -22.948000  14.219000
15311   10   1   12.42000   -22.935000  15.794000
15312   10   1   12.38000   -21.472000  13.683000
15313   10   1   16.252000   -20.75000  14.151000
15314   10   1   16.273000   -20.74000  15.716000
15315   10   1   16.257000   -23.703000  13.657000
15316   10   1   16.293000   -23.683000  16.269000
15317   10   1   14.993000   -21.461000  16.262000
15318   10   1   14.974000   -22.955000  14.19000
15319   10   1   14.996000   -22.944000  15.755000
15320   10   1   14.957000   -21.482000  13.652000
15321   10   1   18.83000   -20.769000  14.114000
15322   10   1   18.854000   -20.759000  15.679000
15323   10   1   18.83000   -23.722000  13.62000
15324   10   1   18.868000   -23.703000  16.232000
15325   10   1   17.572000   -21.479000  16.228000
15326   10   1   17.55000   -22.971000  14.155000
15327   10   1   17.572000   -22.96000  15.72000
15328   10   1   17.535000   -21.498000  13.616000
15329   10   1   21.409000   -20.791000  14.073000
15330   10   1   21.433000   -20.782000  15.635000
15331   10   1   21.403000   -23.747000  13.579000
15332   10   1   21.441000   -23.729000  16.191000
15333   10   1   20.152000   -21.502000  16.189000
15334   10   1   20.125000   -22.994000  14.116000
15335   10   1   20.147000   -22.982000  15.681000
15336   10   1   20.112000   -21.52000  13.578000
15337   10   1   23.976000   -23.776000  13.537000
15338   10   1   24.016000   -23.756000  16.144000
15339   10   1   22.729000   -21.527000  16.141000
15340   10   1   22.7000   -23.019000  14.073000
15341   10   1   22.722000   -23.01000  15.636000
15342   10   1   22.687000   -21.544000  13.534000
15343   10   1   49.67000   -23.927000  13.037000
15344   10   1   49.713000   -23.892000  15.645000
15345   10   1   52.272000   -20.974000  13.475000
15346   10   1   52.295000   -20.96000  15.039000
15347   10   1   52.243000   -23.931000  13.004000
15348   10   1   52.282000   -23.897000  15.615000
15349   10   1   51.011000   -21.683000  15.585000
15350   10   1   50.969000   -23.184000  13.529000
15351   10   1   50.994000   -23.167000  15.092000
15352   10   1   50.972000   -21.714000  12.979000
15353   10   1   54.847000   -20.987000  13.449000
15354   10   1   54.868000   -20.972000  15.014000
15355   10   1   54.814000   -23.941000  12.973000
15356   10   1   54.85000   -23.908000  15.586000
15357   10   1   53.583000   -21.692000  15.562000
15358   10   1   53.541000   -23.192000  13.499000
15359   10   1   53.564000   -23.175000  15.063000
15360   10   1   53.548000   -21.723000  12.95000
15361   10   1   57.421000   -21.005000  13.423000
15362   10   1   57.439000   -20.99000  14.988000
15363   10   1   57.383000   -23.959000  12.94000
15364   10   1   57.416000   -23.927000  15.558000
15365   10   1   56.153000   -21.708000  15.535000
15366   10   1   56.113000   -23.206000  13.469000
15367   10   1   56.132000   -23.188000  15.034000
15368   10   1   56.12000   -21.737000  12.923000
15369   10   1   59.994000   -21.03000  13.393000
15370   10   1   60.01000   -21.017000  14.968000
15371   10   1   59.949000   -23.986000  12.889000
15372   10   1   59.981000   -23.956000  15.547000
15373   10   1   58.721000   -21.731000  15.511000
15374   10   1   58.683000   -23.23000  13.435000
15375   10   1   58.702000   -23.212000  15.01000
15376   10   1   58.691000   -21.757000  12.894000
15377   10   1   62.532000   -21.049000  13.378000
15378   10   1   62.547000   -21.038000  14.936000
15379   10   1   61.286000   -21.764000  15.505000
15380   10   1   61.22000   -23.245000  13.414000
15381   10   1   61.238000   -23.229000  14.972000
15382   10   1   61.26000   -21.789000  12.848000
15383   10   1   11.158000   -25.153000  14.268000
15384   10   1   11.18000   -25.14000  15.827000
15385   10   1   13.697000   -25.167000  14.227000
15386   10   1   13.721000   -25.155000  15.801000
15387   10   1   13.698000   -28.12000  13.712000
15388   10   1   13.738000   -28.103000  16.37000
15389   10   1   12.449000   -25.886000  16.368000
15390   10   1   12.449000   -27.367000  14.275000
15391   10   1   12.472000   -27.354000  15.832000
15392   10   1   12.409000   -25.908000  13.71000
15393   10   1   16.27000   -25.175000  14.196000
15394   10   1   16.293000   -25.164000  15.761000
15395   10   1   16.265000   -28.124000  13.695000
15396   10   1   16.305000   -28.112000  16.312000
15397   10   1   15.017000   -25.89000  16.312000
15398   10   1   14.987000   -27.383000  14.229000
15399   10   1   15.011000   -27.373000  15.805000
15400   10   1   14.979000   -25.91000  13.696000
15401   10   1   18.842000   -25.194000  14.159000
15402   10   1   18.865000   -25.184000  15.723000
15403   10   1   18.834000   -28.145000  13.661000
15404   10   1   18.871000   -28.134000  16.273000
15405   10   1   17.587000   -25.906000  16.273000
15406   10   1   17.559000   -27.396000  14.198000
15407   10   1   17.581000   -27.388000  15.763000
15408   10   1   17.548000   -25.923000  13.662000
15409   10   1   21.414000   -25.221000  14.119000
15410   10   1   21.437000   -25.211000  15.684000
15411   10   1   21.402000   -28.175000  13.625000
15412   10   1   21.438000   -28.164000  16.238000
15413   10   1   20.157000   -25.931000  16.236000
15414   10   1   20.128000   -27.42000  14.161000
15415   10   1   20.15000   -27.412000  15.726000
15416   10   1   20.119000   -25.947000  13.624000
15417   10   1   23.986000   -25.251000  14.078000
15418   10   1   24.007000   -25.24000  15.642000
15419   10   1   23.969000   -28.21000  13.59000
15420   10   1   24.003000   -28.196000  16.202000
15421   10   1   22.726000   -25.959000  16.197000
15422   10   1   22.697000   -27.452000  14.124000
15423   10   1   22.717000   -27.443000  15.689000
15424   10   1   22.69000   -25.978000  13.584000
15425   10   1   26.536000   -28.247000  13.555000
15426   10   1   26.571000   -28.228000  16.164000
15427   10   1   25.297000   -25.99000  16.153000
15428   10   1   25.264000   -27.485000  14.086000
15429   10   1   25.285000   -27.475000  15.651000
15430   10   1   25.26000   -26.01000  13.545000
15431   10   1   47.085000   -28.359000  13.18000
15432   10   1   47.134000   -28.323000  15.791000
15433   10   1   49.67000   -25.395000  13.592000
15434   10   1   49.698000   -25.376000  15.156000
15435   10   1   49.651000   -28.352000  13.133000
15436   10   1   49.697000   -28.317000  15.745000
15437   10   1   48.421000   -26.104000  15.715000
15438   10   1   48.377000   -27.61000  13.664000
15439   10   1   48.407000   -27.59000  15.227000
15440   10   1   48.374000   -26.141000  13.106000
15441   10   1   52.239000   -25.399000  13.557000
15442   10   1   52.265000   -25.378000  15.122000
15443   10   1   52.219000   -28.349000  13.091000
15444   10   1   52.26000   -28.316000  15.704000
15445   10   1   50.986000   -26.104000  15.678000
15446   10   1   50.945000   -27.608000  13.621000
15447   10   1   50.972000   -27.588000  15.185000
15448   10   1   50.944000   -26.141000  13.066000
15449   10   1   54.81000   -25.408000  13.524000
15450   10   1   54.832000   -25.388000  15.088000
15451   10   1   54.786000   -28.356000  13.05000
15452   10   1   54.823000   -28.322000  15.668000
15453   10   1   53.551000   -26.11000  15.643000
15454   10   1   53.514000   -27.611000  13.583000
15455   10   1   53.537000   -27.591000  15.148000
15456   10   1   53.513000   -26.146000  13.031000
15457   10   1   57.379000   -25.428000  13.486000
15458   10   1   57.4000   -25.409000  15.061000
15459   10   1   57.352000   -28.377000  12.994000
15460   10   1   57.388000   -28.341000  15.652000
15461   10   1   56.116000   -26.123000  15.612000
15462   10   1   56.083000   -27.626000  13.541000
15463   10   1   56.104000   -27.605000  15.116000
15464   10   1   56.081000   -26.158000  12.993000
15465   10   1   59.916000   -25.44000  13.461000
15466   10   1   59.937000   -25.422000  15.018000
15467   10   1   58.681000   -26.148000  15.599000
15468   10   1   58.619000   -27.634000  13.515000
15469   10   1   58.64000   -27.614000  15.073000
15470   10   1   58.647000   -26.184000  12.939000
15471   10   1   13.731000   -29.576000  14.272000
15472   10   1   13.756000   -29.567000  15.829000
15473   10   1   16.269000   -29.597000  14.224000
15474   10   1   16.293000   -29.592000  15.799000
15475   10   1   16.248000   -32.533000  13.68000
15476   10   1   16.284000   -32.539000  16.34000
15477   10   1   15.017000   -30.32000  16.363000
15478   10   1   15.004000   -31.784000  14.255000
15479   10   1   15.027000   -31.782000  15.813000
15480   10   1   14.977000   -30.328000  13.703000
15481   10   1   18.84000   -29.618000  14.193000
15482   10   1   18.86000   -29.614000  15.757000
15483   10   1   18.817000   -32.554000  13.665000
15484   10   1   18.847000   -32.567000  16.284000
15485   10   1   17.582000   -30.337000  16.304000
15486   10   1   17.542000   -31.813000  14.207000
15487   10   1   17.564000   -31.814000  15.782000
15488   10   1   17.545000   -30.34000  13.686000
15489   10   1   21.407000   -29.649000  14.16000
15490   10   1   21.426000   -29.646000  15.724000
15491   10   1   21.383000   -32.598000  13.638000
15492   10   1   21.408000   -32.609000  16.251000
15493   10   1   20.146000   -30.368000  16.267000
15494   10   1   20.112000   -31.843000  14.179000
15495   10   1   20.129000   -31.846000  15.744000
15496   10   1   20.113000   -30.368000  13.654000
15497   10   1   23.972000   -29.687000  14.126000
15498   10   1   23.99000   -29.682000  15.692000
15499   10   1   23.946000   -32.645000  13.614000
15500   10   1   23.967000   -32.652000  16.225000
15501   10   1   22.708000   -30.404000  16.235000
15502   10   1   22.678000   -31.885000  14.151000
15503   10   1   22.692000   -31.887000  15.715000
15504   10   1   22.678000   -30.407000  13.622000
15505   10   1   26.538000   -29.724000  14.095000
15506   10   1   26.556000   -29.716000  15.659000
15507   10   1   26.511000   -32.687000  13.59000
15508   10   1   26.532000   -32.685000  16.201000
15509   10   1   25.272000   -30.44000  16.204000
15510   10   1   25.241000   -31.927000  14.123000
15511   10   1   25.254000   -31.926000  15.689000
15512   10   1   25.243000   -30.448000  13.592000
15513   10   1   29.104000   -29.759000  14.064000
15514   10   1   29.123000   -29.748000  15.627000
15515   10   1   29.079000   -32.722000  13.566000
15516   10   1   29.105000   -32.71000  16.176000
15517   10   1   27.839000   -30.47000  16.174000
15518   10   1   27.806000   -31.963000  14.098000
15519   10   1   27.821000   -31.958000  15.663000
15520   10   1   27.809000   -30.485000  13.562000
15521   10   1   31.675000   -29.791000  14.034000
15522   10   1   31.696000   -29.776000  15.595000
15523   10   1   31.652000   -32.75000  13.537000
15524   10   1   31.683000   -32.731000  16.148000
15525   10   1   30.41000   -30.498000  16.142000
15526   10   1   30.376000   -31.994000  14.07000
15527   10   1   30.394000   -31.984000  15.634000
15528   10   1   30.377000   -30.519000  13.534000
15529   10   1   34.247000   -29.817000  13.999000
15530   10   1   34.271000   -29.799000  15.557000
15531   10   1   34.228000   -32.772000  13.504000
15532   10   1   34.264000   -32.75000  16.114000
15533   10   1   32.987000   -30.521000  16.108000
15534   10   1   32.951000   -32.02000  14.038000
15535   10   1   32.972000   -32.007000  15.603000
15536   10   1   32.949000   -30.547000  13.502000
15537   10   1   36.819000   -29.834000  13.954000
15538   10   1   36.846000   -29.815000  15.514000
15539   10   1   36.803000   -32.79000  13.464000
15540   10   1   36.846000   -32.764000  16.074000
15541   10   1   35.564000   -30.538000  16.069000
15542   10   1   35.527000   -32.041000  14.001000
15543   10   1   35.55000   -32.026000  15.565000
15544   10   1   35.521000   -30.569000  13.462000
15545   10   1   39.391000   -29.845000  13.904000
15546   10   1   39.421000   -29.824000  15.464000
15547   10   1   39.379000   -32.803000  13.417000
15548   10   1   39.428000   -32.775000  16.027000
15549   10   1   38.143000   -30.552000  16.023000
15550   10   1   38.102000   -32.055000  13.957000
15551   10   1   38.13000   -32.039000  15.521000
15552   10   1   38.094000   -30.584000  13.416000
15553   10   1   41.962000   -29.847000  13.846000
15554   10   1   41.992000   -29.826000  15.407000
15555   10   1   41.951000   -32.808000  13.364000
15556   10   1   42.005000   -32.781000  15.975000
15557   10   1   40.716000   -30.558000  15.97000
15558   10   1   40.676000   -32.063000  13.905000
15559   10   1   40.707000   -32.046000  15.47000
15560   10   1   40.665000   -30.591000  13.363000
15561   10   1   44.528000   -29.84000  13.788000
15562   10   1   44.56000   -29.82000  15.351000
15563   10   1   44.52000   -32.802000  13.309000
15564   10   1   44.576000   -32.78000  15.92000
15565   10   1   43.288000   -30.557000  15.915000
15566   10   1   43.246000   -32.062000  13.851000
15567   10   1   43.278000   -32.046000  15.415000
15568   10   1   43.235000   -30.589000  13.305000
15569   10   1   47.092000   -29.829000  13.733000
15570   10   1   47.122000   -29.811000  15.297000
15571   10   1   47.084000   -32.789000  13.254000
15572   10   1   47.139000   -32.77000  15.866000
15573   10   1   45.853000   -30.55000  15.86000
15574   10   1   45.811000   -32.053000  13.796000
15575   10   1   45.845000   -32.039000  15.36000
15576   10   1   45.799000   -30.58000  13.249000
15577   10   1   49.656000   -29.819000  13.685000
15578   10   1   49.685000   -29.802000  15.249000
15579   10   1   49.647000   -32.767000  13.202000
15580   10   1   49.699000   -32.751000  15.814000
15581   10   1   48.415000   -30.539000  15.809000
15582   10   1   48.374000   -32.037000  13.744000
15583   10   1   48.406000   -32.024000  15.307000
15584   10   1   48.363000   -30.567000  13.197000
15585   10   1   52.222000   -29.815000  13.641000
15586   10   1   52.249000   -29.796000  15.206000
15587   10   1   52.213000   -32.75000  13.15000
15588   10   1   52.259000   -32.734000  15.77000
15589   10   1   50.975000   -30.528000  15.763000
15590   10   1   50.938000   -32.021000  13.694000
15591   10   1   50.967000   -32.01000  15.258000
15592   10   1   50.929000   -30.555000  13.15000
15593   10   1   54.792000   -29.821000  13.596000
15594   10   1   54.814000   -29.803000  15.17000
15595   10   1   54.781000   -32.754000  13.088000
15596   10   1   54.823000   -32.731000  15.749000
15597   10   1   53.537000   -30.525000  15.723000
15598   10   1   53.508000   -32.018000  13.644000
15599   10   1   53.533000   -32.003000  15.22000
15600   10   1   53.496000   -30.553000  13.105000
15601   10   1   57.329000   -29.826000  13.567000
15602   10   1   57.351000   -29.806000  15.125000
15603   10   1   56.101000   -30.536000  15.705000
15604   10   1   56.045000   -32.015000  13.614000
15605   10   1   56.068000   -31.997000  15.172000
15606   10   1   56.063000   -30.568000  13.045000
15607   10   1   16.267000   -33.989000  14.219000
15608   10   1   16.286000   -33.993000  15.777000
15609   10   1   18.807000   -34.029000  14.175000
15610   10   1   18.823000   -34.039000  15.75000
15611   10   1   18.761000   -36.927000  13.574000
15612   10   1   18.77000   -36.979000  16.235000
15613   10   1   17.537000   -34.758000  16.299000
15614   10   1   17.519000   -36.185000  14.161000
15615   10   1   17.529000   -36.202000  15.719000
15616   10   1   17.509000   -34.732000  13.638000
15617   10   1   21.376000   -34.077000  14.154000
15618   10   1   21.384000   -34.09000  15.719000
15619   10   1   21.318000   -37.026000  13.582000
15620   10   1   21.317000   -37.078000  16.196000
15621   10   1   20.098000   -34.808000  16.248000
15622   10   1   20.058000   -36.254000  14.127000
15623   10   1   20.063000   -36.278000  15.701000
15624   10   1   20.08000   -34.775000  13.63000
15625   10   1   23.934000   -34.128000  14.134000
15626   10   1   23.943000   -34.138000  15.699000
15627   10   1   23.881000   -37.092000  13.583000
15628   10   1   23.878000   -37.131000  16.19000
15629   10   1   22.653000   -34.867000  16.225000
15630   10   1   22.616000   -36.329000  14.119000
15631   10   1   22.615000   -36.35000  15.684000
15632   10   1   22.64000   -34.84000  13.615000
15633   10   1   26.501000   -34.169000  14.116000
15634   10   1   26.509000   -34.172000  15.68000
15635   10   1   26.458000   -37.129000  13.583000
15636   10   1   26.461000   -37.147000  16.189000
15637   10   1   25.216000   -34.904000  16.209000
15638   10   1   25.182000   -36.379000  14.113000
15639   10   1   25.182000   -36.391000  15.677000
15640   10   1   25.205000   -34.89000  13.6000
15641   10   1   29.073000   -34.2000  14.095000
15642   10   1   29.083000   -34.196000  15.66000
15643   10   1   29.04000   -37.157000  13.576000
15644   10   1   29.051000   -37.16000  16.184000
15645   10   1   27.789000   -34.927000  16.194000
15646   10   1   27.758000   -36.408000  14.104000
15647   10   1   27.763000   -36.412000  15.669000
15648   10   1   27.774000   -34.924000  13.585000
15649   10   1   31.651000   -34.225000  14.071000
15650   10   1   31.665000   -34.217000  15.636000
15651   10   1   31.624000   -37.181000  13.561000
15652   10   1   31.645000   -37.173000  16.17000
15653   10   1   30.372000   -34.944000  16.173000
15654   10   1   30.341000   -36.431000  14.091000
15655   10   1   30.351000   -36.429000  15.655000
15656   10   1   30.35000   -34.953000  13.564000
15657   10   1   34.229000   -34.247000  14.04000
15658   10   1   34.249000   -34.235000  15.605000
15659   10   1   34.209000   -37.201000  13.536000
15660   10   1   34.239000   -37.186000  16.146000
15661   10   1   32.959000   -34.96000  16.148000
15662   10   1   32.926000   -36.453000  14.069000
15663   10   1   32.941000   -36.445000  15.634000
15664   10   1   32.929000   -34.976000  13.539000
15665   10   1   36.81000   -34.264000  14.002000
15666   10   1   36.834000   -34.25000  15.566000
15667   10   1   36.793000   -37.219000  13.502000
15668   10   1   36.833000   -37.201000  16.111000
15669   10   1   35.546000   -34.975000  16.115000
15670   10   1   35.51000   -36.472000  14.038000
15671   10   1   35.532000   -36.462000  15.603000
15672   10   1   35.508000   -34.996000  13.506000
15673   10   1   39.388000   -34.276000  13.957000
15674   10   1   39.418000   -34.262000  15.52000
15675   10   1   39.378000   -37.233000  13.457000
15676   10   1   39.427000   -37.215000  16.066000
15677   10   1   38.134000   -34.99000  16.073000
15678   10   1   38.096000   -36.487000  13.998000
15679   10   1   38.123000   -36.475000  15.563000
15680   10   1   38.088000   -35.011000  13.464000
15681   10   1   41.965000   -34.282000  13.904000
15682   10   1   41.998000   -34.269000  15.468000
15683   10   1   41.962000   -37.242000  13.403000
15684   10   1   42.02000   -37.227000  16.011000
15685   10   1   40.72000   -35.001000  16.024000
15686   10   1   40.681000   -36.498000  13.949000
15687   10   1   40.713000   -36.488000  15.513000
15688   10   1   40.666000   -35.021000  13.415000
15689   10   1   44.536000   -34.279000  13.848000
15690   10   1   44.571000   -34.268000  15.413000
15691   10   1   44.543000   -37.243000  13.342000
15692   10   1   44.61000   -37.238000  15.949000
15693   10   1   43.3000   -35.008000  15.969000
15694   10   1   43.263000   -36.503000  13.892000
15695   10   1   43.299000   -36.497000  15.455000
15696   10   1   43.242000   -35.025000  13.36000
15697   10   1   47.101000   -34.263000  13.791000
15698   10   1   47.138000   -34.257000  15.356000
15699   10   1   47.118000   -37.225000  13.274000
15700   10   1   47.19000   -37.235000  15.882000
15701   10   1   45.874000   -35.006000  15.911000
15702   10   1   45.838000   -36.497000  13.831000
15703   10   1   45.879000   -36.496000  15.394000
15704   10   1   45.811000   -35.016000  13.303000
15705   10   1   49.663000   -34.236000  13.737000
15706   10   1   49.697000   -34.233000  15.301000
15707   10   1   49.68000   -37.182000  13.203000
15708   10   1   49.751000   -37.204000  15.821000
15709   10   1   48.437000   -34.99000  15.854000
15710   10   1   48.403000   -36.471000  13.767000
15711   10   1   48.446000   -36.475000  15.331000
15712   10   1   48.376000   -34.991000  13.243000
15713   10   1   52.229000   -34.215000  13.681000
15714   10   1   52.261000   -34.208000  15.256000
15715   10   1   52.25000   -37.109000  13.122000
15716   10   1   52.314000   -37.131000  15.789000
15717   10   1   50.994000   -34.955000  15.804000
15718   10   1   50.965000   -36.424000  13.702000
15719   10   1   51.005000   -36.43000  15.278000
15720   10   1   50.937000   -34.954000  13.185000
15721   10   1   54.771000   -34.199000  13.648000
15722   10   1   54.797000   -34.188000  15.207000
15723   10   1   53.557000   -34.928000  15.779000
15724   10   1   53.508000   -36.375000  13.662000
15725   10   1   53.543000   -36.375000  15.221000
15726   10   1   53.507000   -34.933000  13.116000
15727   10   1   18.734000   -38.376000  14.08000
15728   10   1   18.728000   -38.409000  15.633000
15729   10   1   21.266000   -38.523000  14.063000
15730   10   1   21.254000   -38.559000  15.634000
15731   10   1   19.927000   -39.261000  16.134000
15732   10   1   19.947000   -39.177000  13.495000
15733   10   1   23.84000   -38.59000  14.078000
15734   10   1   23.83000   -38.618000  15.644000
15735   10   1   22.506000   -39.364000  16.137000
15736   10   1   22.527000   -39.297000  13.527000
15737   10   1   26.432000   -38.618000  14.09000
15738   10   1   26.428000   -38.632000  15.657000
15739   10   1   25.114000   -39.372000  16.163000
15740   10   1   25.124000   -39.334000  13.551000
15741   10   1   29.024000   -38.64000  14.094000
15742   10   1   29.028000   -38.644000  15.66000
15743   10   1   27.72000   -39.376000  16.179000
15744   10   1   27.719000   -39.363000  13.564000
15745   10   1   31.616000   -38.661000  14.085000
15746   10   1   31.626000   -38.658000  15.652000
15747   10   1   30.323000   -39.386000  16.183000
15748   10   1   30.311000   -39.387000  13.566000
15749   10   1   34.206000   -38.68000  14.065000
15750   10   1   34.224000   -38.672000  15.632000
15751   10   1   32.925000   -39.397000  16.171000
15752   10   1   32.901000   -39.408000  13.554000
15753   10   1   36.797000   -38.697000  14.033000
15754   10   1   36.821000   -38.688000  15.599000
15755   10   1   35.525000   -39.412000  16.146000
15756   10   1   35.491000   -39.427000  13.529000
15757   10   1   39.389000   -38.711000  13.987000
15758   10   1   39.418000   -38.701000  15.554000
15759   10   1   38.126000   -39.426000  16.108000
15760   10   1   38.081000   -39.443000  13.49000
15761   10   1   41.98000   -38.722000  13.93000
15762   10   1   42.017000   -38.716000  15.496000
15763   10   1   40.728000   -39.441000  16.055000
15764   10   1   40.673000   -39.456000  13.439000
15765   10   1   44.574000   -38.728000  13.863000
15766   10   1   44.617000   -38.728000  15.428000
15767   10   1   43.333000   -39.458000  15.989000
15768   10   1   43.266000   -39.464000  13.375000
15769   10   1   47.166000   -38.715000  13.784000
15770   10   1   47.215000   -38.725000  15.354000
15771   10   1   45.938000   -39.473000  15.91000
15772   10   1   45.862000   -39.461000  13.298000
15773   10   1   49.734000   -38.67000  13.706000
15774   10   1   49.786000   -38.689000  15.279000
15775   10   1   48.546000   -39.468000  15.835000
15776   10   1   48.46000   -39.43000  13.199000
15777   10   1   52.288000   -38.548000  13.654000
15778   10   1   52.333000   -38.565000  15.209000
15779   10   1   51.125000   -39.339000  15.788000
15780   10   1   51.038000   -39.285000  13.093000
15781   10   3   23.77000   -41.511000  13.45000
15782   10   3   23.757000   -41.572000  16.136000
15783   10   3   22.456000   -40.81000  13.993000
15784   10   3   22.44000   -40.857000  15.57000
15785   10   3   26.386000   -41.539000  13.494000
15786   10   3   26.388000   -41.566000  16.191000
15787   10   3   25.087000   -40.829000  14.041000
15788   10   3   25.083000   -40.855000  15.623000
15789   10   3   28.989000   -41.565000  13.518000
15790   10   3   29.002000   -41.572000  16.218000
15791   10   3   27.697000   -40.852000  14.071000
15792   10   3   27.7000   -40.862000  15.653000
15793   10   3   31.587000   -41.588000  13.524000
15794   10   3   31.61000   -41.582000  16.225000
15795   10   3   30.298000   -40.872000  14.082000
15796   10   3   30.307000   -40.874000  15.666000
15797   10   3   34.181000   -41.609000  13.512000
15798   10   3   34.214000   -41.594000  16.214000
15799   10   3   32.895000   -40.892000  14.077000
15800   10   3   32.91000   -40.886000  15.66000
15801   10   3   36.776000   -41.627000  13.484000
15802   10   3   36.818000   -41.608000  16.185000
15803   10   3   35.49000   -40.91000  14.055000
15804   10   3   35.512000   -40.901000  15.638000
15805   10   3   39.371000   -41.642000  13.439000
15806   10   3   39.422000   -41.624000  16.139000
15807   10   3   38.086000   -40.926000  14.017000
15808   10   3   38.113000   -40.916000  15.6000
15809   10   3   41.972000   -41.652000  13.375000
15810   10   3   42.03000   -41.64000  16.073000
15811   10   3   40.685000   -40.94000  13.963000
15812   10   3   40.717000   -40.932000  15.546000
15813   10   3   44.58000   -41.657000  13.294000
15814   10   3   44.646000   -41.66000  15.988000
15815   10   3   43.288000   -40.95000  13.893000
15816   10   3   43.325000   -40.947000  15.474000
15817   10   3   47.206000   -41.65000  13.18000
15818   10   3   47.284000   -41.683000  15.89000
15819   10   3   45.902000   -40.957000  13.801000
15820   10   3   45.946000   -40.967000  15.388000
15821   10   3   48.489000   -40.909000  13.708000
15822   10   3   48.544000   -40.938000  15.271000
15823   10   3   21.058000   -41.575000  16.031000
15824   10   3   19.842000   -40.667000  13.941000
15825   10   3   19.818000   -40.723000  15.524000
15826   10   3   21.098000   -41.467000  13.395000
15827   10   3   51.233000   -40.907000  15.728000
15828   10   3   49.923000   -41.632000  13.613000
15829   10   3   49.98000   -41.675000  15.176000
15830   10   3   51.133000   -40.833000  13.024000
15831   10   3   51.241000   13.563000  16.142000
15832   10   3   50.009000   14.481000  14.058000
15833   10   3   49.994000   14.4000  15.64000
15834   10   3   51.279000   13.716000  13.5000
15835   10   3   21.181000   14.641000  16.559000
15836   10   3   19.882000   13.936000  14.441000
15837   10   3   19.937000   13.863000  16.001000
15838   10   3   21.087000   14.764000  13.868000
15839   10   4   3.556000   -12.0000  14.091000
15840   10   4   3.568000   -12.005000  16.001000
15841   10   4   3.504000   -14.418000  13.873000
15842   10   4   3.536000   -14.428000  16.196000
15843   10   4   67.578000   -12.548000  13.234000
15844   10   4   67.58000   -12.55000  15.138000
15845   10   4   67.546000   -14.973000  13.009000
15846   10   4   67.52000   -14.984000  15.335000
15847   10   2   5.016000   -16.806000  16.12000
15848   10   2   4.987000   -16.813000  13.94000
15849   10   4   23.769000   -42.558000  13.721000
15850   10   4   23.773000   -42.608000  15.824000
15851   10   4   20.936000   -42.491000  13.703000
15852   10   4   20.904000   -42.555000  15.601000
15853   10   4   18.944000   -41.09000  13.512000
15854   10   4   18.899000   -41.192000  15.847000
15855   10   4   52.067000   -41.265000  13.36000
15856   10   4   52.127000   -41.322000  15.282000
15857   10   4   50.013000   -42.61000  13.159000
15858   10   4   50.096000   -42.695000  15.519000
15859   10   4   52.166000   14.155000  13.938000
15860   10   4   20.957000   15.737000  14.324000
15861   10   4   21.023000   15.664000  16.245000
15862   10   4   18.94000   14.364000  14.124000
15863   10   4   19.039000   14.245000  16.468000
15864   10   2   5.057000   -9.727000  13.939000
15865   10   2   5.074000   -9.725000  16.043000
15866   10   2   11.618000   1.159000  13.856000
15867   10   2   11.64000   1.153000  15.973000
15868   10   2   10.323000   -1.034000  13.854000
15869   10   2   10.344000   -1.035000  15.971000
15870   10   2   6.389000   -7.594000  13.901000
15871   10   2   6.408000   -7.588000  16.017000
15872   10   2   14.179000   5.542000  13.895000
15873   10   2   14.211000   5.524000  16.013000
15874   10   2   12.903000   3.351000  13.871000
15875   10   2   12.93000   3.341000  15.987000
15876   10   2   9.022000   -3.225000  13.859000
15877   10   2   9.041000   -3.222000  15.977000
15878   10   2   7.711000   -5.413000  13.875000
15879   10   2   7.731000   -5.408000  15.993000
15880   10   2   16.68000   9.91000  13.999000
15881   10   2   16.735000   9.871000  16.113000
15882   10   2   15.441000   7.729000  13.938000
15883   10   2   15.483000   7.704000  16.053000
15884   10   2   62.223000   -3.53000  13.014000
15885   10   2   62.256000   -3.535000  15.132000
15886   10   2   64.832000   -7.976000  13.016000
15887   10   2   64.855000   -7.981000  15.131000
15888   10   2   66.146000   -10.175000  13.053000
15889   10   2   66.157000   -10.181000  15.159000
15890   10   2   63.524000   -5.752000  13.003000
15891   10   2   63.553000   -5.755000  15.123000
15892   10   2   59.634000   0.909000  13.086000
15893   10   2   59.669000   0.894000  15.204000
15894   10   2   60.926000   -1.309000  13.042000
15895   10   2   60.961000   -1.318000  15.16000
15896   10   2   57.067000   5.332000  13.227000
15897   10   2   57.094000   5.302000  15.344000
15898   10   2   58.347000   3.122000  13.147000
15899   10   2   58.38000   3.102000  15.265000
15900   10   2   54.544000   9.724000  13.449000
15901   10   2   54.545000   9.67000  15.566000
15902   10   2   55.798000   7.534000  13.326000
15903   10   2   55.814000   7.494000  15.443000
15904   10   4   23.866000   15.76000  13.996000
15905   10   4   23.929000   15.693000  16.186000
15906   10   4   26.526000   15.709000  13.87000
15907   10   4   26.587000   15.663000  16.053000
15908   10   4   29.148000   15.668000  13.765000
15909   10   4   29.203000   15.634000  15.951000
15910   10   4   31.758000   15.634000  13.684000
15911   10   4   31.806000   15.607000  15.871000
15912   10   4   34.361000   15.605000  13.626000
15913   10   4   34.399000   15.581000  15.813000
15914   10   4   36.96000   15.58000  13.59000
15915   10   4   36.988000   15.554000  15.778000
15916   10   4   39.556000   15.561000  13.578000
15917   10   4   39.576000   15.528000  15.766000
15918   10   4   42.153000   15.545000  13.591000
15919   10   4   42.161000   15.502000  15.779000
15920   10   4   44.754000   15.533000  13.633000
15921   10   4   44.753000   15.472000  15.819000
15922   10   4   47.339000   15.527000  13.704000
15923   10   4   47.331000   15.441000  15.886000
15924   10   2   6.328000   -19.022000  13.94000
15925   10   2   6.354000   -19.008000  16.126000
15926   10   2   11.55000   -27.888000  13.976000
15927   10   2   11.583000   -27.87000  16.17000
15928   10   2   10.291000   -25.657000  16.162000
15929   10   2   10.261000   -25.678000  13.97000
15930   10   2   8.961000   -23.464000  13.959000
15931   10   2   8.991000   -23.444000  16.149000
15932   10   2   7.677000   -21.228000  16.136000
15933   10   2   7.651000   -21.245000  13.947000
15934   10   2   14.102000   -32.3000  13.953000
15935   10   2   14.134000   -32.293000  16.147000
15936   10   2   12.866000   -30.081000  16.165000
15937   10   2   12.831000   -30.096000  13.973000
15938   10   2   64.735000   -19.393000  13.039000
15939   10   2   64.75000   -19.38000  15.23000
15940   10   2   66.057000   -17.245000  15.23000
15941   10   2   66.058000   -17.248000  13.042000
15942   10   2   56.933000   -32.542000  13.291000
15943   10   2   56.966000   -32.513000  15.485000
15944   10   2   60.832000   -25.944000  15.332000
15945   10   2   60.801000   -25.972000  13.139000
15946   10   2   62.105000   -23.778000  13.092000
15947   10   2   62.131000   -23.755000  15.285000
15948   10   2   63.438000   -21.566000  15.249000
15949   10   2   63.417000   -21.583000  13.058000
15950   10   2   58.249000   -30.322000  15.439000
15951   10   2   58.217000   -30.355000  13.245000
15952   10   2   59.505000   -28.165000  13.192000
15953   10   2   59.536000   -28.133000  15.387000
15954   10   2   17.789000   -38.787000  13.751000
15955   10   2   16.614000   -36.685000  13.843000
15956   10   2   16.627000   -36.706000  16.04000
15957   10   2   15.392000   -34.504000  16.108000
15958   10   2   15.364000   -34.499000  13.911000
15959   10   2   17.787000   -38.84000  15.949000
15960   10   2   53.275000   -39.004000  15.512000
15961   10   2   53.218000   -38.969000  13.296000
15962   10   2   54.401000   -36.885000  13.325000
15963   10   2   54.451000   -36.882000  15.523000
15964   10   2   55.698000   -34.701000  15.516000
15965   10   2   55.659000   -34.722000  13.319000
15966   10   4   26.372000   -42.583000  13.776000
15967   10   4   26.39000   -42.606000  15.892000
15968   10   4   28.979000   -42.607000  13.81000
15969   10   4   29.001000   -42.614000  15.928000
15970   10   4   31.58000   -42.629000  13.82000
15971   10   4   31.603000   -42.625000  15.939000
15972   10   4   34.177000   -42.649000  13.812000
15973   10   4   34.207000   -42.638000  15.93000
15974   10   4   36.775000   -42.666000  13.784000
15975   10   4   36.807000   -42.652000  15.904000
15976   10   4   39.374000   -42.682000  13.738000
15977   10   4   39.411000   -42.668000  15.856000
15978   10   4   41.978000   -42.692000  13.672000
15979   10   4   42.018000   -42.684000  15.79000
15980   10   4   44.59000   -42.699000  13.586000
15981   10   4   44.63000   -42.703000  15.7000
15982   10   4   47.222000   -42.692000  13.471000
15983   10   4   47.269000   -42.72000  15.582000
15984   10   2   53.361000   11.849000  13.602000
15985   10   2   53.344000   11.759000  15.704000
15986   10   2   17.838000   12.029000  14.077000
15987   10   2   17.915000   11.963000  16.194000
15988   10   4   50.139000   15.515000  13.766000
15989   10   4   50.106000   15.37000  16.106000
15990   10   4   52.155000   14.054000  15.835000
15991   10   4   23.753000   -41.583000  17.218000
15992   10   2   58.786000   -17.304000  16.545000
15993   10   4   26.387000   -41.56000  17.273000
15994   10   2   13.701000   -19.231000  17.338000
15995   10   2   12.385000   -17.013000  17.334000
15996   10   4   29.005000   -41.555000  17.3000
15997   10   4   31.617000   -41.559000  17.307000
15998   10   2   16.285000   -19.249000  17.307000
15999   10   2   14.978000   -17.033000  17.306000
16000   10   4   36.834000   -41.581000  17.267000
16001   10   4   39.443000   -41.597000  17.221000
16002   10   2   21.453000   -19.294000  17.227000
16003   10   2   20.229000   9.362000  17.375000
16004   10   4   44.673000   -41.643000  17.07000
16005   10   2   17.554000   -34.766000  17.381000
16006   10   4   47.314000   -41.68000  16.972000
16007   10   2   51.029000   -21.67000  16.667000
16008   10   2   17.569000   -17.054000  17.275000
16009   10   2   52.405000   -10.654000  16.612000
16010   10   2   51.126000   -8.435000  16.645000
16011   10   2   61.356000   -17.329000  16.531000
16012   10   2   54.979000   -10.671000  16.572000
16013   10   2   53.697000   -8.456000  16.6000
16014   10   2   57.554000   -10.684000  16.534000
16015   10   2   56.27000   -8.471000  16.554000
16016   10   2   40.824000   9.318000  16.942000
16017   10   2   60.132000   -10.699000  16.506000
16018   10   2   58.839000   -8.483000  16.516000
16019   10   2   35.563000   -34.965000  17.197000
16020   10   2   36.85000   -37.187000  17.193000
16021   10   2   22.789000   9.422000  17.308000
16022   10   4   51.272000   -40.935000  16.809000
16023   10   2   62.708000   -10.715000  16.497000
16024   10   2   61.408000   -8.492000  16.492000
16025   10   2   47.154000   -28.309000  16.873000
16026   10   2   53.597000   -21.679000  16.644000
16027   10   2   65.264000   -10.735000  16.538000
16028   10   2   63.954000   -8.508000  16.517000
16029   10   2   8.649000   -5.951000  17.363000
16030   10   2   11.19000   -5.978000  17.299000
16031   10   2   9.96000   -3.763000  17.348000
16032   10   4   34.225000   -41.569000  17.296000
16033   10   4   51.222000   13.495000  17.222000
16034   10   2   13.756000   -6.004000  17.273000
16035   10   2   12.501000   -3.785000  17.286000
16036   10   2   31.654000   -37.163000  17.252000
16037   10   2   52.332000   -19.469000  16.623000
16038   10   2   16.324000   -6.021000  17.254000
16039   10   2   15.064000   -3.808000  17.262000
16040   10   2   54.901000   -19.482000  16.601000
16041   10   2   18.897000   -6.031000  17.239000
16042   10   2   17.631000   -3.821000  17.243000
16043   10   2   39.448000   -37.201000  17.148000
16044   10   2   25.352000   9.449000  17.241000
16045   10   2   57.471000   -19.5000  16.577000
16046   10   2   21.47000   -6.036000  17.224000
16047   10   2   20.201000   -3.825000  17.227000
16048   10   2   38.152000   -34.977000  17.155000
16049   10   2   21.455000   -28.158000  17.32000
16050   10   2   18.87000   -19.27000  17.272000
16051   10   2   56.163000   -21.694000  16.617000
16052   10   2   60.038000   -19.525000  16.556000
16053   10   2   24.046000   -6.042000  17.198000
16054   10   2   22.774000   -3.828000  17.205000
16055   10   2   62.601000   -19.563000  16.558000
16056   10   2   25.347000   -3.832000  17.17000
16057   10   2   11.169000   -23.656000  17.441000
16058   10   2   63.918000   -17.373000  16.542000
16059   10   2   13.74000   -23.657000  17.388000
16060   10   2   12.434000   -21.437000  17.379000
16061   10   4   42.055000   -41.616000  17.155000
16062   10   2   16.311000   -23.672000  17.351000
16063   10   2   40.741000   -34.99000  17.106000
16064   10   2   58.728000   -21.717000  16.593000
16065   10   2   20.157000   -17.075000  17.239000
16066   10   2   17.588000   -21.469000  17.31000
16067   10   2   22.746000   -21.518000  17.223000
16068   10   2   49.839000   -6.218000  16.68000
16069   10   2   48.547000   -4.0000  16.709000
16070   10   2   51.093000   9.131000  16.921000
16071   10   2   52.411000   -6.239000  16.632000
16072   10   2   51.119000   -4.022000  16.666000
16073   10   2   44.635000   -37.231000  17.031000
16074   10   2   30.511000   9.427000  17.106000
16075   10   2   54.981000   -6.256000  16.581000
16076   10   2   53.69000   -4.042000  16.615000
16077   10   2   43.324000   -34.999000  17.051000
16078   10   2   54.834000   -28.305000  16.75000
16079   10   2   57.549000   -6.267000  16.536000
16080   10   2   56.259000   -4.054000  16.565000
16081   10   2   60.115000   -6.273000  16.501000
16082   10   2   58.822000   -4.06000  16.523000
16083   10   2   62.657000   -6.285000  16.511000
16084   10   2   61.364000   -4.069000  16.523000
16085   10   2   15.009000   -21.45000  17.344000
16086   10   2   11.264000   -1.576000  17.341000
16087   10   2   42.044000   -37.216000  17.093000
16088   10   2   13.803000   -1.595000  17.28000
16089   10   2   12.562000   0.61000  17.342000
16090   10   2   16.368000   -1.612000  17.255000
16091   10   2   15.101000   0.596000  17.281000
16092   10   2   47.215000   -37.235000  16.964000
16093   10   2   33.092000   9.402000  17.049000
16094   10   2   18.933000   -1.619000  17.234000
16095   10   2   17.665000   0.584000  17.253000
16096   10   2   45.898000   -35.002000  16.993000
16097   10   2   57.397000   -28.323000  16.734000
16098   10   2   52.296000   -23.881000  16.697000
16099   10   2   21.504000   -1.62000  17.211000
16100   10   2   20.233000   0.584000  17.226000
16101   10   2   12.47000   -25.873000  17.45000
16102   10   2   54.861000   -23.891000  16.668000
16103   10   2   24.074000   -1.618000  17.182000
16104   10   2   22.802000   0.589000  17.195000
16105   10   2   18.885000   -23.693000  17.314000
16106   10   2   57.425000   -23.909000  16.64000
16107   10   2   26.649000   -1.62000  17.137000
16108   10   2   25.373000   0.591000  17.155000
16109   10   2   59.987000   -23.94000  16.629000
16110   10   2   27.944000   0.588000  17.103000
16111   10   2   61.292000   -21.751000  16.587000
16112   10   2   30.519000   0.571000  17.042000
16113   10   2   49.715000   -28.301000  16.827000
16114   10   2   35.672000   9.376000  17.001000
16115   10   2   33.092000   0.555000  16.973000
16116   10   2   58.69000   -26.13000  16.681000
16117   10   2   56.111000   -30.519000  16.787000
16118   10   2   35.665000   0.538000  16.909000
16119   10   2   15.037000   -25.879000  17.394000
16120   10   2   38.237000   0.516000  16.858000
16121   10   2   32.972000   -34.951000  17.23000
16122   10   2   21.459000   -23.719000  17.273000
16123   10   2   40.81000   0.489000  16.822000
16124   10   2   20.168000   -21.493000  17.271000
16125   10   2   43.382000   0.46000  16.796000
16126   10   2   47.252000   -1.781000  16.737000
16127   10   2   45.956000   0.434000  16.766000
16128   10   2   38.248000   9.349000  16.966000
16129   10   2   49.824000   -1.809000  16.7000
16130   10   2   48.528000   0.405000  16.734000
16131   10   2   51.011000   -34.953000  16.886000
16132   10   2   24.02000   -28.19000  17.284000
16133   10   2   13.759000   -28.093000  17.452000
16134   10   2   52.397000   -1.83000  16.652000
16135   10   2   51.102000   0.379000  16.694000
16136   10   2   17.605000   -25.897000  17.355000
16137   10   2   15.04000   -30.314000  17.445000
16138   10   2   54.966000   -1.845000  16.603000
16139   10   2   53.672000   0.36000  16.648000
16140   10   2   24.033000   -23.747000  17.226000
16141   10   2   57.532000   -1.849000  16.558000
16142   10   2   56.24000   0.354000  16.604000
16143   10   2   60.074000   -1.858000  16.551000
16144   10   2   58.782000   0.349000  16.594000
16145   10   2   13.854000   2.795000  17.353000
16146   10   2   16.395000   2.784000  17.289000
16147   10   2   15.139000   4.973000  17.375000
16148   10   2   9.859000   -21.438000  17.43000
16149   10   2   18.961000   2.781000  17.256000
16150   10   2   17.683000   4.972000  17.307000
16151   10   2   53.642000   9.094000  16.934000
16152   10   2   21.528000   2.789000  17.22000
16153   10   2   20.249000   4.982000  17.265000
16154   10   2   39.448000   -32.764000  17.109000
16155   10   2   20.174000   -25.922000  17.318000
16156   10   2   24.096000   2.799000  17.18000
16157   10   2   22.815000   5.0000  17.22000
16158   10   2   48.441000   -26.087000  16.797000
16159   10   2   22.505000   -39.389000  17.219000
16160   10   2   26.664000   2.801000  17.132000
16161   10   2   25.379000   5.014000  17.171000
16162   10   2   51.003000   -26.087000  16.76000
16163   10   2   29.234000   2.794000  17.076000
16164   10   2   27.948000   5.011000  17.116000
16165   10   2   53.564000   -26.093000  16.725000
16166   10   2   31.807000   2.777000  17.016000
16167   10   2   30.519000   4.999000  17.058000
16168   10   2   56.126000   -26.105000  16.694000
16169   10   2   44.671000   7.06000  16.875000
16170   10   2   34.379000   2.757000  16.957000
16171   10   2   33.091000   4.979000  17.002000
16172   10   2   36.95000   2.734000  16.905000
16173   10   2   35.665000   4.956000  16.95000
16174   10   2   16.304000   -32.539000  17.422000
16175   10   2   22.743000   -25.952000  17.279000
16176   10   2   39.523000   2.709000  16.862000
16177   10   2   38.237000   4.93000  16.907000
16178   10   2   18.867000   -32.571000  17.366000
16179   10   2   17.603000   -30.334000  17.386000
16180   10   2   42.094000   2.68000  16.83000
16181   10   2   40.81000   4.902000  16.872000
16182   10   2   21.422000   -32.616000  17.333000
16183   10   2   20.163000   -30.366000  17.349000
16184   10   2   44.663000   2.652000  16.802000
16185   10   2   43.38000   4.871000  16.844000
16186   10   2   23.978000   -32.656000  17.307000
16187   10   2   22.724000   -30.404000  17.317000
16188   10   2   47.235000   2.619000  16.774000
16189   10   2   45.948000   4.836000  16.821000
16190   10   2   26.543000   -32.683000  17.283000
16191   10   2   25.286000   -30.436000  17.286000
16192   10   2   27.931000   9.445000  17.172000
16193   10   2   49.806000   2.588000  16.741000
16194   10   2   48.516000   4.799000  16.796000
16195   10   2   29.118000   -32.706000  17.258000
16196   10   2   27.852000   -30.464000  17.256000
16197   10   2   52.378000   2.564000  16.702000
16198   10   2   51.087000   4.766000  16.767000
16199   10   2   31.697000   -32.724000  17.23000
16200   10   2   30.424000   -30.488000  17.224000
16201   10   2   25.314000   -25.981000  17.235000
16202   10   2   54.949000   2.554000  16.662000
16203   10   2   53.66000   4.746000  16.734000
16204   10   2   34.28000   -32.739000  17.196000
16205   10   2   33.003000   -30.508000  17.19000
16206   10   2   57.493000   2.55000  16.652000
16207   10   2   56.205000   4.742000  16.728000
16208   10   2   36.864000   -32.753000  17.156000
16209   10   2   35.584000   -30.525000  17.151000
16210   10   4   21.05000   -41.62000  17.112000
16211   10   2   16.417000   7.147000  17.41000
16212   10   2   18.963000   7.161000  17.335000
16213   10   2   17.68000   9.315000  17.46000
16214   10   2   38.163000   -30.538000  17.105000
16215   10   2   21.53000   7.191000  17.283000
16216   10   2   5.811000   -14.758000  17.407000
16217   10   4   4.49000   -12.488000  17.425000
16218   10   2   42.028000   -32.77000  17.057000
16219   10   2   40.739000   -30.544000  17.052000
16220   10   2   52.276000   -28.3000  16.786000
16221   10   2   24.09000   7.221000  17.228000
16222   10   2   8.452000   -14.771000  17.363000
16223   10   2   7.143000   -12.548000  17.369000
16224   10   2   44.599000   -32.77000  17.002000
16225   10   2   43.309000   -30.543000  16.997000
16226   10   2   26.656000   7.23000  17.168000
16227   10   2   11.069000   -14.796000  17.332000
16228   10   2   9.773000   -12.583000  17.334000
16229   10   2   47.162000   -32.763000  16.948000
16230   10   2   45.874000   -30.539000  16.942000
16231   10   2   29.227000   7.222000  17.108000
16232   10   2   13.673000   -14.818000  17.305000
16233   10   2   12.379000   -12.608000  17.306000
16234   10   2   49.717000   -32.745000  16.896000
16235   10   2   48.433000   -30.528000  16.891000
16236   10   2   31.802000   7.204000  17.049000
16237   10   2   16.269000   -14.84000  17.279000
16238   10   2   14.975000   -12.629000  17.281000
16239   10   2   52.273000   -32.724000  16.852000
16240   10   2   50.992000   -30.517000  16.845000
16241   10   2   34.38000   7.178000  16.997000
16242   10   2   18.86000   -14.861000  17.251000
16243   10   2   17.565000   -12.646000  17.259000
16244   10   2   54.836000   -32.72000  16.831000
16245   10   2   53.55000   -30.511000  16.805000
16246   10   2   20.112000   -34.822000  17.33000
16247   10   2   36.955000   7.153000  16.953000
16248   10   2   20.151000   -12.664000  17.235000
16249   10   2   39.528000   7.124000  16.918000
16250   10   2   21.324000   -37.102000  17.278000
16251   10   2   26.585000   -28.221000  17.246000
16252   10   2   42.1000   7.095000  16.893000
16253   10   2   43.398000   9.286000  16.93000
16254   10   2   47.237000   7.02000  16.859000
16255   10   2   45.97000   9.246000  16.927000
16256   10   2   34.252000   -37.173000  17.228000
16257   10   2   49.802000   6.973000  16.842000
16258   10   2   48.533000   9.195000  16.925000
16259   10   2   18.78000   -37.003000  17.317000
16260   10   2   54.922000   6.925000  16.822000
16261   10   2   52.372000   6.938000  16.82000
16262   10   2   30.383000   -34.938000  17.255000
16263   10   4   22.685000   13.87000  17.51000
16264   10   2   23.882000   -37.143000  17.272000
16265   10   2   18.91000   11.483000  17.546000
16266   10   2   22.662000   -34.879000  17.307000
16267   10   2   25.223000   -34.909000  17.291000
16268   10   2   24.022000   11.666000  17.344000
16269   10   2   29.058000   -37.154000  17.266000
16270   10   4   25.296000   13.9000  17.382000
16271   10   2   21.451000   11.618000  17.443000
16272   10   4   27.916000   13.876000  17.281000
16273   10   4   21.233000   14.592000  17.639000
16274   10   2   54.948000   -15.079000  16.57000
16275   10   2   53.681000   -12.867000  16.585000
16276   10   2   31.805000   11.627000  17.11000
16277   10   4   30.52000   13.853000  17.198000
16278   10   2   57.526000   -15.091000  16.543000
16279   10   2   56.257000   -12.882000  16.552000
16280   10   2   34.389000   11.599000  17.056000
16281   10   4   33.111000   13.827000  17.133000
16282   10   2   60.106000   -15.11000  16.523000
16283   10   2   58.837000   -12.897000  16.524000
16284   10   2   36.971000   11.572000  17.017000
16285   10   4   35.697000   13.801000  17.086000
16286   10   2   18.889000   -28.128000  17.355000
16287   10   2   62.694000   -15.134000  16.516000
16288   10   2   61.423000   -12.915000  16.507000
16289   10   2   39.551000   11.542000  16.994000
16290   10   4   38.278000   13.772000  17.06000
16291   10   2   65.29000   -15.193000  16.538000
16292   10   2   64.024000   -12.94000  16.511000
16293   10   2   42.126000   11.511000  16.986000
16294   10   4   40.857000   13.741000  17.053000
16295   10   2   53.638000   -17.273000  16.593000
16296   10   4   66.641000   -12.99000  16.562000
16297   10   2   44.705000   11.474000  16.994000
16298   10   4   43.44000   13.706000  17.068000
16299   10   2   26.465000   -37.151000  17.271000
16300   10   2   49.774000   -37.212000  16.903000
16301   10   2   48.46000   -34.988000  16.936000
16302   10   2   47.283000   11.432000  17.011000
16303   10   4   46.026000   13.663000  17.102000
16304   10   2   5.963000   -10.31000  17.413000
16305   10   2   52.334000   -37.138000  16.871000
16306   10   2   49.852000   11.363000  17.035000
16307   10   4   48.627000   13.621000  17.157000
16308   10   2   8.525000   -10.363000  17.342000
16309   10   2   7.323000   -8.135000  17.386000
16310   10   2   52.389000   11.25000  17.068000
16311   10   2   53.573000   -34.924000  16.861000
16312   10   2   11.112000   -10.393000  17.309000
16313   10   2   9.868000   -8.172000  17.318000
16314   10   2   16.325000   -28.105000  17.394000
16315   10   2   27.799000   -34.925000  17.276000
16316   10   2   19.926000   -39.3000  17.216000
16317   10   2   8.535000   -19.216000  17.42000
16318   10   2   13.699000   -10.416000  17.284000
16319   10   2   12.439000   -8.2000  17.288000
16320   10   2   26.62000   11.669000  17.256000
16321   10   2   7.197000   -16.99000  17.414000
16322   10   2   25.113000   -39.376000  17.245000
16323   10   2   16.283000   -10.434000  17.264000
16324   10   2   15.015000   -8.219000  17.267000
16325   10   2   27.722000   -39.369000  17.261000
16326   10   2   30.329000   -39.372000  17.265000
16327   10   2   56.213000   -17.287000  16.569000
16328   10   2   18.867000   -10.448000  17.246000
16329   10   2   17.591000   -8.233000  17.251000
16330   10   2   32.935000   -39.379000  17.253000
16331   10   2   35.541000   -39.391000  17.228000
16332   10   2   21.447000   -10.46000  17.224000
16333   10   2   20.169000   -8.244000  17.236000
16334   10   2   38.144000   -39.403000  17.19000
16335   10   2   40.752000   -39.421000  17.137000
16336   10   2   22.746000   -8.251000  17.214000
16337   10   2   43.358000   -39.441000  17.071000
16338   10   2   45.966000   -39.464000  16.992000
16339   10   2   48.574000   -39.479000  16.917000
16340   10   2   49.731000   -23.876000  16.727000
16341   10   2   51.156000   -39.363000  16.87000
16342   10   2   29.215000   11.65000  17.177000
16343   10   2   11.117000   -19.216000  17.371000
16344   10   2   9.791000   -16.995000  17.366000
16345   10   2   5.747000   -14.772000  12.613000
16346   10   4   4.435000   -12.485000  12.628000
16347   10   2   8.395000   -14.799000  12.592000
16348   10   2   7.088000   -12.568000  12.597000
16349   10   2   11.014000   -14.826000  12.562000
16350   10   2   9.719000   -12.607000  12.564000
16351   10   2   13.619000   -14.846000  12.531000
16352   10   2   12.329000   -12.631000  12.534000
16353   10   2   16.212000   -14.863000  12.505000
16354   10   2   14.924000   -12.648000  12.507000
16355   10   2   18.799000   -14.878000  12.477000
16356   10   2   17.512000   -12.66000  12.484000
16357   10   2   20.091000   -12.672000  12.468000
16358   10   2   54.889000   -15.096000  11.797000
16359   10   2   53.614000   -12.875000  11.819000
16360   10   2   57.48000   -15.113000  11.769000
16361   10   2   56.199000   -12.894000  11.778000
16362   10   2   60.078000   -15.131000  11.75000
16363   10   2   58.794000   -12.912000  11.75000
16364   10   2   62.686000   -15.153000  11.741000
16365   10   2   61.401000   -12.935000  11.736000
16366   10   2   65.315000   -15.199000  11.74000
16367   10   2   64.029000   -12.956000  11.737000
16368   10   4   66.674000   -12.982000  11.761000
16369   10   2   5.915000   -10.325000  12.557000
16370   10   2   8.477000   -10.383000  12.561000
16371   10   2   7.278000   -8.154000  12.521000
16372   10   2   11.064000   -10.413000  12.536000
16373   10   2   9.823000   -8.188000  12.533000
16374   10   2   13.652000   -10.433000  12.51000
16375   10   2   12.395000   -8.213000  12.512000
16376   10   2   16.237000   -10.446000  12.488000
16377   10   2   14.97000   -8.23000  12.491000
16378   10   2   18.814000   -10.456000  12.472000
16379   10   2   17.545000   -8.241000  12.474000
16380   10   2   21.383000   -10.462000  12.467000
16381   10   2   20.113000   -8.249000  12.463000
16382   10   2   22.676000   -8.25000  12.465000
16383   10   2   52.334000   -10.647000  11.854000
16384   10   2   51.052000   -8.42000  11.895000
16385   10   2   54.912000   -10.67000  11.799000
16386   10   2   53.621000   -8.446000  11.828000
16387   10   2   57.497000   -10.692000  11.761000
16388   10   2   56.198000   -8.468000  11.78000
16389   10   2   60.088000   -10.713000  11.734000
16390   10   2   58.779000   -8.488000  11.742000
16391   10   2   62.681000   -10.734000  11.719000
16392   10   2   61.357000   -8.505000  11.711000
16393   10   2   65.253000   -10.745000  11.685000
16394   10   2   63.91000   -8.523000  11.653000
16395   10   2   8.606000   -5.963000  12.494000
16396   10   2   11.148000   -5.987000  12.512000
16397   10   2   9.92000   -3.768000  12.477000
16398   10   2   13.713000   -6.009000  12.495000
16399   10   2   12.459000   -3.785000  12.498000
16400   10   2   16.28000   -6.024000  12.477000
16401   10   2   15.021000   -3.804000  12.484000
16402   10   2   18.849000   -6.033000  12.463000
16403   10   2   17.584000   -3.816000  12.466000
16404   10   2   21.412000   -6.038000  12.453000
16405   10   2   20.146000   -3.822000  12.449000
16406   10   2   23.97000   -6.04000  12.448000
16407   10   2   22.708000   -3.826000  12.433000
16408   10   2   25.262000   -3.828000  12.421000
16409   10   2   49.764000   -6.198000  11.929000
16410   10   2   48.476000   -3.973000  11.959000
16411   10   2   52.33000   -6.221000  11.862000
16412   10   2   51.04000   -3.996000  11.895000
16413   10   2   54.902000   -6.242000  11.807000
16414   10   2   53.607000   -4.017000  11.84000
16415   10   2   57.474000   -6.26000  11.761000
16416   10   2   56.175000   -4.033000  11.789000
16417   10   2   60.046000   -6.275000  11.718000
16418   10   2   58.742000   -4.047000  11.739000
16419   10   2   62.593000   -6.294000  11.646000
16420   10   2   61.285000   -4.065000  11.656000
16421   10   2   11.223000   -1.571000  12.47000
16422   10   2   13.762000   -1.582000  12.493000
16423   10   2   12.518000   0.628000  12.47000
16424   10   2   16.321000   -1.595000  12.477000
16425   10   2   15.056000   0.623000  12.492000
16426   10   2   18.881000   -1.603000  12.456000
16427   10   2   17.613000   0.616000  12.474000
16428   10   2   21.441000   -1.607000  12.435000
16429   10   2   20.171000   0.613000  12.449000
16430   10   2   24.0000   -1.61000  12.409000
16431   10   2   22.728000   0.613000  12.418000
16432   10   2   26.557000   -1.613000  12.38000
16433   10   2   25.287000   0.611000  12.382000
16434   10   2   27.849000   0.603000  12.336000
16435   10   2   30.419000   0.584000  12.276000
16436   10   2   32.994000   0.569000  12.213000
16437   10   2   35.574000   0.555000  12.154000
16438   10   2   38.156000   0.536000  12.104000
16439   10   2   40.739000   0.516000  12.062000
16440   10   2   43.317000   0.496000  12.029000
16441   10   2   47.183000   -1.746000  11.98000
16442   10   2   45.892000   0.481000  11.999000
16443   10   2   49.749000   -1.77000  11.928000
16444   10   2   48.46000   0.459000  11.96000
16445   10   2   52.315000   -1.79000  11.876000
16446   10   2   51.025000   0.438000  11.918000
16447   10   2   54.88000   -1.808000  11.827000
16448   10   2   53.589000   0.419000  11.871000
16449   10   2   57.444000   -1.82000  11.773000
16450   10   2   56.151000   0.406000  11.818000
16451   10   2   59.985000   -1.837000  11.683000
16452   10   2   58.691000   0.388000  11.726000
16453   10   2   13.804000   2.828000  12.48000
16454   10   2   16.342000   2.831000  12.5000
16455   10   2   15.08000   5.029000  12.503000
16456   10   2   18.897000   2.832000  12.477000
16457   10   2   17.616000   5.043000  12.518000
16458   10   2   21.452000   2.836000  12.445000
16459   10   2   20.171000   5.056000  12.489000
16460   10   2   24.009000   2.839000  12.404000
16461   10   2   22.725000   5.068000  12.447000
16462   10   2   26.57000   2.834000  12.358000
16463   10   2   25.281000   5.071000  12.398000
16464   10   2   29.136000   2.822000  12.304000
16465   10   2   27.845000   5.061000  12.343000
16466   10   2   31.708000   2.803000  12.245000
16467   10   2   30.419000   5.041000  12.285000
16468   10   2   34.287000   2.786000  12.189000
16469   10   2   32.998000   5.02000  12.229000
16470   10   2   36.87000   2.769000  12.137000
16471   10   2   35.583000   5.0000  12.177000
16472   10   2   39.452000   2.75000  12.094000
16473   10   2   38.169000   4.982000  12.133000
16474   10   2   42.034000   2.73000  12.059000
16475   10   2   40.754000   4.964000  12.099000
16476   10   2   44.608000   2.712000  12.029000
16477   10   2   43.333000   4.946000  12.071000
16478   10   2   47.178000   2.69000  11.999000
16479   10   2   45.906000   4.928000  12.047000
16480   10   2   49.742000   2.667000  11.965000
16481   10   2   48.47000   4.903000  12.021000
16482   10   2   52.305000   2.647000  11.926000
16483   10   2   51.029000   4.877000  11.99000
16484   10   2   54.865000   2.63000  11.876000
16485   10   2   53.587000   4.854000  11.947000
16486   10   2   57.403000   2.61000  11.783000
16487   10   2   56.125000   4.83000  11.858000
16488   10   2   16.341000   7.231000  12.537000
16489   10   2   18.878000   7.263000  12.548000
16490   10   2   17.578000   9.434000  12.591000
16491   10   2   21.428000   7.293000  12.51000
16492   10   2   20.114000   9.5000  12.591000
16493   10   2   23.979000   7.309000  12.457000
16494   10   2   22.662000   9.549000  12.541000
16495   10   2   26.543000   7.303000  12.397000
16496   10   2   25.224000   9.552000  12.473000
16497   10   2   29.12000   7.282000  12.336000
16498   10   2   27.808000   9.526000  12.403000
16499   10   2   31.704000   7.257000  12.278000
16500   10   2   30.402000   9.494000  12.336000
16501   10   2   34.294000   7.233000  12.224000
16502   10   2   33.001000   9.464000  12.278000
16503   10   2   36.885000   7.211000  12.18000
16504   10   2   35.599000   9.439000  12.229000
16505   10   2   39.476000   7.193000  12.144000
16506   10   2   38.197000   9.42000  12.194000
16507   10   2   42.063000   7.179000  12.119000
16508   10   2   40.791000   9.405000  12.171000
16509   10   2   44.642000   7.164000  12.101000
16510   10   2   43.382000   9.395000  12.159000
16511   10   2   47.211000   7.145000  12.086000
16512   10   2   45.966000   9.387000  12.155000
16513   10   2   49.767000   7.115000  12.067000
16514   10   2   48.53000   9.367000  12.153000
16515   10   2   52.321000   7.08000  12.033000
16516   10   2   51.076000   9.317000  12.137000
16517   10   2   54.858000   7.046000  11.951000
16518   10   2   53.608000   9.257000  12.064000
16519   10   2   18.766000   11.652000  12.654000
16520   10   2   21.296000   11.79000  12.643000
16521   10   2   23.873000   11.805000  12.573000
16522   10   4   22.512000   14.056000  12.681000
16523   10   2   26.48000   11.773000  12.485000
16524   10   4   25.145000   14.029000  12.574000
16525   10   2   29.092000   11.731000  12.405000
16526   10   4   27.782000   13.971000  12.469000
16527   10   2   31.701000   11.694000  12.336000
16528   10   4   30.404000   13.928000  12.384000
16529   10   2   34.308000   11.664000  12.281000
16530   10   4   33.017000   13.893000  12.317000
16531   10   2   36.912000   11.641000  12.242000
16532   10   4   35.626000   13.867000  12.27000
16533   10   2   39.515000   11.625000  12.218000
16534   10   4   38.231000   13.847000  12.243000
16535   10   2   42.117000   11.616000  12.211000
16536   10   4   40.836000   13.835000  12.236000
16537   10   2   44.715000   11.613000  12.219000
16538   10   4   43.442000   13.83000  12.252000
16539   10   2   47.312000   11.616000  12.241000
16540   10   4   46.055000   13.834000  12.292000
16541   10   2   49.881000   11.588000  12.258000
16542   10   4   48.683000   13.86000  12.363000
16543   10   2   52.404000   11.47000  12.207000
16544   10   2   8.476000   -19.251000  12.603000
16545   10   2   7.136000   -17.017000  12.601000
16546   10   2   11.058000   -19.254000  12.593000
16547   10   2   9.732000   -17.027000  12.589000
16548   10   2   13.639000   -19.269000  12.566000
16549   10   2   12.328000   -17.046000  12.562000
16550   10   2   16.222000   -19.285000  12.533000
16551   10   2   14.92000   -17.064000  12.531000
16552   10   2   18.803000   -19.303000  12.497000
16553   10   2   17.508000   -17.081000  12.5000
16554   10   2   21.38000   -19.323000  12.458000
16555   10   2   20.09000   -17.098000  12.467000
16556   10   2   52.265000   -19.514000  11.852000
16557   10   2   54.844000   -19.526000  11.826000
16558   10   2   53.575000   -17.302000  11.819000
16559   10   2   57.422000   -19.54000  11.801000
16560   10   2   56.16000   -17.318000  11.793000
16561   10   2   59.996000   -19.56000  11.777000
16562   10   2   58.746000   -17.334000  11.77000
16563   10   2   62.568000   -19.593000  11.736000
16564   10   2   61.33000   -17.354000  11.752000
16565   10   2   63.911000   -17.392000  11.725000
16566   10   2   11.103000   -23.699000  12.621000
16567   10   2   9.796000   -21.478000  12.611000
16568   10   2   13.675000   -23.698000  12.608000
16569   10   2   12.371000   -21.478000  12.601000
16570   10   2   16.243000   -23.71000  12.576000
16571   10   2   14.945000   -21.489000  12.571000
16572   10   2   18.815000   -23.73000  12.539000
16573   10   2   17.521000   -21.506000  12.535000
16574   10   2   21.387000   -23.756000  12.498000
16575   10   2   20.096000   -21.528000  12.497000
16576   10   2   23.958000   -23.786000  12.456000
16577   10   2   22.669000   -21.553000  12.453000
16578   10   2   49.654000   -23.943000  11.956000
16579   10   2   52.228000   -23.945000  11.923000
16580   10   2   50.958000   -21.728000  11.898000
16581   10   2   54.798000   -23.955000  11.892000
16582   10   2   53.534000   -21.736000  11.869000
16583   10   2   57.367000   -23.969000  11.859000
16584   10   2   56.106000   -21.748000  11.842000
16585   10   2   59.932000   -23.996000  11.808000
16586   10   2   58.676000   -21.766000  11.813000
16587   10   2   61.245000   -21.795000  11.767000
16588   10   2   13.688000   -28.123000  12.63000
16589   10   2   12.4000   -25.913000  12.628000
16590   10   2   16.256000   -28.127000  12.613000
16591   10   2   14.969000   -25.914000  12.614000
16592   10   2   18.821000   -28.146000  12.58000
16593   10   2   17.535000   -25.929000  12.581000
16594   10   2   21.388000   -28.179000  12.544000
16595   10   2   20.105000   -25.954000  12.543000
16596   10   2   23.955000   -28.216000  12.509000
16597   10   2   22.674000   -25.985000  12.503000
16598   10   2   26.522000   -28.254000  12.474000
16599   10   2   25.244000   -26.019000  12.464000
16600   10   2   47.064000   -28.373000  12.099000
16601   10   2   49.632000   -28.366000  12.052000
16602   10   2   48.355000   -26.157000  12.025000
16603   10   2   52.201000   -28.362000  12.01000
16604   10   2   50.927000   -26.156000  11.985000
16605   10   2   54.766000   -28.368000  11.969000
16606   10   2   53.497000   -26.159000  11.95000
16607   10   2   57.332000   -28.388000  11.913000
16608   10   2   56.063000   -26.17000  11.912000
16609   10   2   58.629000   -26.195000  11.858000
16610   10   2   16.239000   -32.526000  12.598000
16611   10   2   14.968000   -30.327000  12.621000
16612   10   2   18.81000   -32.544000  12.583000
16613   10   2   17.534000   -30.336000  12.604000
16614   10   2   21.374000   -32.589000  12.556000
16615   10   2   20.101000   -30.366000  12.572000
16616   10   2   23.937000   -32.641000  12.532000
16617   10   2   22.666000   -30.407000  12.54000
16618   10   2   26.501000   -32.687000  12.508000
16619   10   2   25.231000   -30.451000  12.51000
16620   10   2   29.068000   -32.725000  12.484000
16621   10   2   27.796000   -30.491000  12.481000
16622   10   2   31.64000   -32.755000  12.456000
16623   10   2   30.364000   -30.527000  12.453000
16624   10   2   34.212000   -32.781000  12.423000
16625   10   2   32.933000   -30.557000  12.421000
16626   10   2   36.785000   -32.8000  12.383000
16627   10   2   35.504000   -30.581000  12.381000
16628   10   2   39.358000   -32.813000  12.336000
16629   10   2   38.074000   -30.597000  12.335000
16630   10   2   41.928000   -32.817000  12.283000
16631   10   2   40.643000   -30.605000  12.282000
16632   10   2   44.497000   -32.811000  12.228000
16633   10   2   43.212000   -30.602000  12.224000
16634   10   2   47.061000   -32.794000  12.173000
16635   10   2   45.777000   -30.592000  12.168000
16636   10   2   49.624000   -32.769000  12.121000
16637   10   2   48.343000   -30.577000  12.116000
16638   10   2   52.188000   -32.751000  12.069000
16639   10   2   50.909000   -30.564000  12.069000
16640   10   2   54.757000   -32.758000  12.007000
16641   10   2   53.476000   -30.56000  12.024000
16642   10   2   56.041000   -30.577000  11.964000
16643   10   2   18.764000   -36.902000  12.493000
16644   10   2   17.505000   -34.718000  12.557000
16645   10   2   21.321000   -36.998000  12.501000
16646   10   2   20.076000   -34.757000  12.549000
16647   10   2   23.881000   -37.071000  12.502000
16648   10   2   22.635000   -34.825000  12.534000
16649   10   2   26.455000   -37.116000  12.502000
16650   10   2   25.198000   -34.881000  12.518000
16651   10   2   29.034000   -37.15000  12.494000
16652   10   2   27.767000   -34.921000  12.503000
16653   10   2   31.614000   -37.179000  12.479000
16654   10   2   30.341000   -34.954000  12.482000
16655   10   2   34.195000   -37.202000  12.455000
16656   10   2   32.916000   -34.981000  12.458000
16657   10   2   36.777000   -37.221000  12.421000
16658   10   2   35.492000   -35.001000  12.425000
16659   10   2   39.358000   -37.236000  12.376000
16660   10   2   38.069000   -35.018000  12.383000
16661   10   2   41.939000   -37.243000  12.322000
16662   10   2   40.646000   -35.028000  12.334000
16663   10   2   44.516000   -37.239000  12.261000
16664   10   2   43.218000   -35.029000  12.279000
16665   10   2   47.089000   -37.214000  12.193000
16666   10   2   45.786000   -35.017000  12.222000
16667   10   2   49.647000   -37.165000  12.122000
16668   10   2   48.349000   -34.987000  12.162000
16669   10   2   52.216000   -37.094000  12.041000
16670   10   2   50.91000   -34.946000  12.104000
16671   10   2   53.481000   -34.93000  12.035000
16672   10   2   19.962000   -39.137000  12.414000
16673   10   2   22.535000   -39.261000  12.446000
16674   10   2   25.127000   -39.308000  12.47000
16675   10   2   27.718000   -39.346000  12.483000
16676   10   2   30.304000   -39.375000  12.485000
16677   10   2   32.892000   -39.4000  12.472000
16678   10   2   35.477000   -39.422000  12.448000
16679   10   2   38.064000   -39.439000  12.409000
16680   10   2   40.651000   -39.45000  12.358000
16681   10   2   43.24000   -39.455000  12.294000
16682   10   2   45.831000   -39.446000  12.217000
16683   10   2   48.426000   -39.408000  12.118000
16684   10   2   50.999000   -39.256000  12.012000
16685   10   4   23.778000   -41.473000  12.369000
16686   10   4   26.388000   -41.512000  12.413000
16687   10   4   28.986000   -41.547000  12.437000
16688   10   4   31.58000   -41.575000  12.443000
16689   10   4   34.169000   -41.599000  12.431000
16690   10   4   36.76000   -41.619000  12.403000
16691   10   4   39.351000   -41.632000  12.358000
16692   10   4   41.947000   -41.641000  12.294000
16693   10   4   44.55000   -41.642000  12.213000
16694   10   4   47.174000   -41.626000  12.099000
16695   10   4   21.12000   -41.42000  12.315000
16696   10   4   51.094000   -40.793000  11.944000
16697   10   4   51.294000   13.772000  12.42000
16698   10   4   21.049000   14.815000  12.788000
16699   10   2   21.0000   -16.591000  13.894000
16700   10   2   21.028000   -16.584000  15.783000
16701   10   2   22.293000   -18.812000  13.88000
16702   10   2   22.321000   -18.804000  15.767000
16703   10   2   52.709000   -16.783000  13.267000
16704   10   2   52.735000   -16.773000  15.156000
16705   10   2   51.399000   -18.987000  13.296000
16706   10   2   51.428000   -18.974000  15.183000
16707   10   2   23.584000   -21.041000  13.873000
16708   10   2   23.611000   -21.031000  15.758000
16709   10   2   24.873000   -23.273000  13.875000
16710   10   2   24.898000   -23.261000  15.76000
16711   10   2   50.092000   -21.198000  13.339000
16712   10   2   50.124000   -21.179000  15.225000
16713   10   2   48.79000   -23.411000  13.398000
16714   10   2   48.826000   -23.389000  15.284000
16715   10   2   26.156000   -25.506000  13.884000
16716   10   2   26.18000   -25.494000  15.771000
16717   10   2   29.103000   -28.743000  13.693000
16718   10   2   29.134000   -28.722000  15.972000
16719   10   2   27.431000   -27.744000  13.898000
16720   10   2   27.454000   -27.73000  15.785000
16721   10   2   31.673000   -28.774000  13.665000
16722   10   2   31.706000   -28.749000  15.937000
16723   10   2   34.245000   -28.8000  13.631000
16724   10   2   34.282000   -28.772000  15.899000
16725   10   2   36.815000   -28.817000  13.586000
16726   10   2   36.856000   -28.787000  15.853000
16727   10   2   39.386000   -28.829000  13.533000
16728   10   2   39.43000   -28.796000  15.802000
16729   10   2   41.956000   -28.832000  13.472000
16730   10   2   42.001000   -28.798000  15.745000
16731   10   2   44.522000   -28.827000  13.409000
16732   10   2   44.569000   -28.792000  15.69000
16733   10   2   47.494000   -25.626000  13.47000
16734   10   2   47.532000   -25.602000  15.358000
16735   10   2   46.207000   -27.845000  13.548000
16736   10   2   46.244000   -27.821000  15.436000
16737   10   2   33.061000   -0.469000  15.535000
16738   10   2   35.599000   -0.48000  13.585000
16739   10   2   35.637000   -0.485000  15.468000
16740   10   2   20.993000   -14.655000  13.699000
16741   10   2   21.027000   -14.65000  15.976000
16742   10   2   22.32000   -12.45000  15.96000
16743   10   2   22.286000   -12.452000  13.703000
16744   10   2   52.726000   -14.846000  13.07000
16745   10   2   52.755000   -14.841000  15.348000
16746   10   2   51.483000   -12.629000  15.367000
16747   10   2   51.452000   -12.628000  13.109000
16748   10   2   24.913000   -8.033000  15.937000
16749   10   2   24.876000   -8.033000  13.706000
16750   10   2   50.171000   -10.405000  13.161000
16751   10   2   50.204000   -10.41000  15.396000
16752   10   2   48.921000   -8.191000  15.434000
16753   10   2   48.886000   -8.185000  13.2000
16754   10   2   26.171000   -5.825000  13.681000
16755   10   2   26.21000   -5.824000  15.913000
16756   10   2   27.506000   -3.614000  15.876000
16757   10   2   27.463000   -3.611000  13.643000
16758   10   2   47.6000   -5.963000  13.233000
16759   10   2   47.636000   -5.972000  15.466000
16760   10   2   46.345000   -3.752000  15.491000
16761   10   2   46.311000   -3.739000  13.255000
16762   10   2   28.756000   -1.396000  13.582000
16763   10   2   28.803000   -1.403000  15.841000
16764   10   2   30.454000   -0.439000  13.717000
16765   10   2   30.492000   -0.45000  15.604000
16766   10   2   33.022000   -0.463000  13.646000
16767   10   2   38.214000   -0.506000  15.416000
16768   10   2   40.76000   -0.521000  13.491000
16769   10   2   40.79000   -0.533000  15.379000
16770   10   2   45.019000   -1.512000  13.258000
16771   10   2   45.052000   -1.529000  15.518000
16772   10   2   43.332000   -0.535000  13.465000
16773   10   2   43.359000   -0.554000  15.35000
16774   10   2   38.181000   -0.5000  13.533000
16775   10   2   23.581000   -10.242000  13.714000
16776   10   2   23.616000   -10.242000  15.949000
16777   11   1   -78.101000   -11.842000  15.096000
16778   11   1   -78.085000   -11.838000  16.673000
16779   11   1   -78.142000   -14.829000  14.581000
16780   11   1   -78.108000   -14.822000  17.211000
16781   11   3   -79.429000   -12.547000  17.229000
16782   11   3   -79.47000   -14.05000  15.119000
16783   11   3   -79.45000   -14.051000  16.702000
16784   11   3   -79.458000   -12.545000  14.596000
16785   11   1   -75.467000   -11.906000  15.064000
16786   11   1   -75.45000   -11.9000  16.63000
16787   11   1   -75.497000   -14.851000  14.56000
16788   11   1   -75.466000   -14.837000  17.167000
16789   11   1   -76.776000   -12.608000  17.173000
16790   11   1   -76.814000   -14.101000  15.09000
16791   11   1   -76.796000   -14.095000  16.662000
16792   11   1   -76.806000   -12.619000  14.565000
16793   11   1   -72.853000   -11.937000  15.034000
16794   11   1   -72.836000   -11.93000  16.597000
16795   11   1   -72.876000   -14.877000  14.53000
16796   11   1   -72.846000   -14.862000  17.136000
16797   11   1   -74.144000   -12.644000  17.138000
16798   11   1   -74.177000   -14.131000  15.061000
16799   11   1   -74.159000   -14.122000  16.625000
16800   11   1   -74.174000   -12.657000  14.532000
16801   11   1   -70.253000   -11.957000  15.007000
16802   11   1   -70.235000   -11.951000  16.572000
16803   11   1   -70.271000   -14.898000  14.499000
16804   11   1   -70.241000   -14.884000  17.109000
16805   11   1   -71.535000   -12.669000  17.11000
16806   11   1   -71.565000   -14.154000  15.031000
16807   11   1   -71.546000   -14.146000  16.596000
16808   11   1   -71.562000   -12.682000  14.502000
16809   11   1   -67.661000   -11.974000  14.984000
16810   11   1   -67.643000   -11.968000  16.548000
16811   11   1   -67.677000   -14.914000  14.472000
16812   11   1   -67.645000   -14.903000  17.083000
16813   11   1   -68.937000   -12.689000  17.085000
16814   11   1   -68.966000   -14.173000  15.004000
16815   11   1   -68.946000   -14.164000  16.569000
16816   11   1   -68.966000   -12.7000  14.475000
16817   11   1   -65.079000   -11.986000  14.965000
16818   11   1   -65.057000   -11.983000  16.528000
16819   11   1   -65.089000   -14.931000  14.444000
16820   11   1   -65.055000   -14.922000  17.055000
16821   11   1   -66.347000   -12.706000  17.063000
16822   11   1   -66.375000   -14.188000  14.978000
16823   11   1   -66.354000   -14.183000  16.543000
16824   11   1   -66.378000   -12.714000  14.452000
16825   11   1   -62.498000   -11.999000  14.95000
16826   11   1   -62.473000   -11.997000  16.505000
16827   11   1   -63.761000   -12.724000  17.039000
16828   11   1   -63.789000   -14.204000  14.953000
16829   11   1   -63.765000   -14.199000  16.516000
16830   11   1   -63.797000   -12.728000  14.435000
16831   11   1   -31.551000   -12.187000  14.334000
16832   11   1   -31.531000   -12.186000  15.888000
16833   11   1   -28.969000   -12.204000  14.286000
16834   11   1   -28.949000   -12.202000  15.85000
16835   11   1   -28.998000   -15.149000  13.764000
16836   11   1   -28.967000   -15.14000  16.374000
16837   11   1   -30.237000   -12.927000  16.389000
16838   11   1   -30.279000   -14.406000  14.302000
16839   11   1   -30.259000   -14.401000  15.865000
16840   11   1   -30.272000   -12.931000  13.786000
16841   11   1   -26.384000   -12.223000  14.252000
16842   11   1   -26.367000   -12.218000  15.817000
16843   11   1   -26.41000   -15.166000  13.737000
16844   11   1   -26.386000   -15.154000  16.347000
16845   11   1   -27.658000   -12.941000  16.356000
16846   11   1   -27.692000   -14.422000  14.27000
16847   11   1   -27.675000   -14.416000  15.835000
16848   11   1   -27.688000   -12.948000  13.745000
16849   11   1   -23.789000   -12.241000  14.229000
16850   11   1   -23.777000   -12.234000  15.792000
16851   11   1   -23.815000   -15.185000  13.718000
16852   11   1   -23.799000   -15.173000  16.327000
16853   11   1   -25.073000   -12.957000  16.328000
16854   11   1   -25.102000   -14.44000  14.246000
16855   11   1   -25.089000   -14.433000  15.81000
16856   11   1   -25.095000   -12.966000  13.718000
16857   11   1   -21.179000   -12.261000  14.219000
16858   11   1   -21.174000   -12.254000  15.785000
16859   11   1   -21.21000   -15.209000  13.709000
16860   11   1   -21.206000   -15.197000  16.32000
16861   11   1   -22.48000   -12.975000  16.311000
16862   11   1   -22.501000   -14.46000  14.231000
16863   11   1   -22.496000   -14.453000  15.795000
16864   11   1   -22.492000   -12.987000  13.704000
16865   11   1   -18.552000   -12.275000  14.228000
16866   11   1   -18.553000   -12.273000  15.806000
16867   11   1   -18.59000   -15.26000  13.708000
16868   11   1   -18.601000   -15.254000  16.342000
16869   11   1   -19.87000   -13.0000  16.315000
16870   11   1   -19.883000   -14.492000  14.228000
16871   11   1   -19.884000   -14.485000  15.801000
16872   11   1   -19.867000   -13.01000  13.705000
16873   11   3   -17.248000   -13.049000  16.366000
16874   11   3   -17.254000   -14.545000  14.251000
16875   11   3   -17.263000   -14.547000  15.835000
16876   11   3   -17.231000   -13.045000  13.729000
16877   11   1   -77.987000   -10.372000  14.525000
16878   11   1   -77.961000   -10.363000  17.217000
16879   11   1   -75.35000   -7.468000  15.03000
16880   11   1   -75.334000   -7.464000  16.613000
16881   11   1   -75.423000   -10.429000  14.529000
16882   11   1   -75.396000   -10.419000  17.146000
16883   11   1   -76.602000   -8.188000  17.19000
16884   11   1   -76.69000   -9.659000  15.059000
16885   11   1   -76.676000   -9.654000  16.64000
16886   11   1   -76.627000   -8.197000  14.488000
16887   11   1   -72.775000   -7.511000  15.012000
16888   11   1   -72.76000   -7.508000  16.579000
16889   11   1   -72.831000   -10.463000  14.504000
16890   11   1   -72.805000   -10.452000  17.113000
16891   11   1   -74.054000   -8.225000  17.122000
16892   11   1   -74.109000   -9.711000  15.036000
16893   11   1   -74.092000   -9.705000  16.602000
16894   11   1   -74.079000   -8.233000  14.501000
16895   11   1   -70.2000   -7.538000  14.991000
16896   11   1   -70.184000   -7.535000  16.556000
16897   11   1   -70.24000   -10.484000  14.478000
16898   11   1   -70.215000   -10.476000  17.088000
16899   11   1   -71.476000   -8.257000  17.092000
16900   11   1   -71.521000   -9.739000  15.01000
16901   11   1   -71.505000   -9.734000  16.574000
16902   11   1   -71.501000   -8.264000  14.48000
16903   11   1   -67.625000   -7.554000  14.972000
16904   11   1   -67.609000   -7.553000  16.538000
16905   11   1   -67.655000   -10.5000  14.456000
16906   11   1   -67.628000   -10.494000  17.068000
16907   11   1   -68.899000   -8.278000  17.071000
16908   11   1   -68.936000   -9.758000  14.987000
16909   11   1   -68.919000   -9.754000  16.553000
16910   11   1   -68.924000   -8.284000  14.459000
16911   11   1   -65.052000   -7.565000  14.958000
16912   11   1   -65.035000   -7.564000  16.523000
16913   11   1   -65.077000   -10.512000  14.44000
16914   11   1   -65.047000   -10.507000  17.05000
16915   11   1   -66.321000   -8.292000  17.055000
16916   11   1   -66.356000   -9.771000  14.97000
16917   11   1   -66.337000   -9.768000  16.535000
16918   11   1   -66.347000   -8.296000  14.442000
16919   11   1   -62.482000   -7.569000  14.95000
16920   11   1   -62.46000   -7.571000  16.509000
16921   11   1   -62.502000   -10.521000  14.434000
16922   11   1   -62.465000   -10.519000  17.028000
16923   11   1   -63.745000   -8.303000  17.04000
16924   11   1   -63.781000   -9.779000  14.957000
16925   11   1   -63.759000   -9.778000  16.519000
16926   11   1   -63.776000   -8.305000  14.431000
16927   11   1   -59.91000   -7.577000  14.943000
16928   11   1   -59.881000   -7.579000  16.488000
16929   11   1   -61.168000   -8.311000  17.018000
16930   11   1   -61.206000   -9.787000  14.952000
16931   11   1   -61.178000   -9.788000  16.5000
16932   11   1   -61.207000   -8.309000  14.432000
16933   11   1   -34.115000   -7.74000  14.414000
16934   11   1   -34.092000   -7.746000  15.959000
16935   11   1   -31.538000   -7.76000  14.349000
16936   11   1   -31.515000   -7.763000  15.909000
16937   11   1   -31.551000   -10.707000  13.821000
16938   11   1   -31.514000   -10.711000  16.416000
16939   11   1   -32.795000   -8.491000  16.449000
16940   11   1   -32.829000   -9.962000  14.375000
16941   11   1   -32.809000   -9.965000  15.922000
16942   11   1   -32.835000   -8.482000  13.862000
16943   11   1   -28.964000   -7.78000  14.294000
16944   11   1   -28.941000   -7.782000  15.858000
16945   11   1   -28.973000   -10.728000  13.766000
16946   11   1   -28.938000   -10.728000  16.376000
16947   11   1   -30.22000   -8.51000  16.404000
16948   11   1   -30.252000   -9.983000  14.315000
16949   11   1   -30.23000   -9.984000  15.876000
16950   11   1   -30.262000   -8.505000  13.795000
16951   11   1   -26.388000   -7.795000  14.25000
16952   11   1   -26.366000   -7.795000  15.815000
16953   11   1   -26.388000   -10.747000  13.728000
16954   11   1   -26.358000   -10.741000  16.338000
16955   11   1   -27.647000   -8.525000  16.358000
16956   11   1   -27.672000   -10.002000  14.269000
16957   11   1   -27.652000   -10.001000  15.833000
16958   11   1   -27.684000   -8.524000  13.747000
16959   11   1   -23.807000   -7.806000  14.214000
16960   11   1   -23.79000   -7.804000  15.781000
16961   11   1   -23.798000   -10.765000  13.701000
16962   11   1   -23.775000   -10.756000  16.31000
16963   11   1   -25.072000   -8.537000  16.32000
16964   11   1   -25.088000   -10.019000  14.234000
16965   11   1   -25.072000   -10.014000  15.798000
16966   11   1   -25.103000   -8.54000  13.709000
16967   11   1   -21.228000   -7.808000  14.181000
16968   11   1   -21.211000   -7.805000  15.764000
16969   11   1   -21.204000   -10.782000  13.686000
16970   11   1   -21.189000   -10.771000  16.301000
16971   11   1   -22.495000   -8.545000  16.296000
16972   11   1   -22.499000   -10.033000  14.21000
16973   11   1   -22.488000   -10.028000  15.777000
16974   11   1   -22.522000   -8.553000  13.678000
16975   11   1   -18.634000   -10.794000  13.652000
16976   11   1   -18.627000   -10.789000  16.342000
16977   11   1   -19.943000   -8.561000  16.321000
16978   11   1   -19.911000   -10.038000  14.195000
16979   11   1   -19.902000   -10.035000  15.777000
16980   11   1   -19.967000   -8.567000  13.62000
16981   11   1   -75.3000   -6.007000  14.461000
16982   11   1   -75.276000   -6.001000  17.167000
16983   11   1   -72.719000   -3.08000  14.997000
16984   11   1   -72.704000   -3.081000  16.58000
16985   11   1   -72.755000   -6.035000  14.48000
16986   11   1   -72.732000   -6.031000  17.103000
16987   11   1   -73.964000   -3.812000  17.152000
16988   11   1   -74.028000   -5.275000  15.01000
16989   11   1   -74.014000   -5.273000  16.592000
16990   11   1   -73.987000   -3.815000  14.445000
16991   11   1   -70.15000   -3.111000  14.985000
16992   11   1   -70.136000   -3.114000  16.553000
16993   11   1   -70.184000   -6.061000  14.463000
16994   11   1   -70.161000   -6.06000  17.077000
16995   11   1   -71.42000   -3.837000  17.09000
16996   11   1   -71.457000   -5.311000  14.995000
16997   11   1   -71.443000   -5.311000  16.563000
16998   11   1   -71.444000   -3.835000  14.466000
16999   11   1   -67.583000   -3.129000  14.967000
17000   11   1   -67.567000   -3.133000  16.533000
17001   11   1   -67.613000   -6.079000  14.445000
17002   11   1   -67.588000   -6.078000  17.058000
17003   11   1   -68.853000   -3.861000  17.066000
17004   11   1   -68.887000   -5.334000  14.977000
17005   11   1   -68.874000   -5.335000  16.543000
17006   11   1   -68.875000   -3.858000  14.452000
17007   11   1   -65.016000   -3.138000  14.949000
17008   11   1   -64.999000   -3.144000  16.514000
17009   11   1   -65.043000   -6.088000  14.431000
17010   11   1   -65.017000   -6.088000  17.043000
17011   11   1   -66.284000   -3.875000  17.047000
17012   11   1   -66.319000   -5.347000  14.96000
17013   11   1   -66.302000   -5.349000  16.525000
17014   11   1   -66.309000   -3.872000  14.434000
17015   11   1   -62.452000   -3.143000  14.93000
17016   11   1   -62.432000   -3.148000  16.494000
17017   11   1   -62.476000   -6.094000  14.42000
17018   11   1   -62.445000   -6.095000  17.028000
17019   11   1   -63.714000   -3.882000  17.031000
17020   11   1   -63.75000   -5.355000  14.946000
17021   11   1   -63.732000   -5.357000  16.51000
17022   11   1   -63.744000   -3.878000  14.417000
17023   11   1   -59.888000   -3.146000  14.91000
17024   11   1   -59.863000   -3.15000  16.47000
17025   11   1   -59.911000   -6.099000  14.415000
17026   11   1   -59.869000   -6.101000  17.002000
17027   11   1   -61.144000   -3.885000  17.009000
17028   11   1   -61.185000   -5.358000  14.934000
17029   11   1   -61.161000   -5.361000  16.493000
17030   11   1   -61.179000   -3.882000  14.4000
17031   11   1   -57.319000   -3.151000  14.884000
17032   11   1   -57.288000   -3.158000  16.43000
17033   11   1   -58.571000   -3.889000  16.974000
17034   11   1   -58.613000   -5.366000  14.919000
17035   11   1   -58.584000   -5.369000  16.466000
17036   11   1   -58.616000   -3.887000  14.388000
17037   11   1   -36.691000   -3.292000  14.47000
17038   11   1   -36.669000   -3.305000  16.017000
17039   11   1   -34.118000   -3.313000  14.415000
17040   11   1   -34.094000   -3.325000  15.974000
17041   11   1   -34.123000   -6.261000  13.896000
17042   11   1   -34.082000   -6.271000  16.484000
17043   11   1   -35.372000   -4.052000  16.513000
17044   11   1   -35.401000   -5.517000  14.446000
17045   11   1   -35.379000   -5.525000  15.991000
17046   11   1   -35.413000   -4.036000  13.926000
17047   11   1   -31.548000   -3.335000  14.36000
17048   11   1   -31.522000   -3.346000  15.924000
17049   11   1   -31.552000   -6.282000  13.829000
17050   11   1   -31.508000   -6.291000  16.436000
17051   11   1   -32.799000   -4.074000  16.47000
17052   11   1   -32.827000   -5.536000  14.383000
17053   11   1   -32.803000   -5.545000  15.942000
17054   11   1   -32.843000   -4.058000  13.862000
17055   11   1   -28.98000   -3.35000  14.309000
17056   11   1   -28.952000   -3.36000  15.873000
17057   11   1   -28.979000   -6.301000  13.774000
17058   11   1   -28.937000   -6.309000  16.385000
17059   11   1   -30.227000   -4.092000  16.419000
17060   11   1   -30.256000   -5.556000  14.326000
17061   11   1   -30.231000   -5.563000  15.889000
17062   11   1   -30.273000   -4.078000  13.807000
17063   11   1   -26.407000   -3.359000  14.258000
17064   11   1   -26.381000   -3.367000  15.825000
17065   11   1   -26.405000   -6.316000  13.728000
17066   11   1   -26.365000   -6.319000  16.34000
17067   11   1   -27.658000   -4.104000  16.369000
17068   11   1   -27.684000   -5.573000  14.275000
17069   11   1   -27.66000   -5.578000  15.839000
17070   11   1   -27.702000   -4.092000  13.756000
17071   11   1   -23.834000   -3.358000  14.204000
17072   11   1   -23.808000   -3.363000  15.788000
17073   11   1   -23.829000   -6.325000  13.685000
17074   11   1   -23.792000   -6.325000  16.305000
17075   11   1   -25.086000   -4.107000  16.327000
17076   11   1   -25.109000   -5.582000  14.23000
17077   11   1   -25.087000   -5.584000  15.798000
17078   11   1   -25.13000   -4.1000  13.706000
17079   11   1   -21.279000   -6.339000  13.613000
17080   11   1   -21.244000   -6.337000  16.315000
17081   11   1   -22.54000   -4.116000  16.327000
17082   11   1   -22.534000   -5.581000  14.185000
17083   11   1   -22.512000   -5.582000  15.768000
17084   11   1   -22.583000   -4.112000  13.623000
17085   11   1   -72.684000   -1.62000  14.438000
17086   11   1   -72.66000   -1.623000  17.145000
17087   11   1   -70.125000   1.311000  14.997000
17088   11   1   -70.109000   1.302000  16.58000
17089   11   1   -70.141000   -1.635000  14.461000
17090   11   1   -70.119000   -1.642000  17.084000
17091   11   1   -71.363000   0.565000  17.146000
17092   11   1   -71.418000   -0.885000  14.993000
17093   11   1   -71.403000   -0.889000  16.576000
17094   11   1   -71.388000   0.575000  14.438000
17095   11   1   -67.557000   1.293000  14.983000
17096   11   1   -67.541000   1.28000  16.55000
17097   11   1   -67.575000   -1.652000  14.445000
17098   11   1   -67.55000   -1.662000  17.059000
17099   11   1   -68.821000   0.551000  17.085000
17100   11   1   -68.85000   -0.909000  14.982000
17101   11   1   -68.836000   -0.918000  16.549000
17102   11   1   -68.846000   0.567000  14.46000
17103   11   1   -64.992000   1.287000  14.958000
17104   11   1   -64.973000   1.272000  16.522000
17105   11   1   -65.01000   -1.662000  14.424000
17106   11   1   -64.982000   -1.672000  17.038000
17107   11   1   -66.253000   0.537000  17.057000
17108   11   1   -66.284000   -0.923000  14.961000
17109   11   1   -66.267000   -0.932000  16.526000
17110   11   1   -66.282000   0.555000  14.442000
17111   11   1   -62.428000   1.288000  14.928000
17112   11   1   -62.406000   1.273000  16.492000
17113   11   1   -62.447000   -1.664000  14.402000
17114   11   1   -62.413000   -1.674000  17.015000
17115   11   1   -63.685000   0.534000  17.03000
17116   11   1   -63.719000   -0.928000  14.937000
17117   11   1   -63.7000   -0.937000  16.502000
17118   11   1   -63.717000   0.552000  14.416000
17119   11   1   -59.866000   1.29000  14.892000
17120   11   1   -59.84000   1.277000  16.456000
17121   11   1   -59.885000   -1.667000  14.376000
17122   11   1   -59.844000   -1.674000  16.986000
17123   11   1   -61.117000   0.537000  16.999000
17124   11   1   -61.157000   -0.928000  14.911000
17125   11   1   -61.133000   -0.938000  16.475000
17126   11   1   -61.157000   0.552000  14.385000
17127   11   1   -57.301000   1.288000  14.848000
17128   11   1   -57.271000   1.275000  16.411000
17129   11   1   -57.321000   -1.672000  14.347000
17130   11   1   -57.272000   -1.679000  16.941000
17131   11   1   -58.548000   0.538000  16.959000
17132   11   1   -58.593000   -0.929000  14.879000
17133   11   1   -58.565000   -0.938000  16.44000
17134   11   1   -58.595000   0.551000  14.349000
17135   11   1   -54.731000   1.274000  14.793000
17136   11   1   -54.699000   1.264000  16.355000
17137   11   1   -55.978000   0.532000  16.907000
17138   11   1   -56.022000   -0.938000  14.836000
17139   11   1   -55.99000   -0.947000  16.391000
17140   11   1   -56.029000   0.544000  14.303000
17141   11   1   -52.16000   1.255000  14.731000
17142   11   1   -52.128000   1.247000  16.292000
17143   11   1   -53.403000   0.514000  16.846000
17144   11   1   -53.458000   0.524000  14.243000
17145   11   1   -49.584000   1.234000  14.67000
17146   11   1   -49.554000   1.228000  16.229000
17147   11   1   -50.832000   0.495000  16.777000
17148   11   1   -50.885000   0.503000  14.18000
17149   11   1   -47.005000   1.216000  14.616000
17150   11   1   -46.977000   1.208000  16.174000
17151   11   1   -48.257000   0.478000  16.713000
17152   11   1   -48.308000   0.487000  14.121000
17153   11   1   -44.425000   1.194000  14.571000
17154   11   1   -44.401000   1.184000  16.13000
17155   11   1   -45.682000   0.457000  16.662000
17156   11   1   -45.726000   0.468000  14.071000
17157   11   1   -41.849000   1.174000  14.536000
17158   11   1   -41.826000   1.161000  16.097000
17159   11   1   -43.108000   0.43000  16.626000
17160   11   1   -43.147000   0.447000  14.029000
17161   11   1   -39.276000   1.156000  14.506000
17162   11   1   -39.254000   1.137000  16.068000
17163   11   1   -40.536000   0.408000  16.6000
17164   11   1   -40.571000   0.43000  13.996000
17165   11   1   -36.702000   1.135000  14.475000
17166   11   1   -36.68000   1.113000  16.038000
17167   11   1   -36.705000   -1.811000  13.947000
17168   11   1   -36.667000   -1.833000  16.541000
17169   11   1   -37.961000   0.387000  16.57000
17170   11   1   -37.986000   -1.068000  14.486000
17171   11   1   -37.962000   -1.084000  16.041000
17172   11   1   -37.996000   0.414000  13.966000
17173   11   1   -34.132000   1.111000  14.437000
17174   11   1   -34.108000   1.087000  16.002000
17175   11   1   -34.135000   -1.833000  13.895000
17176   11   1   -34.093000   -1.856000  16.504000
17177   11   1   -35.387000   0.36000  16.538000
17178   11   1   -35.411000   -1.088000  14.443000
17179   11   1   -35.387000   -1.106000  16.004000
17180   11   1   -35.425000   0.392000  13.927000
17181   11   1   -31.563000   1.09000  14.395000
17182   11   1   -31.537000   1.066000  15.96000
17183   11   1   -31.566000   -1.854000  13.843000
17184   11   1   -31.521000   -1.877000  16.456000
17185   11   1   -32.815000   0.336000  16.498000
17186   11   1   -32.842000   -1.113000  14.396000
17187   11   1   -32.815000   -1.129000  15.961000
17188   11   1   -32.857000   0.37000  13.885000
17189   11   1   -28.992000   1.078000  14.347000
17190   11   1   -28.966000   1.057000  15.914000
17191   11   1   -28.997000   -1.869000  13.794000
17192   11   1   -28.951000   -1.89000  16.407000
17193   11   1   -30.242000   0.32000  16.452000
17194   11   1   -30.272000   -1.129000  14.348000
17195   11   1   -30.245000   -1.147000  15.912000
17196   11   1   -30.288000   0.353000  13.838000
17197   11   1   -26.421000   1.079000  14.288000
17198   11   1   -26.394000   1.061000  15.872000
17199   11   1   -26.426000   -1.876000  13.74000
17200   11   1   -26.379000   -1.894000  16.362000
17201   11   1   -27.671000   0.315000  16.408000
17202   11   1   -27.702000   -1.139000  14.298000
17203   11   1   -27.674000   -1.153000  15.864000
17204   11   1   -27.719000   0.345000  13.785000
17205   11   1   -23.881000   -1.89000  13.65000
17206   11   1   -23.833000   -1.901000  16.355000
17207   11   1   -25.126000   0.31000  16.398000
17208   11   1   -25.13000   -1.138000  14.239000
17209   11   1   -25.103000   -1.149000  15.823000
17210   11   1   -25.174000   0.332000  13.693000
17211   11   1   -70.102000   2.772000  14.448000
17212   11   1   -70.072000   2.753000  17.157000
17213   11   1   -67.564000   5.703000  15.036000
17214   11   1   -67.541000   5.68000  16.618000
17215   11   1   -67.559000   2.771000  14.468000
17216   11   1   -67.529000   2.744000  17.093000
17217   11   1   -68.789000   4.937000  17.179000
17218   11   1   -68.841000   3.508000  15.01000
17219   11   1   -68.821000   3.492000  16.594000
17220   11   1   -68.824000   4.967000  14.471000
17221   11   1   -64.995000   5.707000  15.011000
17222   11   1   -64.971000   5.677000  16.578000
17223   11   1   -64.995000   2.768000  14.445000
17224   11   1   -64.96000   2.738000  17.06000
17225   11   1   -66.245000   4.937000  17.111000
17226   11   1   -66.271000   3.497000  14.992000
17227   11   1   -66.252000   3.477000  16.559000
17228   11   1   -66.281000   4.977000  14.486000
17229   11   1   -62.433000   5.725000  14.971000
17230   11   1   -62.405000   5.694000  16.535000
17231   11   1   -62.433000   2.771000  14.412000
17232   11   1   -62.393000   2.742000  17.024000
17233   11   1   -63.675000   4.943000  17.069000
17234   11   1   -63.707000   3.501000  14.961000
17235   11   1   -63.684000   3.479000  16.525000
17236   11   1   -63.718000   4.986000  14.456000
17237   11   1   -59.873000   5.739000  14.922000
17238   11   1   -59.842000   5.712000  16.486000
17239   11   1   -59.873000   2.774000  14.371000
17240   11   1   -59.826000   2.75000  16.984000
17241   11   1   -61.11000   4.958000  17.024000
17242   11   1   -61.145000   3.51000  14.922000
17243   11   1   -61.119000   3.488000  16.486000
17244   11   1   -61.158000   4.998000  14.414000
17245   11   1   -57.308000   5.737000  14.867000
17246   11   1   -57.275000   5.715000  16.432000
17247   11   1   -57.31000   2.771000  14.325000
17248   11   1   -57.26000   2.751000  16.936000
17249   11   1   -58.545000   4.969000  16.975000
17250   11   1   -58.582000   3.512000  14.876000
17251   11   1   -58.553000   3.494000  16.44000
17252   11   1   -58.598000   5.002000  14.365000
17253   11   1   -54.737000   5.723000  14.809000
17254   11   1   -54.703000   5.704000  16.374000
17255   11   1   -54.743000   2.759000  14.271000
17256   11   1   -54.69000   2.742000  16.88000
17257   11   1   -55.977000   4.965000  16.92000
17258   11   1   -56.016000   3.504000  14.823000
17259   11   1   -55.985000   3.49000  16.388000
17260   11   1   -56.033000   4.993000  14.31000
17261   11   1   -52.16000   5.699000  14.752000
17262   11   1   -52.128000   5.685000  16.317000
17263   11   1   -52.171000   2.74000  14.212000
17264   11   1   -52.117000   2.724000  16.82000
17265   11   1   -53.405000   4.952000  16.862000
17266   11   1   -53.446000   3.488000  14.766000
17267   11   1   -53.414000   3.476000  16.33000
17268   11   1   -53.459000   4.976000  14.252000
17269   11   1   -49.579000   5.678000  14.698000
17270   11   1   -49.55000   5.663000  16.262000
17271   11   1   -49.594000   2.721000  14.156000
17272   11   1   -49.543000   2.705000  16.761000
17273   11   1   -50.831000   4.932000  16.806000
17274   11   1   -50.87000   3.468000  14.708000
17275   11   1   -50.839000   3.457000  16.272000
17276   11   1   -50.882000   4.954000  14.196000
17277   11   1   -46.997000   5.656000  14.651000
17278   11   1   -46.972000   5.638000  16.216000
17279   11   1   -47.012000   2.702000  14.104000
17280   11   1   -46.969000   2.684000  16.709000
17281   11   1   -48.254000   4.909000  16.754000
17282   11   1   -48.292000   3.447000  14.655000
17283   11   1   -48.264000   3.436000  16.218000
17284   11   1   -48.3000   4.933000  14.144000
17285   11   1   -44.415000   5.634000  14.614000
17286   11   1   -44.393000   5.615000  16.179000
17287   11   1   -44.433000   2.682000  14.061000
17288   11   1   -44.394000   2.659000  16.666000
17289   11   1   -45.678000   4.885000  16.711000
17290   11   1   -45.712000   3.426000  14.608000
17291   11   1   -45.687000   3.412000  16.171000
17292   11   1   -45.716000   4.914000  14.1000
17293   11   1   -41.836000   5.613000  14.585000
17294   11   1   -41.819000   5.59000  16.149000
17295   11   1   -41.855000   2.661000  14.026000
17296   11   1   -41.821000   2.633000  16.634000
17297   11   1   -43.104000   4.859000  16.676000
17298   11   1   -43.133000   3.406000  14.571000
17299   11   1   -43.112000   3.388000  16.135000
17300   11   1   -43.134000   4.894000  14.066000
17301   11   1   -39.261000   5.594000  14.56000
17302   11   1   -39.246000   5.562000  16.125000
17303   11   1   -39.281000   2.642000  13.996000
17304   11   1   -39.249000   2.607000  16.606000
17305   11   1   -40.531000   4.831000  16.648000
17306   11   1   -40.558000   3.384000  14.541000
17307   11   1   -40.538000   3.362000  16.105000
17308   11   1   -40.557000   4.873000  14.038000
17309   11   1   -36.691000   5.568000  14.539000
17310   11   1   -36.676000   5.53000  16.104000
17311   11   1   -36.71000   2.619000  13.966000
17312   11   1   -36.677000   2.579000  16.578000
17313   11   1   -37.96000   4.8000  16.625000
17314   11   1   -37.986000   3.362000  14.514000
17315   11   1   -37.967000   3.336000  16.078000
17316   11   1   -37.986000   4.852000  14.014000
17317   11   1   -34.125000   5.537000  14.515000
17318   11   1   -34.108000   5.493000  16.079000
17319   11   1   -34.143000   2.595000  13.932000
17320   11   1   -34.106000   2.55000  16.545000
17321   11   1   -35.392000   4.766000  16.6000
17322   11   1   -35.417000   3.336000  14.485000
17323   11   1   -35.397000   3.305000  16.048000
17324   11   1   -35.42000   4.826000  13.988000
17325   11   1   -31.558000   5.511000  14.483000
17326   11   1   -31.538000   5.468000  16.049000
17327   11   1   -31.575000   2.575000  13.893000
17328   11   1   -31.534000   2.528000  16.506000
17329   11   1   -32.821000   4.735000  16.571000
17330   11   1   -32.847000   3.312000  14.45000
17331   11   1   -32.825000   3.278000  16.015000
17332   11   1   -32.854000   4.798000  13.957000
17333   11   1   -28.986000   5.5000  14.432000
17334   11   1   -28.965000   5.466000  16.015000
17335   11   1   -29.006000   2.563000  13.843000
17336   11   1   -28.961000   2.519000  16.466000
17337   11   1   -30.248000   4.72000  16.538000
17338   11   1   -30.279000   3.294000  14.408000
17339   11   1   -30.254000   3.263000  15.975000
17340   11   1   -30.286000   4.78000  13.914000
17341   11   1   -26.462000   2.548000  13.75000
17342   11   1   -26.414000   2.515000  16.456000
17343   11   1   -27.7000   4.713000  16.532000
17344   11   1   -27.707000   3.291000  14.352000
17345   11   1   -27.682000   3.268000  15.936000
17346   11   1   -27.742000   4.762000  13.825000
17347   11   1   -67.56000   7.163000  14.505000
17348   11   1   -67.515000   7.118000  17.214000
17349   11   1   -65.066000   10.104000  15.128000
17350   11   1   -65.025000   10.056000  16.714000
17351   11   1   -65.015000   7.189000  14.515000
17352   11   1   -64.968000   7.132000  17.139000
17353   11   1   -66.256000   9.293000  17.265000
17354   11   1   -66.303000   7.898000  15.074000
17355   11   1   -66.272000   7.865000  16.657000
17356   11   1   -66.316000   9.359000  14.558000
17357   11   1   -62.499000   10.187000  15.081000
17358   11   1   -62.459000   10.134000  16.653000
17359   11   1   -62.455000   7.217000  14.477000
17360   11   1   -62.401000   7.158000  17.087000
17361   11   1   -63.709000   9.343000  17.18000
17362   11   1   -63.734000   7.93000  15.041000
17363   11   1   -63.702000   7.89000  16.607000
17364   11   1   -63.771000   9.421000  14.558000
17365   11   1   -59.932000   10.212000  15.016000
17366   11   1   -59.893000   10.17000  16.58000
17367   11   1   -59.898000   7.235000  14.424000
17368   11   1   -59.839000   7.183000  17.032000
17369   11   1   -61.147000   9.396000  17.113000
17370   11   1   -61.175000   7.965000  14.99000
17371   11   1   -61.14000   7.927000  16.553000
17372   11   1   -61.215000   9.468000  14.508000
17373   11   1   -57.35000   10.199000  14.941000
17374   11   1   -57.31000   10.167000  16.504000
17375   11   1   -57.333000   7.231000  14.364000
17376   11   1   -57.273000   7.19000  16.972000
17377   11   1   -58.581000   9.417000  17.045000
17378   11   1   -58.61000   7.972000  14.929000
17379   11   1   -58.575000   7.941000  16.493000
17380   11   1   -58.648000   9.474000  14.44000
17381   11   1   -54.758000   10.17000  14.868000
17382   11   1   -54.721000   10.146000  16.432000
17383   11   1   -54.756000   7.213000  14.303000
17384   11   1   -54.699000   7.179000  16.912000
17385   11   1   -56.0000   9.409000  16.976000
17386   11   1   -56.036000   7.959000  14.866000
17387   11   1   -56.0000   7.933000  16.43000
17388   11   1   -56.065000   9.453000  14.37000
17389   11   1   -52.163000   10.139000  14.804000
17390   11   1   -52.132000   10.119000  16.368000
17391   11   1   -52.175000   7.189000  14.245000
17392   11   1   -52.12000   7.159000  16.853000
17393   11   1   -53.415000   9.387000  16.91000
17394   11   1   -53.454000   7.935000  14.804000
17395   11   1   -53.421000   7.914000  16.368000
17396   11   1   -53.474000   9.424000  14.303000
17397   11   1   -49.57000   10.112000  14.75000
17398   11   1   -49.543000   10.093000  16.315000
17399   11   1   -49.588000   7.164000  14.191000
17400   11   1   -49.541000   7.135000  16.801000
17401   11   1   -50.83000   9.362000  16.853000
17402   11   1   -50.869000   7.908000  14.747000
17403   11   1   -50.839000   7.89000  16.312000
17404   11   1   -50.88000   9.395000  14.245000
17405   11   1   -46.978000   10.088000  14.71000
17406   11   1   -46.957000   10.066000  16.274000
17407   11   1   -47.001000   7.141000  14.147000
17408   11   1   -46.962000   7.111000  16.757000
17409   11   1   -48.246000   9.336000  16.805000
17410   11   1   -48.282000   7.883000  14.699000
17411   11   1   -48.257000   7.865000  16.264000
17412   11   1   -48.286000   9.369000  14.196000
17413   11   1   -44.388000   10.066000  14.683000
17414   11   1   -44.373000   10.043000  16.246000
17415   11   1   -44.414000   7.121000  14.111000
17416   11   1   -44.384000   7.085000  16.722000
17417   11   1   -45.664000   9.31000  16.77000
17418   11   1   -45.696000   7.861000  14.66000
17419   11   1   -45.675000   7.84000  16.225000
17420   11   1   -45.693000   9.348000  14.161000
17421   11   1   -41.799000   10.049000  14.668000
17422   11   1   -41.79000   10.018000  16.232000
17423   11   1   -41.83000   7.104000  14.086000
17424   11   1   -41.808000   7.057000  16.697000
17425   11   1   -43.083000   9.283000  16.746000
17426   11   1   -43.112000   7.842000  14.632000
17427   11   1   -43.096000   7.815000  16.197000
17428   11   1   -43.103000   9.331000  14.138000
17429   11   1   -39.215000   10.034000  14.665000
17430   11   1   -39.21000   9.991000  16.23000
17431   11   1   -39.253000   7.085000  14.068000
17432   11   1   -39.236000   7.027000  16.679000
17433   11   1   -40.505000   9.255000  16.734000
17434   11   1   -40.531000   7.823000  14.614000
17435   11   1   -40.519000   7.79000  16.179000
17436   11   1   -40.516000   9.316000  14.126000
17437   11   1   -36.636000   10.017000  14.67000
17438   11   1   -36.634000   9.961000  16.234000
17439   11   1   -36.683000   7.062000  14.053000
17440   11   1   -36.667000   6.991000  16.663000
17441   11   1   -37.93000   9.224000  16.731000
17442   11   1   -37.955000   7.802000  14.602000
17443   11   1   -37.946000   7.76000  16.165000
17444   11   1   -37.935000   9.301000  14.122000
17445   11   1   -34.07000   9.977000  14.671000
17446   11   1   -34.068000   9.91000  16.237000
17447   11   1   -34.121000   7.03000  14.034000
17448   11   1   -34.101000   6.949000  16.646000
17449   11   1   -35.363000   9.178000  16.729000
17450   11   1   -35.389000   7.774000  14.59000
17451   11   1   -35.379000   7.722000  16.154000
17452   11   1   -35.368000   9.275000  14.12000
17453   11   1   -31.509000   9.905000  14.649000
17454   11   1   -31.508000   9.841000  16.229000
17455   11   1   -31.558000   6.998000  14.0000
17456   11   1   -31.529000   6.917000  16.624000
17457   11   1   -32.801000   9.12000  16.726000
17458   11   1   -32.826000   7.732000  14.57000
17459   11   1   -32.814000   7.677000  16.136000
17460   11   1   -32.811000   9.225000  14.104000
17461   11   1   -29.013000   6.97000  13.918000
17462   11   1   -28.981000   6.904000  16.626000
17463   11   1   -30.254000   9.082000  16.739000
17464   11   1   -30.256000   7.703000  14.53000
17465   11   1   -30.242000   7.658000  16.113000
17466   11   1   -30.27000   9.172000  14.031000
17467   11   1   -65.12000   11.566000  14.621000
17468   11   1   -65.035000   11.468000  17.351000
17469   11   1   -62.575000   11.7000  14.61000
17470   11   1   -62.494000   11.601000  17.248000
17471   11   1   -63.89000   12.317000  15.22000
17472   11   1   -63.837000   12.252000  16.775000
17473   11   3   -60.03000   14.659000  15.168000
17474   11   3   -59.986000   14.612000  16.723000
17475   11   1   -59.995000   11.721000  14.54000
17476   11   1   -59.917000   11.645000  17.149000
17477   11   3   -61.262000   13.859000  17.316000
17478   11   1   -61.301000   12.452000  15.13000
17479   11   1   -61.257000   12.398000  16.705000
17480   11   3   -61.349000   13.959000  14.647000
17481   11   3   -57.379000   14.61000  15.048000
17482   11   3   -57.338000   14.577000  16.604000
17483   11   1   -57.389000   11.698000  14.452000
17484   11   1   -57.316000   11.641000  17.061000
17485   11   3   -58.642000   13.878000  17.187000
17486   11   1   -58.684000   12.445000  15.033000
17487   11   1   -58.64000   12.405000  16.608000
17488   11   3   -58.722000   13.947000  14.541000
17489   11   3   -54.757000   14.571000  14.949000
17490   11   3   -54.719000   14.546000  16.507000
17491   11   1   -54.78000   11.66000  14.372000
17492   11   1   -54.714000   11.617000  16.981000
17493   11   3   -56.016000   13.848000  17.085000
17494   11   1   -56.069000   12.407000  14.942000
17495   11   1   -56.028000   12.379000  16.518000
17496   11   3   -56.089000   13.898000  14.436000
17497   11   3   -52.146000   14.538000  14.872000
17498   11   3   -52.115000   14.519000  16.429000
17499   11   1   -52.176000   11.627000  14.303000
17500   11   1   -52.119000   11.591000  16.914000
17501   11   3   -53.408000   13.82000  17.002000
17502   11   1   -53.462000   12.373000  14.865000
17503   11   1   -53.426000   12.351000  16.44000
17504   11   3   -53.471000   13.859000  14.351000
17505   11   3   -49.546000   14.509000  14.814000
17506   11   3   -49.519000   14.492000  16.372000
17507   11   1   -49.575000   11.597000  14.248000
17508   11   1   -49.529000   11.563000  16.86000
17509   11   3   -50.811000   13.794000  16.937000
17510   11   1   -50.86000   12.342000  14.802000
17511   11   1   -50.83000   12.323000  16.377000
17512   11   3   -50.863000   13.828000  14.284000
17513   11   3   -46.947000   14.484000  14.779000
17514   11   3   -46.927000   14.466000  16.336000
17515   11   1   -46.976000   11.573000  14.209000
17516   11   1   -46.943000   11.536000  16.821000
17517   11   3   -48.221000   13.766000  16.89000
17518   11   1   -48.263000   12.316000  14.755000
17519   11   1   -48.238000   12.296000  16.33000
17520   11   3   -48.26000   13.8000  14.237000
17521   11   3   -44.351000   14.464000  14.763000
17522   11   3   -44.338000   14.441000  16.321000
17523   11   1   -44.379000   11.554000  14.185000
17524   11   1   -44.359000   11.51000  16.798000
17525   11   3   -45.633000   13.739000  16.864000
17526   11   1   -45.667000   12.292000  14.725000
17527   11   1   -45.65000   12.271000  16.3000
17528   11   3   -45.66000   13.778000  14.21000
17529   11   3   -41.755000   14.447000  14.772000
17530   11   3   -41.747000   14.416000  16.33000
17531   11   1   -41.784000   11.54000  14.178000
17532   11   1   -41.775000   11.482000  16.79000
17533   11   3   -43.048000   13.712000  16.857000
17534   11   1   -43.072000   12.275000  14.713000
17535   11   1   -43.063000   12.247000  16.288000
17536   11   3   -43.06000   13.762000  14.203000
17537   11   3   -39.157000   14.432000  14.803000
17538   11   3   -39.155000   14.389000  16.361000
17539   11   1   -39.19000   11.528000  14.186000
17540   11   1   -39.191000   11.453000  16.798000
17541   11   3   -40.46000   13.684000  16.872000
17542   11   1   -40.48000   12.259000  14.718000
17543   11   1   -40.475000   12.222000  16.293000
17544   11   3   -40.461000   13.75000  14.219000
17545   11   3   -36.551000   14.423000  14.864000
17546   11   3   -36.556000   14.362000  16.416000
17547   11   1   -36.598000   11.522000  14.208000
17548   11   1   -36.608000   11.421000  16.816000
17549   11   3   -37.868000   13.651000  16.907000
17550   11   1   -37.887000   12.247000  14.74000
17551   11   1   -37.886000   12.193000  16.314000
17552   11   3   -37.855000   13.743000  14.259000
17553   11   1   -34.024000   11.486000  14.225000
17554   11   1   -34.035000   11.36000  16.84000
17555   11   3   -35.259000   13.624000  16.962000
17556   11   1   -35.29000   12.235000  14.775000
17557   11   1   -35.295000   12.164000  16.347000
17558   11   3   -35.234000   13.753000  14.329000
17559   11   1   -31.487000   11.372000  14.174000
17560   11   1   -31.498000   11.249000  16.873000
17561   11   1   -32.707000   12.154000  14.797000
17562   11   1   -32.719000   12.076000  16.373000
17563   11   1   -78.035000   -16.315000  15.126000
17564   11   1   -78.015000   -16.309000  16.679000
17565   11   1   -75.462000   -16.334000  15.086000
17566   11   1   -75.443000   -16.324000  16.659000
17567   11   1   -75.416000   -19.305000  14.571000
17568   11   1   -75.383000   -19.286000  17.224000
17569   11   1   -76.722000   -17.058000  17.218000
17570   11   1   -76.682000   -18.545000  15.126000
17571   11   1   -76.662000   -18.536000  16.684000
17572   11   1   -76.755000   -17.071000  14.569000
17573   11   1   -72.859000   -16.351000  15.06000
17574   11   1   -72.839000   -16.342000  16.625000
17575   11   1   -72.835000   -19.306000  14.561000
17576   11   1   -72.802000   -19.286000  17.175000
17577   11   1   -74.127000   -17.063000  17.17000
17578   11   1   -74.129000   -18.561000  15.088000
17579   11   1   -74.11000   -18.551000  16.664000
17580   11   1   -74.158000   -17.08000  14.557000
17581   11   1   -70.26000   -16.37000  15.032000
17582   11   1   -70.24000   -16.361000  16.596000
17583   11   1   -70.25000   -19.319000  14.533000
17584   11   1   -70.216000   -19.298000  17.142000
17585   11   1   -71.53000   -17.08000  17.138000
17586   11   1   -71.54000   -18.572000  15.064000
17587   11   1   -71.52000   -18.561000  16.629000
17588   11   1   -71.562000   -17.096000  14.53000
17589   11   1   -67.668000   -16.387000  15.002000
17590   11   1   -67.647000   -16.38000  16.567000
17591   11   1   -67.665000   -19.335000  14.5000
17592   11   1   -67.63000   -19.316000  17.111000
17593   11   1   -68.936000   -17.099000  17.11000
17594   11   1   -68.953000   -18.587000  15.033000
17595   11   1   -68.933000   -18.577000  16.598000
17596   11   1   -68.969000   -17.114000  14.498000
17597   11   1   -65.08000   -16.405000  14.971000
17598   11   1   -65.059000   -16.398000  16.536000
17599   11   1   -65.084000   -19.353000  14.464000
17600   11   1   -65.047000   -19.336000  17.076000
17601   11   1   -66.346000   -17.118000  17.079000
17602   11   1   -66.368000   -18.605000  15.001000
17603   11   1   -66.346000   -18.596000  16.565000
17604   11   1   -66.381000   -17.132000  14.467000
17605   11   1   -62.504000   -19.372000  14.425000
17606   11   1   -62.464000   -19.358000  17.031000
17607   11   1   -63.758000   -17.138000  17.043000
17608   11   1   -63.785000   -18.623000  14.963000
17609   11   1   -63.762000   -18.617000  16.527000
17610   11   1   -63.795000   -17.15000  14.434000
17611   11   1   -31.622000   -19.559000  13.819000
17612   11   1   -31.586000   -19.537000  16.427000
17613   11   1   -29.008000   -16.623000  14.292000
17614   11   1   -28.988000   -16.615000  15.857000
17615   11   1   -29.043000   -19.573000  13.793000
17616   11   1   -29.013000   -19.55000  16.405000
17617   11   1   -30.279000   -17.337000  16.397000
17618   11   1   -30.32000   -18.825000  14.321000
17619   11   1   -30.3000   -18.814000  15.885000
17620   11   1   -30.312000   -17.351000  13.786000
17621   11   1   -26.424000   -16.64000  14.267000
17622   11   1   -26.408000   -16.631000  15.832000
17623   11   1   -26.466000   -19.59000  13.768000
17624   11   1   -26.439000   -19.567000  16.381000
17625   11   1   -27.701000   -17.353000  16.373000
17626   11   1   -27.742000   -18.841000  14.296000
17627   11   1   -27.724000   -18.829000  15.861000
17628   11   1   -27.729000   -17.368000  13.76000
17629   11   1   -23.838000   -16.659000  14.248000
17630   11   1   -23.826000   -16.65000  15.812000
17631   11   1   -23.892000   -19.612000  13.744000
17632   11   1   -23.869000   -19.593000  16.36000
17633   11   1   -25.122000   -17.37000  16.349000
17634   11   1   -25.164000   -18.86000  14.273000
17635   11   1   -25.148000   -18.849000  15.838000
17636   11   1   -25.145000   -17.385000  13.738000
17637   11   1   -21.252000   -16.687000  14.232000
17638   11   1   -21.245000   -16.679000  15.806000
17639   11   1   -21.322000   -19.646000  13.704000
17640   11   1   -21.302000   -19.631000  16.362000
17641   11   1   -22.547000   -17.395000  16.335000
17642   11   1   -22.587000   -18.887000  14.249000
17643   11   1   -22.575000   -18.877000  15.823000
17644   11   1   -22.562000   -17.409000  13.72000
17645   11   1   -18.703000   -16.73000  14.244000
17646   11   1   -18.703000   -16.725000  15.798000
17647   11   1   -19.98000   -17.439000  16.346000
17648   11   1   -20.048000   -18.911000  14.244000
17649   11   1   -20.039000   -18.905000  15.802000
17650   11   1   -19.987000   -17.449000  13.693000
17651   11   1   -75.356000   -20.772000  15.134000
17652   11   1   -75.337000   -20.761000  16.691000
17653   11   1   -72.81000   -20.785000  15.096000
17654   11   1   -72.79000   -20.773000  16.671000
17655   11   1   -72.789000   -23.75000  14.589000
17656   11   1   -72.753000   -23.726000  17.245000
17657   11   1   -74.063000   -21.509000  17.234000
17658   11   1   -74.045000   -22.993000  15.144000
17659   11   1   -74.023000   -22.979000  16.702000
17660   11   1   -74.097000   -21.53000  14.579000
17661   11   1   -70.23000   -20.792000  15.07000
17662   11   1   -70.209000   -20.781000  16.635000
17663   11   1   -70.217000   -23.748000  14.576000
17664   11   1   -70.181000   -23.727000  17.192000
17665   11   1   -71.487000   -21.507000  17.183000
17666   11   1   -71.503000   -23.005000  15.105000
17667   11   1   -71.481000   -22.992000  16.68000
17668   11   1   -71.521000   -21.529000  14.569000
17669   11   1   -67.649000   -20.807000  15.037000
17670   11   1   -67.628000   -20.797000  16.602000
17671   11   1   -67.644000   -23.76000  14.543000
17672   11   1   -67.608000   -23.74000  17.155000
17673   11   1   -68.908000   -21.518000  17.148000
17674   11   1   -68.927000   -23.012000  15.076000
17675   11   1   -68.905000   -23.001000  16.641000
17676   11   1   -68.944000   -21.539000  14.538000
17677   11   1   -65.071000   -20.826000  15.0000
17678   11   1   -65.047000   -20.816000  16.565000
17679   11   1   -65.071000   -23.779000  14.506000
17680   11   1   -65.033000   -23.76000  17.118000
17681   11   1   -66.329000   -21.536000  17.114000
17682   11   1   -66.351000   -23.028000  15.041000
17683   11   1   -66.329000   -23.017000  16.606000
17684   11   1   -66.366000   -21.555000  14.502000
17685   11   1   -62.492000   -20.848000  14.959000
17686   11   1   -62.468000   -20.839000  16.521000
17687   11   1   -62.498000   -23.804000  14.465000
17688   11   1   -62.46000   -23.786000  17.077000
17689   11   1   -63.749000   -21.559000  17.075000
17690   11   1   -63.776000   -23.051000  15.002000
17691   11   1   -63.754000   -23.039000  16.567000
17692   11   1   -63.789000   -21.577000  14.464000
17693   11   1   -59.925000   -23.833000  14.423000
17694   11   1   -59.885000   -23.813000  17.03000
17695   11   1   -61.172000   -21.584000  17.027000
17696   11   1   -61.201000   -23.076000  14.959000
17697   11   1   -61.179000   -23.067000  16.522000
17698   11   1   -61.214000   -21.601000  14.42000
17699   11   1   -34.231000   -23.984000  13.923000
17700   11   1   -34.188000   -23.949000  16.531000
17701   11   1   -31.629000   -21.031000  14.361000
17702   11   1   -31.606000   -21.017000  15.925000
17703   11   1   -31.658000   -23.988000  13.89000
17704   11   1   -31.619000   -23.954000  16.501000
17705   11   1   -32.89000   -21.74000  16.471000
17706   11   1   -32.932000   -23.241000  14.415000
17707   11   1   -32.907000   -23.224000  15.978000
17708   11   1   -32.929000   -21.771000  13.865000
17709   11   1   -29.054000   -21.044000  14.335000
17710   11   1   -29.033000   -21.029000  15.9000
17711   11   1   -29.087000   -23.998000  13.859000
17712   11   1   -29.051000   -23.965000  16.472000
17713   11   1   -30.318000   -21.749000  16.448000
17714   11   1   -30.36000   -23.249000  14.385000
17715   11   1   -30.337000   -23.232000  15.949000
17716   11   1   -30.353000   -21.78000  13.836000
17717   11   1   -26.48000   -21.062000  14.309000
17718   11   1   -26.462000   -21.047000  15.874000
17719   11   1   -26.518000   -24.016000  13.826000
17720   11   1   -26.485000   -23.984000  16.444000
17721   11   1   -27.748000   -21.765000  16.421000
17722   11   1   -27.788000   -23.263000  14.355000
17723   11   1   -27.769000   -23.245000  15.92000
17724   11   1   -27.781000   -21.794000  13.809000
17725   11   1   -23.907000   -21.087000  14.279000
17726   11   1   -23.891000   -21.074000  15.854000
17727   11   1   -23.952000   -24.043000  13.775000
17728   11   1   -23.92000   -24.013000  16.433000
17729   11   1   -25.18000   -21.788000  16.397000
17730   11   1   -25.218000   -23.287000  14.321000
17731   11   1   -25.199000   -23.269000  15.896000
17732   11   1   -25.21000   -21.814000  13.78000
17733   11   1   -21.369000   -21.106000  14.264000
17734   11   1   -21.354000   -21.095000  15.822000
17735   11   1   -22.615000   -21.821000  16.391000
17736   11   1   -22.681000   -23.302000  14.3000
17737   11   1   -22.663000   -23.286000  15.858000
17738   11   1   -22.641000   -21.846000  13.734000
17739   11   1   -72.743000   -25.21000  15.154000
17740   11   1   -72.721000   -25.197000  16.713000
17741   11   1   -70.204000   -25.224000  15.113000
17742   11   1   -70.18000   -25.212000  16.687000
17743   11   1   -70.203000   -28.177000  14.598000
17744   11   1   -70.163000   -28.16000  17.256000
17745   11   1   -71.452000   -25.943000  17.254000
17746   11   1   -71.452000   -27.424000  15.161000
17747   11   1   -71.429000   -27.411000  16.718000
17748   11   1   -71.492000   -25.965000  14.596000
17749   11   1   -67.631000   -25.232000  15.082000
17750   11   1   -67.608000   -25.221000  16.647000
17751   11   1   -67.636000   -28.181000  14.581000
17752   11   1   -67.596000   -28.169000  17.198000
17753   11   1   -68.884000   -25.947000  17.198000
17754   11   1   -68.914000   -27.44000  15.115000
17755   11   1   -68.89000   -27.43000  16.691000
17756   11   1   -68.922000   -25.967000  14.582000
17757   11   1   -65.059000   -25.251000  15.045000
17758   11   1   -65.036000   -25.241000  16.609000
17759   11   1   -65.067000   -28.202000  14.547000
17760   11   1   -65.03000   -28.191000  17.159000
17761   11   1   -66.314000   -25.963000  17.159000
17762   11   1   -66.342000   -27.453000  15.084000
17763   11   1   -66.32000   -27.445000  16.649000
17764   11   1   -66.353000   -25.98000  14.548000
17765   11   1   -62.487000   -25.278000  15.005000
17766   11   1   -62.464000   -25.268000  16.57000
17767   11   1   -62.499000   -28.232000  14.511000
17768   11   1   -62.463000   -28.221000  17.124000
17769   11   1   -63.744000   -25.988000  17.122000
17770   11   1   -63.773000   -27.477000  15.047000
17771   11   1   -63.751000   -27.469000  16.612000
17772   11   1   -63.782000   -26.004000  14.51000
17773   11   1   -59.915000   -25.308000  14.964000
17774   11   1   -59.894000   -25.297000  16.528000
17775   11   1   -59.932000   -28.267000  14.476000
17776   11   1   -59.898000   -28.253000  17.088000
17777   11   1   -61.175000   -26.016000  17.083000
17778   11   1   -61.204000   -27.509000  15.01000
17779   11   1   -61.184000   -27.5000  16.575000
17780   11   1   -61.211000   -26.035000  14.47000
17781   11   1   -57.365000   -28.304000  14.441000
17782   11   1   -57.33000   -28.285000  17.05000
17783   11   1   -58.604000   -26.047000  17.039000
17784   11   1   -58.637000   -27.542000  14.972000
17785   11   1   -58.616000   -27.532000  16.537000
17786   11   1   -58.641000   -26.067000  14.431000
17787   11   1   -36.816000   -28.416000  14.066000
17788   11   1   -36.767000   -28.38000  16.677000
17789   11   1   -34.231000   -25.452000  14.478000
17790   11   1   -34.203000   -25.433000  16.042000
17791   11   1   -34.25000   -28.409000  14.019000
17792   11   1   -34.204000   -28.374000  16.631000
17793   11   1   -35.48000   -26.161000  16.601000
17794   11   1   -35.524000   -27.667000  14.55000
17795   11   1   -35.494000   -27.647000  16.113000
17796   11   1   -35.527000   -26.198000  13.992000
17797   11   1   -31.662000   -25.456000  14.443000
17798   11   1   -31.636000   -25.435000  16.008000
17799   11   1   -31.682000   -28.406000  13.977000
17800   11   1   -31.641000   -28.373000  16.59000
17801   11   1   -32.915000   -26.161000  16.564000
17802   11   1   -32.956000   -27.665000  14.507000
17803   11   1   -32.929000   -27.645000  16.071000
17804   11   1   -32.957000   -26.198000  13.952000
17805   11   1   -29.091000   -25.465000  14.41000
17806   11   1   -29.069000   -25.445000  15.974000
17807   11   1   -29.115000   -28.413000  13.936000
17808   11   1   -29.078000   -28.379000  16.554000
17809   11   1   -30.35000   -26.167000  16.529000
17810   11   1   -30.387000   -27.668000  14.469000
17811   11   1   -30.364000   -27.648000  16.034000
17812   11   1   -30.388000   -26.203000  13.917000
17813   11   1   -26.522000   -25.485000  14.372000
17814   11   1   -26.501000   -25.466000  15.947000
17815   11   1   -26.549000   -28.434000  13.88000
17816   11   1   -26.513000   -28.398000  16.538000
17817   11   1   -27.785000   -26.18000  16.498000
17818   11   1   -27.818000   -27.683000  14.427000
17819   11   1   -27.797000   -27.662000  16.002000
17820   11   1   -27.82000   -26.215000  13.879000
17821   11   1   -23.985000   -25.497000  14.347000
17822   11   1   -23.964000   -25.479000  15.904000
17823   11   1   -25.22000   -26.205000  16.485000
17824   11   1   -25.282000   -27.691000  14.401000
17825   11   1   -25.261000   -27.671000  15.959000
17826   11   1   -25.254000   -26.241000  13.825000
17827   11   1   -70.17000   -29.633000  15.158000
17828   11   1   -70.145000   -29.624000  16.715000
17829   11   1   -67.632000   -29.654000  15.11000
17830   11   1   -67.608000   -29.649000  16.685000
17831   11   1   -67.653000   -32.59000  14.566000
17832   11   1   -67.617000   -32.596000  17.226000
17833   11   1   -68.884000   -30.377000  17.249000
17834   11   1   -68.897000   -31.841000  15.141000
17835   11   1   -68.874000   -31.839000  16.699000
17836   11   1   -68.924000   -30.385000  14.589000
17837   11   1   -65.061000   -29.675000  15.079000
17838   11   1   -65.041000   -29.671000  16.643000
17839   11   1   -65.084000   -32.611000  14.551000
17840   11   1   -65.054000   -32.624000  17.17000
17841   11   1   -66.319000   -30.394000  17.19000
17842   11   1   -66.359000   -31.87000  15.093000
17843   11   1   -66.337000   -31.871000  16.668000
17844   11   1   -66.356000   -30.397000  14.572000
17845   11   1   -62.494000   -29.706000  15.046000
17846   11   1   -62.475000   -29.703000  16.61000
17847   11   1   -62.518000   -32.655000  14.524000
17848   11   1   -62.493000   -32.666000  17.137000
17849   11   1   -63.755000   -30.425000  17.153000
17850   11   1   -63.789000   -31.9000  15.065000
17851   11   1   -63.772000   -31.903000  16.63000
17852   11   1   -63.788000   -30.425000  14.54000
17853   11   1   -59.929000   -29.744000  15.012000
17854   11   1   -59.911000   -29.739000  16.578000
17855   11   1   -59.955000   -32.702000  14.5000
17856   11   1   -59.934000   -32.709000  17.111000
17857   11   1   -61.193000   -30.461000  17.121000
17858   11   1   -61.223000   -31.942000  15.037000
17859   11   1   -61.209000   -31.944000  16.601000
17860   11   1   -61.223000   -30.464000  14.508000
17861   11   1   -57.363000   -29.781000  14.981000
17862   11   1   -57.345000   -29.773000  16.545000
17863   11   1   -57.39000   -32.744000  14.476000
17864   11   1   -57.369000   -32.742000  17.087000
17865   11   1   -58.629000   -30.497000  17.09000
17866   11   1   -58.66000   -31.984000  15.009000
17867   11   1   -58.647000   -31.983000  16.575000
17868   11   1   -58.658000   -30.505000  14.478000
17869   11   1   -54.797000   -29.816000  14.95000
17870   11   1   -54.778000   -29.805000  16.513000
17871   11   1   -54.822000   -32.779000  14.452000
17872   11   1   -54.796000   -32.767000  17.062000
17873   11   1   -56.062000   -30.527000  17.06000
17874   11   1   -56.095000   -32.02000  14.984000
17875   11   1   -56.08000   -32.015000  16.549000
17876   11   1   -56.092000   -30.542000  14.448000
17877   11   1   -52.226000   -29.848000  14.92000
17878   11   1   -52.205000   -29.833000  16.481000
17879   11   1   -52.249000   -32.807000  14.423000
17880   11   1   -52.218000   -32.788000  17.034000
17881   11   1   -53.491000   -30.555000  17.028000
17882   11   1   -53.525000   -32.051000  14.956000
17883   11   1   -53.507000   -32.041000  16.52000
17884   11   1   -53.524000   -30.576000  14.42000
17885   11   1   -49.654000   -29.874000  14.885000
17886   11   1   -49.63000   -29.856000  16.443000
17887   11   1   -49.673000   -32.829000  14.39000
17888   11   1   -49.637000   -32.807000  17.0000
17889   11   1   -50.914000   -30.578000  16.994000
17890   11   1   -50.95000   -32.077000  14.924000
17891   11   1   -50.929000   -32.064000  16.489000
17892   11   1   -50.952000   -30.604000  14.388000
17893   11   1   -47.082000   -29.891000  14.84000
17894   11   1   -47.055000   -29.872000  16.4000
17895   11   1   -47.098000   -32.847000  14.35000
17896   11   1   -47.055000   -32.821000  16.96000
17897   11   1   -48.337000   -30.595000  16.955000
17898   11   1   -48.374000   -32.098000  14.887000
17899   11   1   -48.351000   -32.083000  16.451000
17900   11   1   -48.38000   -30.626000  14.348000
17901   11   1   -44.51000   -29.902000  14.79000
17902   11   1   -44.48000   -29.881000  16.35000
17903   11   1   -44.522000   -32.86000  14.303000
17904   11   1   -44.473000   -32.832000  16.913000
17905   11   1   -45.758000   -30.609000  16.909000
17906   11   1   -45.799000   -32.112000  14.843000
17907   11   1   -45.771000   -32.096000  16.407000
17908   11   1   -45.807000   -30.641000  14.302000
17909   11   1   -41.939000   -29.904000  14.732000
17910   11   1   -41.909000   -29.883000  16.293000
17911   11   1   -41.95000   -32.865000  14.25000
17912   11   1   -41.896000   -32.838000  16.861000
17913   11   1   -43.185000   -30.615000  16.856000
17914   11   1   -43.225000   -32.12000  14.791000
17915   11   1   -43.194000   -32.103000  16.356000
17916   11   1   -43.236000   -30.648000  14.249000
17917   11   1   -39.373000   -29.897000  14.674000
17918   11   1   -39.341000   -29.877000  16.237000
17919   11   1   -39.381000   -32.859000  14.195000
17920   11   1   -39.325000   -32.837000  16.806000
17921   11   1   -40.613000   -30.614000  16.801000
17922   11   1   -40.655000   -32.119000  14.737000
17923   11   1   -40.623000   -32.103000  16.301000
17924   11   1   -40.666000   -30.646000  14.191000
17925   11   1   -36.809000   -29.886000  14.619000
17926   11   1   -36.779000   -29.868000  16.183000
17927   11   1   -36.817000   -32.846000  14.14000
17928   11   1   -36.762000   -32.827000  16.752000
17929   11   1   -38.048000   -30.607000  16.746000
17930   11   1   -38.09000   -32.11000  14.682000
17931   11   1   -38.056000   -32.096000  16.246000
17932   11   1   -38.102000   -30.637000  14.135000
17933   11   1   -34.245000   -29.876000  14.571000
17934   11   1   -34.216000   -29.859000  16.135000
17935   11   1   -34.254000   -32.824000  14.088000
17936   11   1   -34.202000   -32.808000  16.7000
17937   11   1   -35.486000   -30.596000  16.695000
17938   11   1   -35.527000   -32.094000  14.63000
17939   11   1   -35.495000   -32.081000  16.193000
17940   11   1   -35.538000   -30.624000  14.083000
17941   11   1   -31.679000   -29.872000  14.527000
17942   11   1   -31.652000   -29.853000  16.092000
17943   11   1   -31.688000   -32.807000  14.036000
17944   11   1   -31.642000   -32.791000  16.656000
17945   11   1   -32.926000   -30.585000  16.649000
17946   11   1   -32.963000   -32.078000  14.58000
17947   11   1   -32.934000   -32.067000  16.144000
17948   11   1   -32.972000   -30.612000  14.036000
17949   11   1   -29.109000   -29.878000  14.482000
17950   11   1   -29.087000   -29.86000  16.056000
17951   11   1   -29.12000   -32.811000  13.974000
17952   11   1   -29.078000   -32.788000  16.635000
17953   11   1   -30.364000   -30.582000  16.609000
17954   11   1   -30.393000   -32.075000  14.53000
17955   11   1   -30.368000   -32.06000  16.106000
17956   11   1   -30.405000   -30.61000  13.991000
17957   11   1   -26.572000   -29.883000  14.453000
17958   11   1   -26.55000   -29.863000  16.011000
17959   11   1   -27.8000   -30.593000  16.591000
17960   11   1   -27.856000   -32.072000  14.5000
17961   11   1   -27.833000   -32.054000  16.058000
17962   11   1   -27.838000   -30.625000  13.931000
17963   11   1   -67.634000   -34.046000  15.105000
17964   11   1   -67.615000   -34.05000  16.663000
17965   11   1   -65.094000   -34.086000  15.061000
17966   11   1   -65.078000   -34.096000  16.636000
17967   11   1   -65.14000   -36.984000  14.46000
17968   11   1   -65.131000   -37.036000  17.121000
17969   11   1   -66.364000   -34.815000  17.185000
17970   11   1   -66.382000   -36.242000  15.047000
17971   11   1   -66.372000   -36.259000  16.605000
17972   11   1   -66.392000   -34.789000  14.524000
17973   11   1   -62.525000   -34.134000  15.04000
17974   11   1   -62.517000   -34.147000  16.605000
17975   11   1   -62.583000   -37.083000  14.468000
17976   11   1   -62.584000   -37.135000  17.082000
17977   11   1   -63.803000   -34.865000  17.134000
17978   11   1   -63.843000   -36.311000  15.013000
17979   11   1   -63.838000   -36.335000  16.587000
17980   11   1   -63.821000   -34.832000  14.516000
17981   11   1   -59.967000   -34.185000  15.02000
17982   11   1   -59.958000   -34.195000  16.585000
17983   11   1   -60.02000   -37.149000  14.469000
17984   11   1   -60.023000   -37.188000  17.076000
17985   11   1   -61.248000   -34.924000  17.111000
17986   11   1   -61.285000   -36.386000  15.005000
17987   11   1   -61.286000   -36.407000  16.57000
17988   11   1   -61.261000   -34.897000  14.501000
17989   11   1   -57.4000   -34.226000  15.002000
17990   11   1   -57.392000   -34.229000  16.566000
17991   11   1   -57.443000   -37.186000  14.469000
17992   11   1   -57.44000   -37.204000  17.075000
17993   11   1   -58.685000   -34.961000  17.095000
17994   11   1   -58.719000   -36.436000  14.999000
17995   11   1   -58.719000   -36.448000  16.563000
17996   11   1   -58.696000   -34.947000  14.486000
17997   11   1   -54.828000   -34.257000  14.981000
17998   11   1   -54.818000   -34.253000  16.546000
17999   11   1   -54.861000   -37.214000  14.462000
18000   11   1   -54.85000   -37.217000  17.07000
18001   11   1   -56.112000   -34.984000  17.08000
18002   11   1   -56.143000   -36.465000  14.99000
18003   11   1   -56.138000   -36.469000  16.555000
18004   11   1   -56.127000   -34.981000  14.471000
18005   11   1   -52.25000   -34.282000  14.957000
18006   11   1   -52.236000   -34.274000  16.522000
18007   11   1   -52.277000   -37.238000  14.447000
18008   11   1   -52.256000   -37.23000  17.056000
18009   11   1   -53.529000   -35.001000  17.059000
18010   11   1   -53.56000   -36.488000  14.977000
18011   11   1   -53.55000   -36.486000  16.541000
18012   11   1   -53.551000   -35.01000  14.45000
18013   11   1   -49.672000   -34.304000  14.926000
18014   11   1   -49.652000   -34.292000  16.491000
18015   11   1   -49.692000   -37.258000  14.422000
18016   11   1   -49.662000   -37.243000  17.032000
18017   11   1   -50.942000   -35.017000  17.034000
18018   11   1   -50.975000   -36.51000  14.955000
18019   11   1   -50.96000   -36.502000  16.52000
18020   11   1   -50.972000   -35.033000  14.425000
18021   11   1   -47.091000   -34.321000  14.888000
18022   11   1   -47.067000   -34.307000  16.452000
18023   11   1   -47.108000   -37.276000  14.388000
18024   11   1   -47.068000   -37.258000  16.997000
18025   11   1   -48.355000   -35.032000  17.001000
18026   11   1   -48.391000   -36.529000  14.924000
18027   11   1   -48.369000   -36.519000  16.489000
18028   11   1   -48.393000   -35.053000  14.392000
18029   11   1   -44.513000   -34.333000  14.843000
18030   11   1   -44.483000   -34.319000  16.406000
18031   11   1   -44.523000   -37.29000  14.343000
18032   11   1   -44.474000   -37.272000  16.952000
18033   11   1   -45.767000   -35.047000  16.959000
18034   11   1   -45.805000   -36.544000  14.884000
18035   11   1   -45.778000   -36.532000  16.449000
18036   11   1   -45.813000   -35.068000  14.35000
18037   11   1   -41.936000   -34.339000  14.79000
18038   11   1   -41.903000   -34.326000  16.354000
18039   11   1   -41.939000   -37.299000  14.289000
18040   11   1   -41.881000   -37.284000  16.897000
18041   11   1   -43.181000   -35.058000  16.91000
18042   11   1   -43.22000   -36.555000  14.835000
18043   11   1   -43.188000   -36.545000  16.399000
18044   11   1   -43.235000   -35.078000  14.301000
18045   11   1   -39.365000   -34.336000  14.734000
18046   11   1   -39.33000   -34.325000  16.299000
18047   11   1   -39.358000   -37.3000  14.228000
18048   11   1   -39.291000   -37.295000  16.835000
18049   11   1   -40.601000   -35.065000  16.855000
18050   11   1   -40.638000   -36.56000  14.778000
18051   11   1   -40.602000   -36.554000  16.341000
18052   11   1   -40.659000   -35.082000  14.246000
18053   11   1   -36.8000   -34.32000  14.677000
18054   11   1   -36.763000   -34.314000  16.242000
18055   11   1   -36.783000   -37.282000  14.16000
18056   11   1   -36.711000   -37.292000  16.768000
18057   11   1   -38.027000   -35.063000  16.797000
18058   11   1   -38.063000   -36.554000  14.717000
18059   11   1   -38.022000   -36.553000  16.28000
18060   11   1   -38.09000   -35.073000  14.189000
18061   11   1   -34.238000   -34.293000  14.623000
18062   11   1   -34.204000   -34.29000  16.187000
18063   11   1   -34.221000   -37.239000  14.089000
18064   11   1   -34.15000   -37.261000  16.707000
18065   11   1   -35.464000   -35.047000  16.74000
18066   11   1   -35.498000   -36.528000  14.653000
18067   11   1   -35.455000   -36.532000  16.217000
18068   11   1   -35.525000   -35.048000  14.129000
18069   11   1   -31.672000   -34.272000  14.567000
18070   11   1   -31.64000   -34.265000  16.142000
18071   11   1   -31.651000   -37.166000  14.008000
18072   11   1   -31.587000   -37.188000  16.675000
18073   11   1   -32.907000   -35.012000  16.69000
18074   11   1   -32.936000   -36.481000  14.588000
18075   11   1   -32.896000   -36.487000  16.164000
18076   11   1   -32.964000   -35.011000  14.071000
18077   11   1   -29.13000   -34.256000  14.534000
18078   11   1   -29.104000   -34.245000  16.093000
18079   11   1   -30.344000   -34.985000  16.665000
18080   11   1   -30.393000   -36.432000  14.548000
18081   11   1   -30.358000   -36.432000  16.107000
18082   11   1   -30.394000   -34.99000  14.002000
18083   11   1   -65.167000   -38.433000  14.966000
18084   11   1   -65.173000   -38.466000  16.519000
18085   11   1   -62.635000   -38.58000  14.949000
18086   11   1   -62.647000   -38.616000  16.52000
18087   11   1   -63.974000   -39.318000  17.02000
18088   11   1   -63.954000   -39.234000  14.381000
18089   11   1   -60.061000   -38.647000  14.964000
18090   11   1   -60.071000   -38.675000  16.53000
18091   11   1   -61.395000   -39.421000  17.023000
18092   11   1   -61.374000   -39.354000  14.413000
18093   11   1   -57.469000   -38.675000  14.976000
18094   11   1   -57.473000   -38.689000  16.543000
18095   11   1   -58.787000   -39.429000  17.049000
18096   11   1   -58.777000   -39.391000  14.437000
18097   11   1   -54.877000   -38.697000  14.98000
18098   11   1   -54.873000   -38.701000  16.546000
18099   11   1   -56.181000   -39.433000  17.065000
18100   11   1   -56.182000   -39.42000  14.45000
18101   11   1   -52.285000   -38.718000  14.971000
18102   11   1   -52.275000   -38.715000  16.538000
18103   11   1   -53.578000   -39.443000  17.069000
18104   11   1   -53.59000   -39.444000  14.452000
18105   11   1   -49.695000   -38.737000  14.951000
18106   11   1   -49.677000   -38.729000  16.518000
18107   11   1   -50.976000   -39.454000  17.057000
18108   11   1   -51.0000   -39.465000  14.44000
18109   11   1   -47.104000   -38.754000  14.919000
18110   11   1   -47.08000   -38.745000  16.485000
18111   11   1   -48.376000   -39.469000  17.032000
18112   11   1   -48.41000   -39.484000  14.415000
18113   11   1   -44.512000   -38.768000  14.873000
18114   11   1   -44.483000   -38.758000  16.44000
18115   11   1   -45.775000   -39.483000  16.994000
18116   11   1   -45.82000   -39.5000  14.376000
18117   11   1   -41.921000   -38.779000  14.816000
18118   11   1   -41.884000   -38.773000  16.382000
18119   11   1   -43.173000   -39.498000  16.941000
18120   11   1   -43.228000   -39.513000  14.325000
18121   11   1   -39.327000   -38.785000  14.749000
18122   11   1   -39.284000   -38.785000  16.314000
18123   11   1   -40.568000   -39.515000  16.875000
18124   11   1   -40.635000   -39.521000  14.261000
18125   11   1   -36.735000   -38.772000  14.67000
18126   11   1   -36.686000   -38.782000  16.24000
18127   11   1   -37.963000   -39.53000  16.796000
18128   11   1   -38.039000   -39.518000  14.184000
18129   11   1   -34.167000   -38.727000  14.592000
18130   11   1   -34.115000   -38.746000  16.165000
18131   11   1   -35.355000   -39.525000  16.721000
18132   11   1   -35.441000   -39.487000  14.085000
18133   11   1   -31.613000   -38.605000  14.54000
18134   11   1   -31.568000   -38.622000  16.095000
18135   11   1   -32.776000   -39.396000  16.674000
18136   11   1   -32.863000   -39.342000  13.979000
18137   11   3   -60.131000   -41.568000  14.336000
18138   11   3   -60.144000   -41.629000  17.022000
18139   11   3   -61.445000   -40.867000  14.879000
18140   11   3   -61.461000   -40.914000  16.456000
18141   11   3   -57.515000   -41.596000  14.38000
18142   11   3   -57.513000   -41.623000  17.077000
18143   11   3   -58.814000   -40.886000  14.927000
18144   11   3   -58.818000   -40.912000  16.509000
18145   11   3   -54.912000   -41.622000  14.404000
18146   11   3   -54.899000   -41.629000  17.104000
18147   11   3   -56.204000   -40.909000  14.957000
18148   11   3   -56.201000   -40.919000  16.539000
18149   11   3   -52.314000   -41.645000  14.41000
18150   11   3   -52.291000   -41.639000  17.111000
18151   11   3   -53.603000   -40.929000  14.968000
18152   11   3   -53.594000   -40.931000  16.552000
18153   11   3   -49.72000   -41.666000  14.398000
18154   11   3   -49.687000   -41.651000  17.1000
18155   11   3   -51.006000   -40.949000  14.963000
18156   11   3   -50.991000   -40.943000  16.546000
18157   11   3   -47.125000   -41.684000  14.37000
18158   11   3   -47.083000   -41.665000  17.071000
18159   11   3   -48.411000   -40.967000  14.941000
18160   11   3   -48.389000   -40.958000  16.524000
18161   11   3   -44.53000   -41.699000  14.325000
18162   11   3   -44.479000   -41.681000  17.025000
18163   11   3   -45.815000   -40.983000  14.903000
18164   11   3   -45.788000   -40.973000  16.486000
18165   11   3   -41.929000   -41.709000  14.261000
18166   11   3   -41.871000   -41.697000  16.959000
18167   11   3   -43.216000   -40.997000  14.849000
18168   11   3   -43.184000   -40.989000  16.432000
18169   11   3   -39.321000   -41.714000  14.18000
18170   11   3   -39.255000   -41.717000  16.874000
18171   11   3   -40.613000   -41.007000  14.779000
18172   11   3   -40.576000   -41.004000  16.36000
18173   11   3   -36.695000   -41.707000  14.066000
18174   11   3   -36.617000   -41.74000  16.776000
18175   11   3   -37.999000   -41.014000  14.687000
18176   11   3   -37.955000   -41.024000  16.274000
18177   11   3   -35.412000   -40.966000  14.594000
18178   11   3   -35.357000   -40.995000  16.157000
18179   11   3   -62.843000   -41.632000  16.917000
18180   11   3   -64.059000   -40.724000  14.827000
18181   11   3   -64.083000   -40.78000  16.41000
18182   11   3   -62.803000   -41.524000  14.281000
18183   11   3   -32.668000   -40.964000  16.614000
18184   11   3   -33.978000   -41.689000  14.499000
18185   11   3   -33.921000   -41.732000  16.062000
18186   11   3   -32.768000   -40.89000  13.91000
18187   11   3   -32.66000   13.506000  17.028000
18188   11   3   -33.892000   14.424000  14.944000
18189   11   3   -33.907000   14.343000  16.526000
18190   11   3   -32.622000   13.659000  14.386000
18191   11   3   -62.72000   14.584000  17.445000
18192   11   3   -64.019000   13.879000  15.327000
18193   11   3   -63.964000   13.806000  16.887000
18194   11   3   -62.814000   14.707000  14.754000
18195   11   4   -80.346000   -12.057000  14.977000
18196   11   4   -80.334000   -12.061000  16.887000
18197   11   4   -80.398000   -14.474000  14.759000
18198   11   4   -80.366000   -14.485000  17.083000
18199   11   4   -16.323000   -12.605000  14.121000
18200   11   4   -16.322000   -12.607000  16.024000
18201   11   4   -16.355000   -15.03000  13.895000
18202   11   4   -16.381000   -15.041000  16.221000
18203   11   2   -78.886000   -16.862000  17.006000
18204   11   2   -78.914000   -16.87000  14.827000
18205   11   4   -60.133000   -42.615000  14.607000
18206   11   4   -60.129000   -42.664000  16.71000
18207   11   4   -62.966000   -42.548000  14.589000
18208   11   4   -62.997000   -42.612000  16.487000
18209   11   4   -64.958000   -41.146000  14.398000
18210   11   4   -65.003000   -41.249000  16.733000
18211   11   4   -31.835000   -41.321000  14.246000
18212   11   4   -31.775000   -41.378000  16.168000
18213   11   4   -33.889000   -42.667000  14.045000
18214   11   4   -33.805000   -42.751000  16.405000
18215   11   4   -31.735000   14.098000  14.824000
18216   11   4   -62.944000   15.68000  15.21000
18217   11   4   -62.878000   15.608000  17.131000
18218   11   4   -64.961000   14.307000  15.01000
18219   11   4   -64.863000   14.188000  17.354000
18220   11   2   -78.845000   -9.783000  14.825000
18221   11   2   -78.828000   -9.782000  16.929000
18222   11   2   -72.283000   1.102000  14.742000
18223   11   2   -72.261000   1.097000  16.859000
18224   11   2   -73.579000   -1.091000  14.74000
18225   11   2   -73.558000   -1.092000  16.857000
18226   11   2   -77.512000   -7.65000  14.787000
18227   11   2   -77.493000   -7.645000  16.903000
18228   11   2   -69.723000   5.485000  14.781000
18229   11   2   -69.69000   5.467000  16.899000
18230   11   2   -70.999000   3.294000  14.757000
18231   11   2   -70.971000   3.284000  16.873000
18232   11   2   -74.88000   -3.282000  14.745000
18233   11   2   -74.86000   -3.278000  16.864000
18234   11   2   -76.19000   -5.469000  14.761000
18235   11   2   -76.171000   -5.465000  16.879000
18236   11   2   -67.222000   9.853000  14.885000
18237   11   2   -67.166000   9.815000  16.999000
18238   11   2   -68.46000   7.673000  14.824000
18239   11   2   -68.418000   7.647000  16.94000
18240   11   2   -21.678000   -3.587000  13.9000
18241   11   2   -21.646000   -3.592000  16.018000
18242   11   2   -19.069000   -8.033000  13.902000
18243   11   2   -19.046000   -8.037000  16.017000
18244   11   2   -17.755000   -10.232000  13.94000
18245   11   2   -17.745000   -10.238000  16.045000
18246   11   2   -20.377000   -5.809000  13.89000
18247   11   2   -20.349000   -5.812000  16.009000
18248   11   2   -24.268000   0.853000  13.972000
18249   11   2   -24.233000   0.837000  16.09000
18250   11   2   -22.976000   -1.366000  13.928000
18251   11   2   -22.94000   -1.374000  16.046000
18252   11   2   -26.834000   5.276000  14.113000
18253   11   2   -26.808000   5.245000  16.23000
18254   11   2   -25.555000   3.066000  14.033000
18255   11   2   -25.522000   3.045000  16.151000
18256   11   2   -29.357000   9.667000  14.335000
18257   11   2   -29.357000   9.614000  16.452000
18258   11   2   -28.103000   7.477000  14.212000
18259   11   2   -28.088000   7.437000  16.329000
18260   11   4   -60.036000   15.703000  14.882000
18261   11   4   -59.972000   15.637000  17.072000
18262   11   4   -57.375000   15.652000  14.756000
18263   11   4   -57.315000   15.606000  16.939000
18264   11   4   -54.753000   15.611000  14.651000
18265   11   4   -54.698000   15.577000  16.837000
18266   11   4   -52.144000   15.577000  14.57000
18267   11   4   -52.096000   15.55000  16.757000
18268   11   4   -49.541000   15.548000  14.512000
18269   11   4   -49.503000   15.524000  16.699000
18270   11   4   -46.942000   15.523000  14.476000
18271   11   4   -46.913000   15.498000  16.664000
18272   11   4   -44.346000   15.504000  14.464000
18273   11   4   -44.326000   15.472000  16.652000
18274   11   4   -41.748000   15.488000  14.477000
18275   11   4   -41.74000   15.445000  16.666000
18276   11   4   -39.148000   15.476000  14.519000
18277   11   4   -39.148000   15.416000  16.705000
18278   11   4   -36.563000   15.47000  14.59000
18279   11   4   -36.57000   15.384000  16.772000
18280   11   2   -77.574000   -19.079000  14.826000
18281   11   2   -77.547000   -19.065000  17.012000
18282   11   2   -72.352000   -27.945000  14.862000
18283   11   2   -72.318000   -27.927000  17.056000
18284   11   2   -73.611000   -25.714000  17.048000
18285   11   2   -73.641000   -25.735000  14.856000
18286   11   2   -74.941000   -23.521000  14.845000
18287   11   2   -74.911000   -23.501000  17.035000
18288   11   2   -76.224000   -21.285000  17.022000
18289   11   2   -76.25000   -21.301000  14.833000
18290   11   2   -69.799000   -32.356000  14.839000
18291   11   2   -69.768000   -32.35000  17.033000
18292   11   2   -71.036000   -30.138000  17.051000
18293   11   2   -71.071000   -30.152000  14.859000
18294   11   2   -19.166000   -19.45000  13.925000
18295   11   2   -19.151000   -19.437000  16.116000
18296   11   2   -17.845000   -17.301000  16.116000
18297   11   2   -17.843000   -17.305000  13.928000
18298   11   2   -26.968000   -32.598000  14.177000
18299   11   2   -26.935000   -32.57000  16.371000
18300   11   2   -23.07000   -26.0000  16.218000
18301   11   2   -23.1000   -26.029000  14.025000
18302   11   2   -21.797000   -23.835000  13.978000
18303   11   2   -21.771000   -23.811000  16.171000
18304   11   2   -20.463000   -21.623000  16.135000
18305   11   2   -20.485000   -21.64000  13.944000
18306   11   2   -25.653000   -30.379000  16.326000
18307   11   2   -25.685000   -30.411000  14.131000
18308   11   2   -24.397000   -28.222000  14.078000
18309   11   2   -24.365000   -28.19000  16.273000
18310   11   2   -66.113000   -38.844000  14.637000
18311   11   2   -67.287000   -36.742000  14.73000
18312   11   2   -67.274000   -36.763000  16.926000
18313   11   2   -68.51000   -34.561000  16.994000
18314   11   2   -68.537000   -34.556000  14.797000
18315   11   2   -66.115000   -38.896000  16.835000
18316   11   2   -30.627000   -39.061000  16.398000
18317   11   2   -30.684000   -39.026000  14.182000
18318   11   2   -29.501000   -36.942000  14.211000
18319   11   2   -29.451000   -36.938000  16.409000
18320   11   2   -28.203000   -34.758000  16.402000
18321   11   2   -28.242000   -34.778000  14.205000
18322   11   4   -57.529000   -42.64000  14.662000
18323   11   4   -57.512000   -42.662000  16.778000
18324   11   4   -54.922000   -42.664000  14.696000
18325   11   4   -54.901000   -42.671000  16.814000
18326   11   4   -52.321000   -42.685000  14.706000
18327   11   4   -52.298000   -42.682000  16.825000
18328   11   4   -49.725000   -42.705000  14.698000
18329   11   4   -49.694000   -42.694000  16.816000
18330   11   4   -47.127000   -42.723000  14.67000
18331   11   4   -47.095000   -42.709000  16.79000
18332   11   4   -44.528000   -42.738000  14.624000
18333   11   4   -44.491000   -42.725000  16.742000
18334   11   4   -41.924000   -42.749000  14.559000
18335   11   4   -41.884000   -42.741000  16.676000
18336   11   4   -39.312000   -42.755000  14.472000
18337   11   4   -39.272000   -42.759000  16.586000
18338   11   4   -36.68000   -42.749000  14.357000
18339   11   4   -36.633000   -42.777000  16.468000
18340   11   2   -30.541000   11.792000  14.488000
18341   11   2   -30.557000   11.703000  16.59000
18342   11   2   -66.063000   11.972000  14.963000
18343   11   2   -65.987000   11.906000  17.08000
18344   11   4   -33.762000   15.458000  14.653000
18345   11   4   -33.796000   15.314000  16.992000
18346   11   4   -31.746000   13.997000  16.721000
18347   11   4   -60.149000   -41.64000  18.104000
18348   11   2   -25.115000   -17.361000  17.431000
18349   11   4   -57.515000   -41.617000  18.159000
18350   11   2   -70.201000   -19.288000  18.224000
18351   11   2   -71.516000   -17.07000  18.22000
18352   11   4   -54.897000   -41.612000  18.186000
18353   11   4   -52.284000   -41.616000  18.193000
18354   11   2   -67.616000   -19.306000  18.193000
18355   11   2   -68.924000   -17.09000  18.192000
18356   11   4   -47.068000   -41.638000  18.153000
18357   11   4   -44.458000   -41.654000  18.107000
18358   11   2   -62.449000   -19.351000  18.113000
18359   11   2   -63.673000   9.306000  18.261000
18360   11   4   -39.229000   -41.7000  17.956000
18361   11   2   -66.348000   -34.823000  18.267000
18362   11   4   -36.588000   -41.737000  17.858000
18363   11   2   -32.872000   -21.727000  17.553000
18364   11   2   -66.332000   -17.111000  18.161000
18365   11   2   -31.496000   -10.711000  17.498000
18366   11   2   -32.776000   -8.492000  17.531000
18367   11   2   -22.546000   -17.386000  17.417000
18368   11   2   -28.923000   -10.728000  17.458000
18369   11   2   -30.205000   -8.512000  17.486000
18370   11   2   -26.347000   -10.741000  17.42000
18371   11   2   -27.632000   -8.527000  17.44000
18372   11   2   -43.078000   9.261000  17.828000
18373   11   2   -23.77000   -10.756000  17.392000
18374   11   2   -25.063000   -8.539000  17.402000
18375   11   2   -48.339000   -35.022000  18.083000
18376   11   2   -47.052000   -37.244000  18.079000
18377   11   2   -61.112000   9.366000  18.194000
18378   11   4   -32.629000   -40.991000  17.695000
18379   11   2   -21.194000   -10.772000  17.383000
18380   11   2   -22.494000   -8.549000  17.378000
18381   11   2   -36.748000   -28.366000  17.759000
18382   11   2   -30.304000   -21.736000  17.53000
18383   11   2   -18.637000   -10.791000  17.424000
18384   11   2   -19.948000   -8.565000  17.403000
18385   11   2   -75.253000   -6.008000  18.249000
18386   11   2   -72.711000   -6.035000  18.185000
18387   11   2   -73.942000   -3.82000  18.234000
18388   11   4   -49.676000   -41.625000  18.182000
18389   11   4   -32.68000   13.438000  18.108000
18390   11   2   -70.146000   -6.061000  18.159000
18391   11   2   -71.401000   -3.842000  18.172000
18392   11   2   -52.248000   -37.22000  18.138000
18393   11   2   -31.57000   -19.525000  17.509000
18394   11   2   -67.577000   -6.078000  18.14000
18395   11   2   -68.838000   -3.865000  18.148000
18396   11   2   -29.001000   -19.538000  17.487000
18397   11   2   -65.005000   -6.088000  18.125000
18398   11   2   -66.27000   -3.877000  18.129000
18399   11   2   -44.453000   -37.258000  18.034000
18400   11   2   -58.549000   9.392000  18.127000
18401   11   2   -26.431000   -19.557000  17.463000
18402   11   2   -62.431000   -6.093000  18.11000
18403   11   2   -63.7000   -3.882000  18.113000
18404   11   2   -45.749000   -35.034000  18.041000
18405   11   2   -62.447000   -28.215000  18.206000
18406   11   2   -65.032000   -19.327000  18.158000
18407   11   2   -27.739000   -21.751000  17.503000
18408   11   2   -23.864000   -19.581000  17.442000
18409   11   2   -59.855000   -6.099000  18.084000
18410   11   2   -61.128000   -3.885000  18.091000
18411   11   2   -21.301000   -19.619000  17.444000
18412   11   2   -58.555000   -3.889000  18.056000
18413   11   2   -72.732000   -23.713000  18.327000
18414   11   2   -19.983000   -17.43000  17.428000
18415   11   2   -70.162000   -23.714000  18.274000
18416   11   2   -71.468000   -21.494000  18.265000
18417   11   4   -41.846000   -41.673000  18.041000
18418   11   2   -67.59000   -23.728000  18.237000
18419   11   2   -43.16000   -35.046000  17.992000
18420   11   2   -25.173000   -21.774000  17.479000
18421   11   2   -63.744000   -17.132000  18.125000
18422   11   2   -66.314000   -21.526000  18.196000
18423   11   2   -61.156000   -21.575000  18.109000
18424   11   2   -34.063000   -6.275000  17.566000
18425   11   2   -35.354000   -4.057000  17.595000
18426   11   2   -32.808000   9.074000  17.807000
18427   11   2   -31.49000   -6.296000  17.518000
18428   11   2   -32.783000   -4.079000  17.552000
18429   11   2   -39.266000   -37.288000  17.917000
18430   11   2   -53.39000   9.371000  17.992000
18431   11   2   -28.921000   -6.313000  17.467000
18432   11   2   -30.212000   -4.099000  17.501000
18433   11   2   -40.578000   -35.056000  17.937000
18434   11   2   -29.067000   -28.362000  17.636000
18435   11   2   -26.353000   -6.324000  17.422000
18436   11   2   -27.643000   -4.111000  17.451000
18437   11   2   -23.787000   -6.33000  17.387000
18438   11   2   -25.079000   -4.116000  17.409000
18439   11   2   -21.244000   -6.342000  17.397000
18440   11   2   -22.538000   -4.125000  17.409000
18441   11   2   -68.893000   -21.506000  18.23000
18442   11   2   -72.638000   -1.632000  18.227000
18443   11   2   -41.858000   -37.272000  17.979000
18444   11   2   -70.098000   -1.651000  18.166000
18445   11   2   -71.34000   0.553000  18.228000
18446   11   2   -67.534000   -1.669000  18.141000
18447   11   2   -68.8000   0.539000  18.167000
18448   11   2   -36.686000   -37.292000  17.85000
18449   11   2   -50.809000   9.346000  17.935000
18450   11   2   -64.968000   -1.676000  18.12000
18451   11   2   -66.237000   0.528000  18.139000
18452   11   2   -38.004000   -35.058000  17.879000
18453   11   2   -26.505000   -28.379000  17.62000
18454   11   2   -31.605000   -23.938000  17.583000
18455   11   2   -62.398000   -1.676000  18.097000
18456   11   2   -63.669000   0.527000  18.112000
18457   11   2   -71.431000   -25.93000  18.336000
18458   11   2   -29.04000   -23.948000  17.554000
18459   11   2   -59.828000   -1.675000  18.068000
18460   11   2   -61.099000   0.532000  18.081000
18461   11   2   -65.017000   -23.75000  18.2000
18462   11   2   -26.477000   -23.965000  17.526000
18463   11   2   -57.253000   -1.677000  18.023000
18464   11   2   -58.529000   0.534000  18.041000
18465   11   2   -23.915000   -23.997000  17.515000
18466   11   2   -55.957000   0.531000  17.989000
18467   11   2   -22.61000   -21.808000  17.473000
18468   11   2   -53.382000   0.514000  17.928000
18469   11   2   -34.186000   -28.358000  17.713000
18470   11   2   -48.23000   9.32000  17.887000
18471   11   2   -50.81000   0.498000  17.859000
18472   11   2   -25.212000   -26.186000  17.567000
18473   11   2   -27.791000   -30.576000  17.673000
18474   11   2   -48.236000   0.481000  17.795000
18475   11   2   -68.865000   -25.935000  18.28000
18476   11   2   -45.664000   0.459000  17.744000
18477   11   2   -50.93000   -35.008000  18.116000
18478   11   2   -62.442000   -23.776000  18.159000
18479   11   2   -43.092000   0.432000  17.708000
18480   11   2   -63.734000   -21.55000  18.157000
18481   11   2   -40.52000   0.403000  17.682000
18482   11   2   -36.649000   -1.838000  17.623000
18483   11   2   -37.946000   0.378000  17.652000
18484   11   2   -45.653000   9.292000  17.852000
18485   11   2   -34.078000   -1.865000  17.586000
18486   11   2   -35.373000   0.348000  17.62000
18487   11   2   -32.891000   -35.01000  17.772000
18488   11   2   -59.882000   -28.247000  18.17000
18489   11   2   -70.142000   -28.15000  18.338000
18490   11   2   -31.505000   -1.886000  17.538000
18491   11   2   -32.8000   0.322000  17.58000
18492   11   2   -66.296000   -25.954000  18.241000
18493   11   2   -68.862000   -30.371000  18.331000
18494   11   2   -28.936000   -1.902000  17.489000
18495   11   2   -30.23000   0.304000  17.534000
18496   11   2   -59.869000   -23.804000  18.112000
18497   11   2   -26.37000   -1.906000  17.444000
18498   11   2   -27.662000   0.297000  17.49000
18499   11   2   -23.828000   -1.915000  17.437000
18500   11   2   -25.119000   0.292000  17.48000
18501   11   2   -70.047000   2.738000  18.239000
18502   11   2   -67.507000   2.728000  18.175000
18503   11   2   -68.763000   4.917000  18.261000
18504   11   2   -74.042000   -21.495000  18.316000
18505   11   2   -64.941000   2.725000  18.142000
18506   11   2   -66.219000   4.915000  18.193000
18507   11   2   -30.26000   9.038000  17.821000
18508   11   2   -62.374000   2.733000  18.106000
18509   11   2   -63.653000   4.925000  18.151000
18510   11   2   -44.454000   -32.82000  17.995000
18511   11   2   -63.728000   -25.979000  18.204000
18512   11   2   -59.805000   2.742000  18.066000
18513   11   2   -61.087000   4.943000  18.106000
18514   11   2   -35.461000   -26.144000  17.683000
18515   11   2   -61.397000   -39.446000  18.105000
18516   11   2   -57.238000   2.744000  18.018000
18517   11   2   -58.523000   4.957000  18.057000
18518   11   2   -32.899000   -26.144000  17.646000
18519   11   2   -54.668000   2.737000  17.962000
18520   11   2   -55.954000   4.954000  18.002000
18521   11   2   -30.338000   -26.15000  17.611000
18522   11   2   -52.095000   2.72000  17.902000
18523   11   2   -53.383000   4.943000  17.944000
18524   11   2   -27.776000   -26.161000  17.58000
18525   11   2   -39.231000   7.004000  17.761000
18526   11   2   -49.522000   2.7000  17.843000
18527   11   2   -50.81000   4.923000  17.888000
18528   11   2   -46.951000   2.677000  17.791000
18529   11   2   -48.236000   4.9000  17.836000
18530   11   2   -67.598000   -32.596000  18.308000
18531   11   2   -61.159000   -26.009000  18.165000
18532   11   2   -44.379000   2.652000  17.748000
18533   11   2   -45.664000   4.873000  17.793000
18534   11   2   -65.035000   -32.628000  18.252000
18535   11   2   -66.298000   -30.391000  18.272000
18536   11   2   -41.807000   2.624000  17.716000
18537   11   2   -43.092000   4.845000  17.758000
18538   11   2   -62.479000   -32.673000  18.219000
18539   11   2   -63.739000   -30.423000  18.235000
18540   11   2   -39.238000   2.595000  17.688000
18541   11   2   -40.522000   4.815000  17.73000
18542   11   2   -59.923000   -32.713000  18.193000
18543   11   2   -61.178000   -30.461000  18.203000
18544   11   2   -36.666000   2.563000  17.66000
18545   11   2   -37.953000   4.78000  17.707000
18546   11   2   -57.358000   -32.74000  18.169000
18547   11   2   -58.615000   -30.492000  18.172000
18548   11   2   -55.971000   9.389000  18.058000
18549   11   2   -34.095000   2.531000  17.627000
18550   11   2   -35.385000   4.743000  17.682000
18551   11   2   -54.784000   -32.762000  18.144000
18552   11   2   -56.05000   -30.521000  18.142000
18553   11   2   -31.523000   2.508000  17.588000
18554   11   2   -32.814000   4.709000  17.653000
18555   11   2   -52.204000   -32.781000  18.116000
18556   11   2   -53.477000   -30.545000  18.11000
18557   11   2   -58.588000   -26.038000  18.121000
18558   11   2   -28.953000   2.497000  17.548000
18559   11   2   -30.241000   4.69000  17.62000
18560   11   2   -49.622000   -32.795000  18.082000
18561   11   2   -50.899000   -30.565000  18.076000
18562   11   2   -26.409000   2.493000  17.538000
18563   11   2   -27.696000   4.686000  17.614000
18564   11   2   -47.037000   -32.809000  18.042000
18565   11   2   -48.318000   -30.582000  18.037000
18566   11   4   -62.852000   -41.676000  17.999000
18567   11   2   -67.485000   7.091000  18.296000
18568   11   2   -64.939000   7.105000  18.221000
18569   11   2   -66.221000   9.259000  18.346000
18570   11   2   -45.739000   -30.595000  17.991000
18571   11   2   -62.372000   7.135000  18.169000
18572   11   2   -78.09000   -14.815000  18.293000
18573   11   4   -79.411000   -12.545000  18.311000
18574   11   2   -41.874000   -32.826000  17.943000
18575   11   2   -43.163000   -30.601000  17.938000
18576   11   2   -31.626000   -28.357000  17.672000
18577   11   2   -59.811000   7.164000  18.114000
18578   11   2   -75.45000   -14.828000  18.249000
18579   11   2   -76.758000   -12.605000  18.255000
18580   11   2   -39.303000   -32.827000  17.888000
18581   11   2   -40.592000   -30.6000  17.883000
18582   11   2   -57.245000   7.174000  18.054000
18583   11   2   -72.832000   -14.853000  18.218000
18584   11   2   -74.129000   -12.639000  18.22000
18585   11   2   -36.74000   -32.82000  17.834000
18586   11   2   -38.027000   -30.595000  17.828000
18587   11   2   -54.674000   7.166000  17.994000
18588   11   2   -70.229000   -14.875000  18.191000
18589   11   2   -71.523000   -12.664000  18.192000
18590   11   2   -34.184000   -32.802000  17.782000
18591   11   2   -35.468000   -30.584000  17.777000
18592   11   2   -52.099000   7.147000  17.935000
18593   11   2   -67.633000   -14.897000  18.165000
18594   11   2   -68.926000   -12.686000  18.167000
18595   11   2   -31.628000   -32.781000  17.738000
18596   11   2   -32.91000   -30.573000  17.731000
18597   11   2   -49.522000   7.122000  17.883000
18598   11   2   -65.041000   -14.917000  18.137000
18599   11   2   -66.336000   -12.703000  18.145000
18600   11   2   -29.066000   -32.776000  17.717000
18601   11   2   -30.352000   -30.568000  17.691000
18602   11   2   -63.789000   -34.879000  18.216000
18603   11   2   -46.947000   7.096000  17.839000
18604   11   2   -63.75000   -12.721000  18.121000
18605   11   2   -44.373000   7.067000  17.804000
18606   11   2   -62.577000   -37.158000  18.164000
18607   11   2   -57.316000   -28.278000  18.132000
18608   11   2   -41.801000   7.038000  17.779000
18609   11   2   -40.504000   9.229000  17.816000
18610   11   2   -36.665000   6.964000  17.745000
18611   11   2   -37.932000   9.19000  17.813000
18612   11   2   -49.65000   -37.23000  18.114000
18613   11   2   -34.1000   6.916000  17.728000
18614   11   2   -35.369000   9.138000  17.811000
18615   11   2   -65.122000   -37.059000  18.203000
18616   11   2   -28.98000   6.868000  17.708000
18617   11   2   -31.529000   6.881000  17.706000
18618   11   2   -53.518000   -34.995000  18.141000
18619   11   4   -61.216000   13.813000  18.397000
18620   11   2   -60.019000   -37.2000  18.158000
18621   11   2   -64.992000   11.427000  18.432000
18622   11   2   -61.24000   -34.936000  18.193000
18623   11   2   -58.678000   -34.966000  18.177000
18624   11   2   -59.88000   11.609000  18.23000
18625   11   2   -54.843000   -37.211000  18.152000
18626   11   4   -58.606000   13.844000  18.268000
18627   11   2   -62.451000   11.561000  18.329000
18628   11   4   -55.986000   13.819000  18.167000
18629   11   4   -62.669000   14.536000  18.525000
18630   11   2   -28.953000   -15.135000  17.456000
18631   11   2   -30.221000   -12.924000  17.471000
18632   11   2   -52.097000   11.571000  17.996000
18633   11   4   -53.382000   13.797000  18.084000
18634   11   2   -26.375000   -15.148000  17.429000
18635   11   2   -27.644000   -12.939000  17.438000
18636   11   2   -49.513000   11.543000  17.942000
18637   11   4   -50.79000   13.771000  18.019000
18638   11   2   -23.795000   -15.167000  17.409000
18639   11   2   -25.065000   -12.954000  17.41000
18640   11   2   -46.931000   11.516000  17.903000
18641   11   4   -48.205000   13.744000  17.972000
18642   11   2   -65.012000   -28.185000  18.241000
18643   11   2   -21.208000   -15.191000  17.402000
18644   11   2   -22.479000   -12.972000  17.393000
18645   11   2   -44.351000   11.485000  17.88000
18646   11   4   -45.624000   13.716000  17.946000
18647   11   2   -18.611000   -15.249000  17.424000
18648   11   2   -19.877000   -12.997000  17.397000
18649   11   2   -41.775000   11.455000  17.872000
18650   11   4   -43.044000   13.685000  17.939000
18651   11   2   -30.264000   -17.33000  17.479000
18652   11   4   -17.261000   -13.047000  17.448000
18653   11   2   -39.197000   11.417000  17.88000
18654   11   4   -40.462000   13.65000  17.954000
18655   11   2   -57.436000   -37.208000  18.157000
18656   11   2   -34.128000   -37.269000  17.789000
18657   11   2   -35.442000   -35.045000  17.822000
18658   11   2   -36.618000   11.375000  17.897000
18659   11   4   -37.875000   13.607000  17.989000
18660   11   2   -77.939000   -10.367000  18.299000
18661   11   2   -31.568000   -37.195000  17.757000
18662   11   2   -34.049000   11.306000  17.921000
18663   11   4   -35.275000   13.564000  18.043000
18664   11   2   -75.377000   -10.42000  18.228000
18665   11   2   -76.579000   -8.192000  18.272000
18666   11   2   -31.512000   11.194000  17.954000
18667   11   2   -30.329000   -34.98000  17.747000
18668   11   2   -72.79000   -10.45000  18.195000
18669   11   2   -74.033000   -8.229000  18.204000
18670   11   2   -67.577000   -28.162000  18.28000
18671   11   2   -56.103000   -34.982000  18.162000
18672   11   2   -63.976000   -39.357000  18.102000
18673   11   2   -75.367000   -19.273000  18.306000
18674   11   2   -70.203000   -10.473000  18.17000
18675   11   2   -71.462000   -8.257000  18.174000
18676   11   2   -57.281000   11.612000  18.143000
18677   11   2   -76.704000   -17.046000  18.3000
18678   11   2   -58.789000   -39.433000  18.131000
18679   11   2   -67.619000   -10.491000  18.15000
18680   11   2   -68.887000   -8.276000  18.153000
18681   11   2   -56.18000   -39.426000  18.147000
18682   11   2   -53.573000   -39.429000  18.151000
18683   11   2   -27.689000   -17.344000  17.455000
18684   11   2   -65.035000   -10.505000  18.132000
18685   11   2   -66.31000   -8.29000  18.137000
18686   11   2   -50.967000   -39.435000  18.139000
18687   11   2   -48.361000   -39.448000  18.114000
18688   11   2   -62.454000   -10.517000  18.11000
18689   11   2   -63.733000   -8.301000  18.122000
18690   11   2   -45.757000   -39.46000  18.076000
18691   11   2   -43.15000   -39.478000  18.023000
18692   11   2   -61.156000   -8.308000  18.1000
18693   11   2   -40.543000   -39.498000  17.957000
18694   11   2   -37.935000   -39.521000  17.878000
18695   11   2   -35.327000   -39.536000  17.803000
18696   11   2   -34.17000   -23.933000  17.613000
18697   11   2   -32.746000   -39.419000  17.756000
18698   11   2   -54.686000   11.594000  18.063000
18699   11   2   -72.784000   -19.273000  18.257000
18700   11   2   -74.111000   -17.051000  18.252000
18701   11   2   -78.155000   -14.829000  13.5000
18702   11   4   -79.467000   -12.542000  13.515000
18703   11   2   -75.507000   -14.855000  13.479000
18704   11   2   -76.813000   -12.625000  13.484000
18705   11   2   -72.887000   -14.883000  13.449000
18706   11   2   -74.183000   -12.664000  13.451000
18707   11   2   -70.283000   -14.903000  13.418000
18708   11   2   -71.573000   -12.688000  13.421000
18709   11   2   -67.69000   -14.92000  13.391000
18710   11   2   -68.977000   -12.704000  13.394000
18711   11   2   -65.102000   -14.935000  13.363000
18712   11   2   -66.389000   -12.717000  13.371000
18713   11   2   -63.81000   -12.729000  13.354000
18714   11   2   -29.012000   -15.153000  12.683000
18715   11   2   -30.288000   -12.931000  12.705000
18716   11   2   -26.421000   -15.17000  12.656000
18717   11   2   -27.702000   -12.95000  12.664000
18718   11   2   -23.824000   -15.188000  12.637000
18719   11   2   -25.108000   -12.969000  12.637000
18720   11   2   -21.215000   -15.209000  12.627000
18721   11   2   -22.501000   -12.991000  12.623000
18722   11   2   -18.587000   -15.256000  12.626000
18723   11   2   -19.873000   -13.012000  12.623000
18724   11   4   -17.228000   -13.039000  12.647000
18725   11   2   -77.987000   -10.381000  13.444000
18726   11   2   -75.425000   -10.44000  13.448000
18727   11   2   -76.624000   -8.21000  13.407000
18728   11   2   -72.838000   -10.47000  13.423000
18729   11   2   -74.079000   -8.244000  13.42000
18730   11   2   -70.249000   -10.49000  13.397000
18731   11   2   -71.507000   -8.27000  13.399000
18732   11   2   -67.665000   -10.502000  13.375000
18733   11   2   -68.932000   -8.287000  13.378000
18734   11   2   -65.088000   -10.513000  13.359000
18735   11   2   -66.357000   -8.298000  13.361000
18736   11   2   -62.519000   -10.519000  13.353000
18737   11   2   -63.788000   -8.305000  13.35000
18738   11   2   -61.225000   -8.306000  13.351000
18739   11   2   -31.567000   -10.704000  12.74000
18740   11   2   -32.85000   -8.477000  12.781000
18741   11   2   -28.99000   -10.727000  12.685000
18742   11   2   -30.281000   -8.502000  12.714000
18743   11   2   -26.404000   -10.749000  12.647000
18744   11   2   -27.704000   -8.524000  12.666000
18745   11   2   -23.814000   -10.77000  12.62000
18746   11   2   -25.123000   -8.545000  12.628000
18747   11   2   -21.22000   -10.791000  12.605000
18748   11   2   -22.544000   -8.561000  12.597000
18749   11   2   -18.648000   -10.802000  12.571000
18750   11   2   -19.992000   -8.58000  12.539000
18751   11   2   -75.295000   -6.02000  13.38000
18752   11   2   -72.754000   -6.043000  13.399000
18753   11   2   -73.982000   -3.825000  13.364000
18754   11   2   -70.188000   -6.065000  13.381000
18755   11   2   -71.443000   -3.841000  13.385000
18756   11   2   -67.622000   -6.081000  13.364000
18757   11   2   -68.88000   -3.86000  13.37000
18758   11   2   -65.053000   -6.09000  13.35000
18759   11   2   -66.318000   -3.872000  13.353000
18760   11   2   -62.489000   -6.094000  13.339000
18761   11   2   -63.755000   -3.878000  13.336000
18762   11   2   -59.932000   -6.097000  13.334000
18763   11   2   -61.194000   -3.882000  13.319000
18764   11   2   -58.639000   -3.885000  13.307000
18765   11   2   -34.138000   -6.254000  12.815000
18766   11   2   -35.426000   -4.029000  12.845000
18767   11   2   -31.572000   -6.277000  12.748000
18768   11   2   -32.862000   -4.053000  12.781000
18769   11   2   -29.0000   -6.298000  12.693000
18770   11   2   -30.295000   -4.073000  12.726000
18771   11   2   -26.427000   -6.317000  12.647000
18772   11   2   -27.727000   -4.09000  12.675000
18773   11   2   -23.855000   -6.332000  12.604000
18774   11   2   -25.16000   -4.104000  12.625000
18775   11   2   -21.308000   -6.35000  12.532000
18776   11   2   -22.617000   -4.121000  12.542000
18777   11   2   -72.678000   -1.628000  13.357000
18778   11   2   -70.14000   -1.639000  13.379000
18779   11   2   -71.383000   0.571000  13.356000
18780   11   2   -67.581000   -1.652000  13.363000
18781   11   2   -68.846000   0.567000  13.378000
18782   11   2   -65.021000   -1.659000  13.343000
18783   11   2   -66.289000   0.559000  13.361000
18784   11   2   -62.46000   -1.664000  13.321000
18785   11   2   -63.73000   0.557000  13.335000
18786   11   2   -59.902000   -1.667000  13.295000
18787   11   2   -61.173000   0.556000  13.304000
18788   11   2   -57.344000   -1.67000  13.266000
18789   11   2   -58.615000   0.554000  13.268000
18790   11   2   -56.052000   0.547000  13.222000
18791   11   2   -53.483000   0.527000  13.162000
18792   11   2   -50.908000   0.512000  13.099000
18793   11   2   -48.327000   0.498000  13.04000
18794   11   2   -45.745000   0.48000  12.99000
18795   11   2   -43.163000   0.459000  12.948000
18796   11   2   -40.585000   0.439000  12.915000
18797   11   2   -36.719000   -1.803000  12.866000
18798   11   2   -38.01000   0.424000  12.885000
18799   11   2   -34.153000   -1.826000  12.814000
18800   11   2   -35.442000   0.402000  12.846000
18801   11   2   -31.587000   -1.847000  12.762000
18802   11   2   -32.877000   0.381000  12.804000
18803   11   2   -29.021000   -1.864000  12.713000
18804   11   2   -30.313000   0.362000  12.757000
18805   11   2   -26.458000   -1.876000  12.659000
18806   11   2   -27.75000   0.349000  12.704000
18807   11   2   -23.917000   -1.894000  12.569000
18808   11   2   -25.21000   0.332000  12.612000
18809   11   2   -70.097000   2.771000  13.366000
18810   11   2   -67.56000   2.774000  13.386000
18811   11   2   -68.822000   4.972000  13.389000
18812   11   2   -65.004000   2.775000  13.364000
18813   11   2   -66.285000   4.986000  13.405000
18814   11   2   -62.449000   2.779000  13.331000
18815   11   2   -63.731000   4.999000  13.375000
18816   11   2   -59.893000   2.782000  13.29000
18817   11   2   -61.177000   5.012000  13.333000
18818   11   2   -57.332000   2.778000  13.244000
18819   11   2   -58.62000   5.014000  13.284000
18820   11   2   -54.765000   2.765000  13.19000
18821   11   2   -56.057000   5.004000  13.229000
18822   11   2   -52.193000   2.746000  13.131000
18823   11   2   -53.482000   4.985000  13.171000
18824   11   2   -49.615000   2.73000  13.075000
18825   11   2   -50.904000   4.963000  13.115000
18826   11   2   -47.032000   2.712000  13.023000
18827   11   2   -48.318000   4.943000  13.063000
18828   11   2   -44.449000   2.693000  12.98000
18829   11   2   -45.732000   4.925000  13.019000
18830   11   2   -41.868000   2.673000  12.945000
18831   11   2   -43.147000   4.907000  12.985000
18832   11   2   -39.294000   2.655000  12.915000
18833   11   2   -40.568000   4.889000  12.957000
18834   11   2   -36.723000   2.633000  12.885000
18835   11   2   -37.996000   4.871000  12.933000
18836   11   2   -34.159000   2.611000  12.851000
18837   11   2   -35.432000   4.847000  12.907000
18838   11   2   -31.597000   2.59000  12.812000
18839   11   2   -32.872000   4.82000  12.876000
18840   11   2   -29.037000   2.573000  12.762000
18841   11   2   -30.315000   4.797000  12.833000
18842   11   2   -26.498000   2.553000  12.669000
18843   11   2   -27.777000   4.773000  12.744000
18844   11   2   -67.561000   7.174000  13.424000
18845   11   2   -65.024000   7.206000  13.434000
18846   11   2   -66.324000   9.377000  13.477000
18847   11   2   -62.473000   7.236000  13.396000
18848   11   2   -63.787000   9.444000  13.477000
18849   11   2   -59.923000   7.253000  13.343000
18850   11   2   -61.24000   9.492000  13.427000
18851   11   2   -57.359000   7.247000  13.283000
18852   11   2   -58.677000   9.495000  13.359000
18853   11   2   -54.781000   7.225000  13.222000
18854   11   2   -56.094000   9.469000  13.289000
18855   11   2   -52.197000   7.201000  13.164000
18856   11   2   -53.499000   9.437000  13.222000
18857   11   2   -49.608000   7.176000  13.11000
18858   11   2   -50.901000   9.407000  13.164000
18859   11   2   -47.017000   7.154000  13.066000
18860   11   2   -48.303000   9.382000  13.115000
18861   11   2   -44.425000   7.137000  13.03000
18862   11   2   -45.705000   9.363000  13.08000
18863   11   2   -41.839000   7.122000  13.005000
18864   11   2   -43.11000   9.349000  13.057000
18865   11   2   -39.26000   7.108000  12.987000
18866   11   2   -40.519000   9.339000  13.045000
18867   11   2   -36.691000   7.089000  12.972000
18868   11   2   -37.935000   9.331000  13.041000
18869   11   2   -34.134000   7.058000  12.953000
18870   11   2   -35.371000   9.311000  13.039000
18871   11   2   -31.58000   7.023000  12.919000
18872   11   2   -32.825000   9.261000  13.023000
18873   11   2   -29.044000   6.989000  12.837000
18874   11   2   -30.294000   9.2000  12.95000
18875   11   2   -65.136000   11.596000  13.54000
18876   11   2   -62.606000   11.733000  13.529000
18877   11   2   -60.028000   11.748000  13.459000
18878   11   4   -61.39000   13.999000  13.567000
18879   11   2   -57.421000   11.716000  13.371000
18880   11   4   -58.757000   13.973000  13.46000
18881   11   2   -54.809000   11.674000  13.291000
18882   11   4   -56.119000   13.914000  13.355000
18883   11   2   -52.201000   11.637000  13.222000
18884   11   4   -53.498000   13.871000  13.27000
18885   11   2   -49.594000   11.607000  13.167000
18886   11   4   -50.885000   13.837000  13.203000
18887   11   2   -46.989000   11.584000  13.128000
18888   11   4   -48.276000   13.81000  13.156000
18889   11   2   -44.386000   11.568000  13.104000
18890   11   4   -45.671000   13.79000  13.129000
18891   11   2   -41.785000   11.559000  13.097000
18892   11   4   -43.065000   13.778000  13.122000
18893   11   2   -39.186000   11.556000  13.105000
18894   11   4   -40.459000   13.773000  13.138000
18895   11   2   -36.59000   11.559000  13.127000
18896   11   4   -37.846000   13.778000  13.178000
18897   11   2   -34.02000   11.531000  13.144000
18898   11   4   -35.219000   13.803000  13.249000
18899   11   2   -31.498000   11.413000  13.093000
18900   11   2   -75.426000   -19.308000  13.49000
18901   11   2   -76.766000   -17.073000  13.488000
18902   11   2   -72.844000   -19.311000  13.48000
18903   11   2   -74.169000   -17.084000  13.476000
18904   11   2   -70.263000   -19.325000  13.452000
18905   11   2   -71.573000   -17.102000  13.449000
18906   11   2   -67.68000   -19.342000  13.419000
18907   11   2   -68.982000   -17.121000  13.417000
18908   11   2   -65.099000   -19.36000  13.383000
18909   11   2   -66.394000   -17.138000  13.386000
18910   11   2   -62.522000   -19.38000  13.344000
18911   11   2   -63.811000   -17.154000  13.353000
18912   11   2   -31.637000   -19.57000  12.738000
18913   11   2   -29.057000   -19.582000  12.712000
18914   11   2   -30.326000   -17.359000  12.705000
18915   11   2   -26.479000   -19.597000  12.687000
18916   11   2   -27.742000   -17.375000  12.679000
18917   11   2   -23.905000   -19.616000  12.663000
18918   11   2   -25.156000   -17.391000  12.657000
18919   11   2   -21.333000   -19.65000  12.623000
18920   11   2   -22.571000   -17.411000  12.639000
18921   11   2   -19.991000   -17.449000  12.611000
18922   11   2   -72.798000   -23.756000  13.508000
18923   11   2   -74.106000   -21.535000  13.498000
18924   11   2   -70.227000   -23.754000  13.495000
18925   11   2   -71.53000   -21.535000  13.488000
18926   11   2   -67.658000   -23.766000  13.462000
18927   11   2   -68.956000   -21.546000  13.457000
18928   11   2   -65.087000   -23.787000  13.425000
18929   11   2   -66.381000   -21.563000  13.421000
18930   11   2   -62.515000   -23.813000  13.384000
18931   11   2   -63.805000   -21.585000  13.383000
18932   11   2   -59.944000   -23.842000  13.342000
18933   11   2   -61.232000   -21.61000  13.339000
18934   11   2   -34.248000   -23.999000  12.842000
18935   11   2   -31.674000   -24.002000  12.809000
18936   11   2   -32.944000   -21.785000  12.784000
18937   11   2   -29.103000   -24.011000  12.778000
18938   11   2   -30.368000   -21.793000  12.755000
18939   11   2   -26.535000   -24.026000  12.745000
18940   11   2   -27.795000   -21.805000  12.728000
18941   11   2   -23.969000   -24.053000  12.694000
18942   11   2   -25.226000   -21.822000  12.699000
18943   11   2   -22.657000   -21.852000  12.653000
18944   11   2   -70.214000   -28.18000  13.517000
18945   11   2   -71.502000   -25.969000  13.515000
18946   11   2   -67.646000   -28.183000  13.5000
18947   11   2   -68.933000   -25.971000  13.501000
18948   11   2   -65.08000   -28.203000  13.466000
18949   11   2   -66.366000   -25.986000  13.467000
18950   11   2   -62.513000   -28.236000  13.43000
18951   11   2   -63.797000   -26.01000  13.429000
18952   11   2   -59.946000   -28.273000  13.395000
18953   11   2   -61.228000   -26.042000  13.389000
18954   11   2   -57.38000   -28.311000  13.36000
18955   11   2   -58.658000   -26.076000  13.35000
18956   11   2   -36.838000   -28.43000  12.985000
18957   11   2   -34.27000   -28.422000  12.938000
18958   11   2   -35.547000   -26.214000  12.911000
18959   11   2   -31.701000   -28.419000  12.896000
18960   11   2   -32.975000   -26.213000  12.871000
18961   11   2   -29.135000   -28.424000  12.855000
18962   11   2   -30.405000   -26.216000  12.836000
18963   11   2   -26.57000   -28.444000  12.799000
18964   11   2   -27.838000   -26.227000  12.798000
18965   11   2   -25.273000   -26.251000  12.744000
18966   11   2   -67.662000   -32.583000  13.485000
18967   11   2   -68.934000   -30.384000  13.508000
18968   11   2   -65.092000   -32.601000  13.47000
18969   11   2   -66.367000   -30.393000  13.491000
18970   11   2   -62.527000   -32.646000  13.443000
18971   11   2   -63.8000   -30.422000  13.459000
18972   11   2   -59.965000   -32.697000  13.419000
18973   11   2   -61.235000   -30.464000  13.427000
18974   11   2   -57.401000   -32.744000  13.395000
18975   11   2   -58.671000   -30.507000  13.397000
18976   11   2   -54.833000   -32.782000  13.371000
18977   11   2   -56.105000   -30.548000  13.367000
18978   11   2   -52.262000   -32.812000  13.342000
18979   11   2   -53.537000   -30.584000  13.339000
18980   11   2   -49.689000   -32.838000  13.309000
18981   11   2   -50.968000   -30.614000  13.307000
18982   11   2   -47.116000   -32.857000  13.269000
18983   11   2   -48.398000   -30.637000  13.267000
18984   11   2   -44.544000   -32.87000  13.222000
18985   11   2   -45.827000   -30.654000  13.221000
18986   11   2   -41.974000   -32.874000  13.169000
18987   11   2   -43.258000   -30.661000  13.168000
18988   11   2   -39.405000   -32.868000  13.114000
18989   11   2   -40.69000   -30.659000  13.11000
18990   11   2   -36.841000   -32.851000  13.059000
18991   11   2   -38.124000   -30.649000  13.054000
18992   11   2   -34.278000   -32.826000  13.007000
18993   11   2   -35.559000   -30.633000  13.002000
18994   11   2   -31.713000   -32.807000  12.955000
18995   11   2   -32.993000   -30.621000  12.955000
18996   11   2   -29.144000   -32.815000  12.893000
18997   11   2   -30.426000   -30.617000  12.91000
18998   11   2   -27.86000   -30.634000  12.85000
18999   11   2   -65.138000   -36.958000  13.379000
19000   11   2   -66.396000   -34.775000  13.443000
19001   11   2   -62.581000   -37.054000  13.387000
19002   11   2   -63.825000   -34.814000  13.435000
19003   11   2   -60.02000   -37.128000  13.388000
19004   11   2   -61.266000   -34.881000  13.42000
19005   11   2   -57.447000   -37.172000  13.388000
19006   11   2   -58.703000   -34.938000  13.405000
19007   11   2   -54.868000   -37.207000  13.381000
19008   11   2   -56.135000   -34.978000  13.39000
19009   11   2   -52.288000   -37.235000  13.366000
19010   11   2   -53.561000   -35.01000  13.369000
19011   11   2   -49.706000   -37.259000  13.341000
19012   11   2   -50.985000   -35.037000  13.344000
19013   11   2   -47.125000   -37.278000  13.307000
19014   11   2   -48.409000   -35.058000  13.311000
19015   11   2   -44.544000   -37.292000  13.262000
19016   11   2   -45.833000   -35.075000  13.269000
19017   11   2   -41.963000   -37.299000  13.208000
19018   11   2   -43.256000   -35.084000  13.22000
19019   11   2   -39.385000   -37.295000  13.147000
19020   11   2   -40.684000   -35.086000  13.165000
19021   11   2   -36.813000   -37.27000  13.079000
19022   11   2   -38.115000   -35.073000  13.108000
19023   11   2   -34.254000   -37.222000  13.008000
19024   11   2   -35.552000   -35.043000  13.048000
19025   11   2   -31.685000   -37.151000  12.927000
19026   11   2   -32.992000   -35.002000  12.99000
19027   11   2   -30.421000   -34.987000  12.921000
19028   11   2   -63.94000   -39.194000  13.3000
19029   11   2   -61.366000   -39.318000  13.332000
19030   11   2   -58.775000   -39.364000  13.356000
19031   11   2   -56.184000   -39.402000  13.369000
19032   11   2   -53.597000   -39.432000  13.371000
19033   11   2   -51.01000   -39.457000  13.359000
19034   11   2   -48.425000   -39.479000  13.334000
19035   11   2   -45.838000   -39.495000  13.295000
19036   11   2   -43.251000   -39.507000  13.244000
19037   11   2   -40.661000   -39.512000  13.18000
19038   11   2   -38.07000   -39.502000  13.103000
19039   11   2   -35.476000   -39.465000  13.004000
19040   11   2   -32.902000   -39.313000  12.899000
19041   11   4   -60.124000   -41.53000  13.255000
19042   11   4   -57.514000   -41.569000  13.299000
19043   11   4   -54.915000   -41.603000  13.323000
19044   11   4   -52.322000   -41.631000  13.329000
19045   11   4   -49.732000   -41.656000  13.317000
19046   11   4   -47.141000   -41.675000  13.289000
19047   11   4   -44.55000   -41.689000  13.244000
19048   11   4   -41.954000   -41.697000  13.18000
19049   11   4   -39.351000   -41.699000  13.099000
19050   11   4   -36.727000   -41.683000  12.985000
19051   11   4   -62.781000   -41.476000  13.201000
19052   11   4   -32.808000   -40.85000  12.83000
19053   11   4   -32.607000   13.715000  13.306000
19054   11   4   -62.853000   14.759000  13.674000
19055   11   2   -62.901000   -16.648000  14.78000
19056   11   2   -62.873000   -16.64000  16.669000
19057   11   2   -61.609000   -18.869000  14.766000
19058   11   2   -61.581000   -18.861000  16.653000
19059   11   2   -31.193000   -16.839000  14.153000
19060   11   2   -31.167000   -16.829000  16.042000
19061   11   2   -32.502000   -19.044000  14.182000
19062   11   2   -32.473000   -19.031000  16.069000
19063   11   2   -60.318000   -21.098000  14.759000
19064   11   2   -60.29000   -21.088000  16.644000
19065   11   2   -59.029000   -23.33000  14.761000
19066   11   2   -59.003000   -23.318000  16.646000
19067   11   2   -33.81000   -21.255000  14.226000
19068   11   2   -33.777000   -21.236000  16.111000
19069   11   2   -35.112000   -23.468000  14.284000
19070   11   2   -35.076000   -23.446000  16.171000
19071   11   2   -57.746000   -25.563000  14.77000
19072   11   2   -57.722000   -25.551000  16.657000
19073   11   2   -54.799000   -28.799000  14.579000
19074   11   2   -54.767000   -28.779000  16.859000
19075   11   2   -56.47000   -27.801000  14.784000
19076   11   2   -56.447000   -27.787000  16.671000
19077   11   2   -52.228000   -28.831000  14.551000
19078   11   2   -52.196000   -28.806000  16.823000
19079   11   2   -49.656000   -28.856000  14.517000
19080   11   2   -49.62000   -28.829000  16.785000
19081   11   2   -47.086000   -28.873000  14.472000
19082   11   2   -47.046000   -28.844000  16.74000
19083   11   2   -44.516000   -28.885000  14.419000
19084   11   2   -44.471000   -28.853000  16.688000
19085   11   2   -41.946000   -28.888000  14.358000
19086   11   2   -41.9000   -28.854000  16.631000
19087   11   2   -39.38000   -28.883000  14.295000
19088   11   2   -39.333000   -28.849000  16.576000
19089   11   2   -36.407000   -25.683000  14.356000
19090   11   2   -36.37000   -25.659000  16.244000
19091   11   2   -37.695000   -27.902000  14.434000
19092   11   2   -37.657000   -27.877000  16.322000
19093   11   2   -50.841000   -0.526000  16.421000
19094   11   2   -48.302000   -0.537000  14.471000
19095   11   2   -48.265000   -0.542000  16.354000
19096   11   2   -62.908000   -14.712000  14.585000
19097   11   2   -62.875000   -14.706000  16.862000
19098   11   2   -61.582000   -12.506000  16.846000
19099   11   2   -61.616000   -12.509000  14.589000
19100   11   2   -31.176000   -14.903000  13.956000
19101   11   2   -31.147000   -14.898000  16.234000
19102   11   2   -32.419000   -12.686000  16.253000
19103   11   2   -32.45000   -12.685000  13.995000
19104   11   2   -58.989000   -8.09000  16.823000
19105   11   2   -59.025000   -8.09000  14.592000
19106   11   2   -33.731000   -10.461000  14.047000
19107   11   2   -33.698000   -10.466000  16.282000
19108   11   2   -34.98000   -8.247000  16.32000
19109   11   2   -35.016000   -8.241000  14.086000
19110   11   2   -57.73000   -5.882000  14.567000
19111   11   2   -57.691000   -5.881000  16.799000
19112   11   2   -56.395000   -3.671000  16.762000
19113   11   2   -56.438000   -3.668000  14.529000
19114   11   2   -36.301000   -6.02000  14.119000
19115   11   2   -36.266000   -6.029000  16.352000
19116   11   2   -37.557000   -3.808000  16.377000
19117   11   2   -37.59000   -3.796000  14.141000
19118   11   2   -55.145000   -1.453000  14.468000
19119   11   2   -55.098000   -1.459000  16.727000
19120   11   2   -53.448000   -0.496000  14.603000
19121   11   2   -53.41000   -0.507000  16.49000
19122   11   2   -50.879000   -0.52000  14.532000
19123   11   2   -45.688000   -0.563000  16.302000
19124   11   2   -43.141000   -0.577000  14.377000
19125   11   2   -43.112000   -0.589000  16.265000
19126   11   2   -38.882000   -1.568000  14.144000
19127   11   2   -38.849000   -1.586000  16.404000
19128   11   2   -40.57000   -0.592000  14.351000
19129   11   2   -40.543000   -0.61000  16.236000
19130   11   2   -45.721000   -0.556000  14.419000
19131   11   2   -60.32000   -10.298000  14.6000
19132   11   2   -60.285000   -10.299000  16.835000
