2160
GENERATED BY SAMSON 2025 R1
C 17.5902 1.42 10.8713
C 17.5902 -1.42 10.8713
C 16.6129 0.71 11.6179
C 16.6129 -0.71 11.6179
C 15.6357 1.42 12.3644
C 15.6357 -1.42 12.3644
C 14.6585 0.71 13.1109
C 14.6585 -0.71 13.1109
C 13.6812 1.42 13.8575
C 13.6812 -1.42 13.8575
C 12.704 0.71 14.604
C 12.704 -0.71 14.604
C 11.7268 1.42 15.3505
C 11.7268 -1.42 15.3505
C 10.7495 0.71 16.0971
C 10.7495 -0.71 16.0971
C 9.7723 1.42 16.8436
C 9.7723 -1.42 16.8436
C 8.7951 0.71 17.5902
C 8.7951 -0.71 17.5902
C 7.8178 1.42 18.3367
C 7.8178 -1.42 18.3367
C 6.8406 0.71 19.0832
C 6.8406 -0.71 19.0832
C 5.8634 1.42 19.8298
C 5.8634 -1.42 19.8298
C 4.8862 0.71 20.5763
C 4.8862 -0.71 20.5763
C 3.9089 1.42 21.3229
C 3.9089 -1.42 21.3229
C 2.9317 0.71 22.0694
C 2.9317 -0.71 22.0694
C 1.9545 1.42 22.8159
C 1.9545 -1.42 22.8159
C 0.9772 0.71 23.5625
C 0.9772 -0.71 23.5625
C 17.5902 2.84 10.8713
C 17.5902 -2.84 10.8713
C 16.6129 3.55 11.6179
C 16.6129 -3.55 11.6179
C 15.6357 2.84 12.3644
C 15.6357 -2.84 12.3644
C 14.6585 3.55 13.1109
C 14.6585 -3.55 13.1109
C 13.6812 2.84 13.8575
C 13.6812 -2.84 13.8575
C 12.704 3.55 14.604
C 12.704 -3.55 14.604
C 11.7268 2.84 15.3505
C 11.7268 -2.84 15.3505
C 10.7495 3.55 16.0971
C 10.7495 -3.55 16.0971
C 9.7723 2.84 16.8436
C 9.7723 -2.84 16.8436
C 8.7951 3.55 17.5902
C 8.7951 -3.55 17.5902
C 7.8178 2.84 18.3367
C 7.8178 -2.84 18.3367
C 6.8406 3.55 19.0832
C 6.8406 -3.55 19.0832
C 5.8634 2.84 19.8298
C 5.8634 -2.84 19.8298
C 4.8862 3.55 20.5763
C 4.8862 -3.55 20.5763
C 3.9089 2.84 21.3229
C 3.9089 -2.84 21.3229
C 17.5902 5.68 10.8713
C 17.5902 -5.68 10.8713
C 16.6129 4.97 11.6179
C 16.6129 -4.97 11.6179
C 15.6357 5.68 12.3644
C 15.6357 -5.68 12.3644
C 14.6585 4.97 13.1109
C 14.6585 -4.97 13.1109
C 13.6812 5.68 13.8575
C 13.6812 -5.68 13.8575
C 12.704 4.97 14.604
C 12.704 -4.97 14.604
C 11.7268 5.68 15.3505
C 11.7268 -5.68 15.3505
C 10.7495 4.97 16.0971
C 10.7495 -4.97 16.0971
C 9.7723 5.68 16.8436
C 9.7723 -5.68 16.8436
C 8.7951 4.97 17.5902
C 8.7951 -4.97 17.5902
C 7.8178 5.68 18.3367
C 7.8178 -5.68 18.3367
C 6.8406 4.97 19.0832
C 6.8406 -4.97 19.0832
C 17.5902 7.1 10.8713
C 17.5902 -7.1 10.8713
C 16.6129 7.81 11.6179
C 16.6129 -7.81 11.6179
C 15.6357 7.1 12.3644
C 15.6357 -7.1 12.3644
C 14.6585 7.81 13.1109
C 14.6585 -7.81 13.1109
C 13.6812 7.1 13.8575
C 13.6812 -7.1 13.8575
C 12.704 7.81 14.604
C 12.704 -7.81 14.604
C 11.7268 7.1 15.3505
C 11.7268 -7.1 15.3505
C 10.7495 7.81 16.0971
C 10.7495 -7.81 16.0971
C 9.7723 7.1 16.8436
C 9.7723 -7.1 16.8436
C 17.5902 9.94 10.8713
C 17.5902 -9.94 10.8713
C 16.6129 9.23 11.6179
C 16.6129 -9.23 11.6179
C 15.6357 9.94 12.3644
C 15.6357 -9.94 12.3644
C 14.6585 9.23 13.1109
C 14.6585 -9.23 13.1109
C 13.6812 9.94 13.8575
C 13.6812 -9.94 13.8575
C 12.704 9.23 14.604
C 12.704 -9.23 14.604
C 17.5902 11.36 10.8713
C 17.5902 -11.36 10.8713
C 16.6129 12.07 11.6179
C 16.6129 -12.07 11.6179
C 15.6357 11.36 12.3644
C 15.6357 -11.36 12.3644
C 4.0852 17.168 10.8713
C 6.7862 16.2904 10.8713
C 4.4584 16.0192 11.6179
C 5.8089 15.5804 11.6179
C 3.4812 15.3092 12.3644
C 6.1822 14.4316 12.3644
C 3.8545 14.1604 13.1109
C 5.205 13.7216 13.1109
C 2.8772 13.4504 13.8575
C 5.5782 12.5728 13.8575
C 3.2505 12.3016 14.604
C 4.601 11.8628 14.604
C 2.2733 11.5916 15.3505
C 4.9743 10.714 15.3505
C 2.6465 10.4428 16.0971
C 3.997 10.004 16.0971
C 1.6693 9.7328 16.8436
C 4.3703 8.8552 16.8436
C 2.0426 8.584 17.5902
C 3.3931 8.1452 17.5902
C 1.0653 7.874 18.3367
C 3.7663 6.9964 18.3367
C 1.4386 6.7252 19.0832
C 2.7891 6.2864 19.0832
C 0.4614 6.0152 19.8298
C 3.1624 5.1376 19.8298
C 0.8347 4.8664 20.5763
C 2.1852 4.4276 20.5763
C -0.1426 4.1564 21.3229
C 2.5584 3.2788 21.3229
C 0.2307 3.0076 22.0694
C 1.5812 2.5688 22.0694
C -0.7465 2.2976 22.8159
C -0.3733 1.1488 23.5625
C 2.7347 17.6068 10.8713
C 8.1367 15.8516 10.8713
C 1.7574 16.8968 11.6179
C 8.5099 14.7028 11.6179
C 2.1307 15.748 12.3644
C 7.5327 13.9928 12.3644
C 1.1535 15.038 13.1109
C 7.906 12.844 13.1109
C 1.5267 13.8892 13.8575
C 6.9287 12.134 13.8575
C 0.5495 13.1792 14.604
C 7.302 10.9852 14.604
C 0.9228 12.0304 15.3505
C 6.3248 10.2752 15.3505
C -0.0545 11.3204 16.0971
C 6.698 9.1264 16.0971
C 0.3188 10.1716 16.8436
C 5.7208 8.4164 16.8436
C -0.6584 9.4616 17.5902
C 6.0941 7.2676 17.5902
C -0.2852 8.3128 18.3367
C 5.1168 6.5576 18.3367
C -1.2624 7.6028 19.0832
C 5.4901 5.4088 19.0832
C -0.8891 6.454 19.8298
C 4.5129 4.6988 19.8298
C -1.8663 5.744 20.5763
C -1.4931 4.5952 21.3229
C 0.0337 18.4845 10.8713
C 10.8377 14.974 10.8713
C 0.4069 17.3356 11.6179
C 9.8604 14.264 11.6179
C -0.5703 16.6256 12.3644
C 10.2337 13.1152 12.3644
C -0.197 15.4768 13.1109
C 9.2565 12.4052 13.1109
C -1.1743 14.7668 13.8575
C 9.6297 11.2564 13.8575
C -0.801 13.618 14.604
C 8.6525 10.5464 14.604
C -1.7782 12.908 15.3505
C 9.0258 9.3976 15.3505
C -1.405 11.7592 16.0971
C 8.0485 8.6876 16.0971
C -2.3822 11.0492 16.8436
C 8.4218 7.5388 16.8436
C -2.0089 9.9004 17.5902
C 7.4446 6.8288 17.5902
C -2.9862 9.1904 18.3367
C -2.6129 8.0416 19.0832
C -1.3168 18.9233 10.8713
C 12.1882 14.5352 10.8713
C -2.2941 18.2133 11.6179
C 12.5614 13.3864 11.6179
C -1.9208 17.0645 12.3644
C 11.5842 12.6764 12.3644
C -2.898 16.3545 13.1109
C 11.9575 11.5276 13.1109
C -2.5248 15.2056 13.8575
C 10.9802 10.8176 13.8575
C -3.502 14.4956 14.604
C 11.3535 9.6688 14.604
C -3.1287 13.3468 15.3505
C 10.3763 8.9588 15.3505
C -4.106 12.6368 16.0971
C -3.7327 11.488 16.8436
C -4.0178 19.8009 10.8713
C 14.8892 13.6576 10.8713
C -3.6446 18.6521 11.6179
C 13.9119 12.9476 11.6179
C -4.6218 17.9421 12.3644
C 14.2852 11.7988 12.3644
C -4.2485 16.7933 13.1109
C 13.308 11.0888 13.1109
C -5.2258 16.0833 13.8575
C -4.8525 14.9345 14.604
C -5.3683 20.2397 10.8713
C 16.2397 13.2188 10.8713
C -6.3456 19.5297 11.6179
C -5.9723 18.3809 12.3644
C -15.0654 9.1904 10.8713
C -13.3961 11.488 10.8713
C -13.8575 9.1904 11.6179
C -13.0228 10.3392 11.6179
C -13.4842 8.0416 12.3644
C -11.8149 10.3392 12.3644
C -12.2763 8.0416 13.1109
C -11.4416 9.1904 13.1109
C -11.903 6.8928 13.8575
C -10.2337 9.1904 13.8575
C -10.6951 6.8928 14.604
C -9.8604 8.0416 14.604
C -10.3218 5.744 15.3505
C -8.6525 8.0416 15.3505
C -9.1139 5.744 16.0971
C -8.2792 6.8928 16.0971
C -8.7406 4.5952 16.8436
C -7.0713 6.8928 16.8436
C -7.5327 4.5952 17.5902
C -6.698 5.744 17.5902
C -7.1594 3.4464 18.3367
C -5.4901 5.744 18.3367
C -5.9515 3.4464 19.0832
C -5.1168 4.5952 19.0832
C -5.5782 2.2976 19.8298
C -3.9089 4.5952 19.8298
C -4.3703 2.2976 20.5763
C -3.5357 3.4464 20.5763
C -3.997 1.1488 21.3229
C -2.3277 3.4464 21.3229
C -2.7891 1.1488 22.0694
C -1.9545 2.2976 22.0694
C -2.4158 0 22.8159
C -1.2079 0 23.5625
C -15.9 8.0416 10.8713
C -12.5614 12.6368 10.8713
C -15.5268 6.8928 11.6179
C -11.3535 12.6368 11.6179
C -14.3189 6.8928 12.3644
C -10.9802 11.488 12.3644
C -13.9456 5.744 13.1109
C -9.7723 11.488 13.1109
C -12.7377 5.744 13.8575
C -9.399 10.3392 13.8575
C -12.3644 4.5952 14.604
C -8.1911 10.3392 14.604
C -11.1565 4.5952 15.3505
C -7.8178 9.1904 15.3505
C -10.7832 3.4464 16.0971
C -6.6099 9.1904 16.0971
C -9.5753 3.4464 16.8436
C -6.2367 8.0416 16.8436
C -9.202 2.2976 17.5902
C -5.0287 8.0416 17.5902
C -7.9941 2.2976 18.3367
C -4.6555 6.8928 18.3367
C -7.6208 1.1488 19.0832
C -3.4475 6.8928 19.0832
C -6.4129 1.1488 19.8298
C -3.0743 5.744 19.8298
C -6.0396 0 20.5763
C -4.8317 0 21.3229
C -17.5694 5.744 10.8713
C -10.8921 14.9345 10.8713
C -16.3614 5.744 11.6179
C -10.5188 13.7856 11.6179
C -15.9882 4.5952 12.3644
C -9.3109 13.7856 12.3644
C -14.7802 4.5952 13.1109
C -8.9377 12.6368 13.1109
C -14.407 3.4464 13.8575
C -7.7297 12.6368 13.8575
C -13.199 3.4464 14.604
C -7.3565 11.488 14.604
C -12.8258 2.2976 15.3505
C -6.1485 11.488 15.3505
C -11.6179 2.2976 16.0971
C -5.7753 10.3392 16.0971
C -11.2446 1.1488 16.8436
C -4.5673 10.3392 16.8436
C -10.0367 1.1488 17.5902
C -4.1941 9.1904 17.5902
C -9.6634 0 18.3367
C -8.4555 0 19.0832
C -18.404 4.5952 10.8713
C -10.0575 16.0833 10.8713
C -18.0307 3.4464 11.6179
C -8.8495 16.0833 11.6179
C -16.8228 3.4464 12.3644
C -8.4763 14.9345 12.3644
C -16.4496 2.2976 13.1109
C -7.2683 14.9345 13.1109
C -15.2416 2.2976 13.8575
C -6.8951 13.7856 13.8575
C -14.8684 1.1488 14.604
C -5.6872 13.7856 14.604
C -13.6604 1.1488 15.3505
C -5.3139 12.6368 15.3505
C -13.2872 0 16.0971
C -12.0792 0 16.8436
C -20.0733 2.2976 10.8713
C -8.3882 18.3809 10.8713
C -18.8654 2.2976 11.6179
C -8.0149 17.2321 11.6179
C -18.4921 1.1488 12.3644
C -6.807 17.2321 12.3644
C -17.2842 1.1488 13.1109
C -6.4337 16.0833 13.1109
C -16.9109 0 13.8575
C -15.703 0 14.604
C -20.908 1.1488 10.8713
C -7.5535 19.5297 10.8713
C -20.5347 0 11.6179
C -19.3268 0 12.3644
C -13.3961 -11.488 10.8713
C -15.0654 -9.1904 10.8713
C -13.0228 -10.3392 11.6179
C -13.8575 -9.1904 11.6179
C -11.8149 -10.3392 12.3644
C -13.4842 -8.0416 12.3644
C -11.4416 -9.1904 13.1109
C -12.2763 -8.0416 13.1109
C -10.2337 -9.1904 13.8575
C -11.903 -6.8928 13.8575
C -9.8604 -8.0416 14.604
C -10.6951 -6.8928 14.604
C -8.6525 -8.0416 15.3505
C -10.3218 -5.744 15.3505
C -8.2792 -6.8928 16.0971
C -9.1139 -5.744 16.0971
C -7.0713 -6.8928 16.8436
C -8.7406 -4.5952 16.8436
C -6.698 -5.744 17.5902
C -7.5327 -4.5952 17.5902
C -5.4901 -5.744 18.3367
C -7.1594 -3.4464 18.3367
C -5.1168 -4.5952 19.0832
C -5.9515 -3.4464 19.0832
C -3.9089 -4.5952 19.8298
C -5.5782 -2.2976 19.8298
C -3.5357 -3.4464 20.5763
C -4.3703 -2.2976 20.5763
C -2.3277 -3.4464 21.3229
C -3.997 -1.1488 21.3229
C -1.9545 -2.2976 22.0694
C -2.7891 -1.1488 22.0694
C -0.7465 -2.2976 22.8159
C -0.3733 -1.1488 23.5625
C -12.5614 -12.6368 10.8713
C -15.9 -8.0416 10.8713
C -11.3535 -12.6368 11.6179
C -15.5268 -6.8928 11.6179
C -10.9802 -11.488 12.3644
C -14.3189 -6.8928 12.3644
C -9.7723 -11.488 13.1109
C -13.9456 -5.744 13.1109
C -9.399 -10.3392 13.8575
C -12.7377 -5.744 13.8575
C -8.1911 -10.3392 14.604
C -12.3644 -4.5952 14.604
C -7.8178 -9.1904 15.3505
C -11.1565 -4.5952 15.3505
C -6.6099 -9.1904 16.0971
C -10.7832 -3.4464 16.0971
C -6.2367 -8.0416 16.8436
C -9.5753 -3.4464 16.8436
C -5.0287 -8.0416 17.5902
C -9.202 -2.2976 17.5902
C -4.6555 -6.8928 18.3367
C -7.9941 -2.2976 18.3367
C -3.4475 -6.8928 19.0832
C -7.6208 -1.1488 19.0832
C -3.0743 -5.744 19.8298
C -6.4129 -1.1488 19.8298
C -1.8663 -5.744 20.5763
C -1.4931 -4.5952 21.3229
C -10.8921 -14.9345 10.8713
C -17.5694 -5.744 10.8713
C -10.5188 -13.7856 11.6179
C -16.3614 -5.744 11.6179
C -9.3109 -13.7856 12.3644
C -15.9882 -4.5952 12.3644
C -8.9377 -12.6368 13.1109
C -14.7802 -4.5952 13.1109
C -7.7297 -12.6368 13.8575
C -14.407 -3.4464 13.8575
C -7.3565 -11.488 14.604
C -13.199 -3.4464 14.604
C -6.1485 -11.488 15.3505
C -12.8258 -2.2976 15.3505
C -5.7753 -10.3392 16.0971
C -11.6179 -2.2976 16.0971
C -4.5673 -10.3392 16.8436
C -11.2446 -1.1488 16.8436
C -4.1941 -9.1904 17.5902
C -10.0367 -1.1488 17.5902
C -2.9862 -9.1904 18.3367
C -2.6129 -8.0416 19.0832
C -10.0575 -16.0833 10.8713
C -18.404 -4.5952 10.8713
C -8.8495 -16.0833 11.6179
C -18.0307 -3.4464 11.6179
C -8.4763 -14.9345 12.3644
C -16.8228 -3.4464 12.3644
C -7.2683 -14.9345 13.1109
C -16.4496 -2.2976 13.1109
C -6.8951 -13.7856 13.8575
C -15.2416 -2.2976 13.8575
C -5.6872 -13.7856 14.604
C -14.8684 -1.1488 14.604
C -5.3139 -12.6368 15.3505
C -13.6604 -1.1488 15.3505
C -4.106 -12.6368 16.0971
C -3.7327 -11.488 16.8436
C -8.3882 -18.3809 10.8713
C -20.0733 -2.2976 10.8713
C -8.0149 -17.2321 11.6179
C -18.8654 -2.2976 11.6179
C -6.807 -17.2321 12.3644
C -18.4921 -1.1488 12.3644
C -6.4337 -16.0833 13.1109
C -17.2842 -1.1488 13.1109
C -5.2258 -16.0833 13.8575
C -4.8525 -14.9345 14.604
C -7.5535 -19.5297 10.8713
C -20.908 -1.1488 10.8713
C -6.3456 -19.5297 11.6179
C -5.9723 -18.3809 12.3644
C 6.7862 -16.2904 10.8713
C 4.0852 -17.168 10.8713
C 5.8089 -15.5804 11.6179
C 4.4584 -16.0192 11.6179
C 6.1822 -14.4316 12.3644
C 3.4812 -15.3092 12.3644
C 5.205 -13.7216 13.1109
C 3.8545 -14.1604 13.1109
C 5.5782 -12.5728 13.8575
C 2.8772 -13.4504 13.8575
C 4.601 -11.8628 14.604
C 3.2505 -12.3016 14.604
C 4.9743 -10.714 15.3505
C 2.2733 -11.5916 15.3505
C 3.997 -10.004 16.0971
C 2.6465 -10.4428 16.0971
C 4.3703 -8.8552 16.8436
C 1.6693 -9.7328 16.8436
C 3.3931 -8.1452 17.5902
C 2.0426 -8.584 17.5902
C 3.7663 -6.9964 18.3367
C 1.0653 -7.874 18.3367
C 2.7891 -6.2864 19.0832
C 1.4386 -6.7252 19.0832
C 3.1624 -5.1376 19.8298
C 0.4614 -6.0152 19.8298
C 2.1852 -4.4276 20.5763
C 0.8347 -4.8664 20.5763
C 2.5584 -3.2788 21.3229
C -0.1426 -4.1564 21.3229
C 1.5812 -2.5688 22.0694
C 0.2307 -3.0076 22.0694
C 8.1367 -15.8516 10.8713
C 2.7347 -17.6068 10.8713
C 8.5099 -14.7028 11.6179
C 1.7574 -16.8968 11.6179
C 7.5327 -13.9928 12.3644
C 2.1307 -15.748 12.3644
C 7.906 -12.844 13.1109
C 1.1535 -15.038 13.1109
C 6.9287 -12.134 13.8575
C 1.5267 -13.8892 13.8575
C 7.302 -10.9852 14.604
C 0.5495 -13.1792 14.604
C 6.3248 -10.2752 15.3505
C 0.9228 -12.0304 15.3505
C 6.698 -9.1264 16.0971
C -0.0545 -11.3204 16.0971
C 5.7208 -8.4164 16.8436
C 0.3188 -10.1716 16.8436
C 6.0941 -7.2676 17.5902
C -0.6584 -9.4616 17.5902
C 5.1168 -6.5576 18.3367
C -0.2852 -8.3128 18.3367
C 5.4901 -5.4088 19.0832
C -1.2624 -7.6028 19.0832
C 4.5129 -4.6988 19.8298
C -0.8891 -6.454 19.8298
C 10.8377 -14.974 10.8713
C 0.0337 -18.4845 10.8713
C 9.8604 -14.264 11.6179
C 0.4069 -17.3356 11.6179
C 10.2337 -13.1152 12.3644
C -0.5703 -16.6256 12.3644
C 9.2565 -12.4052 13.1109
C -0.197 -15.4768 13.1109
C 9.6297 -11.2564 13.8575
C -1.1743 -14.7668 13.8575
C 8.6525 -10.5464 14.604
C -0.801 -13.618 14.604
C 9.0258 -9.3976 15.3505
C -1.7782 -12.908 15.3505
C 8.0485 -8.6876 16.0971
C -1.405 -11.7592 16.0971
C 8.4218 -7.5388 16.8436
C -2.3822 -11.0492 16.8436
C 7.4446 -6.8288 17.5902
C -2.0089 -9.9004 17.5902
C 12.1882 -14.5352 10.8713
C -1.3168 -18.9233 10.8713
C 12.5614 -13.3864 11.6179
C -2.2941 -18.2133 11.6179
C 11.5842 -12.6764 12.3644
C -1.9208 -17.0645 12.3644
C 11.9575 -11.5276 13.1109
C -2.898 -16.3545 13.1109
C 10.9802 -10.8176 13.8575
C -2.5248 -15.2056 13.8575
C 11.3535 -9.6688 14.604
C -3.502 -14.4956 14.604
C 10.3763 -8.9588 15.3505
C -3.1287 -13.3468 15.3505
C 14.8892 -13.6576 10.8713
C -4.0178 -19.8009 10.8713
C 13.9119 -12.9476 11.6179
C -3.6446 -18.6521 11.6179
C 14.2852 -11.7988 12.3644
C -4.6218 -17.9421 12.3644
C 13.308 -11.0888 13.1109
C -4.2485 -16.7933 13.1109
C 16.2397 -13.2188 10.8713
C -5.3683 -20.2397 10.8713
C 17.8209 0.71 9.6634
C 17.8209 -0.71 9.6634
C 18.0515 1.42 8.4555
C 18.0515 -1.42 8.4555
C 18.2822 0.71 7.2475
C 18.2822 -0.71 7.2475
C 18.5129 1.42 6.0396
C 18.5129 -1.42 6.0396
C 18.7436 0.71 4.8317
C 18.7436 -0.71 4.8317
C 18.9743 1.42 3.6238
C 18.9743 -1.42 3.6238
C 19.205 0.71 2.4158
C 19.205 -0.71 2.4158
C 19.4357 1.42 1.2079
C 19.4357 -1.42 1.2079
C 19.6664 0.71 0
C 19.6664 -0.71 0
C 19.8971 1.42 -1.2079
C 19.8971 -1.42 -1.2079
C 20.1278 0.71 -2.4158
C 20.1278 -0.71 -2.4158
C 20.3585 1.42 -3.6238
C 20.3585 -1.42 -3.6238
C 20.5892 0.71 -4.8317
C 20.5892 -0.71 -4.8317
C 20.8199 1.42 -6.0396
C 20.8199 -1.42 -6.0396
C 21.0506 0.71 -7.2475
C 21.0506 -0.71 -7.2475
C 21.2812 1.42 -8.4555
C 21.2812 -1.42 -8.4555
C 21.5119 0.71 -9.6634
C 21.5119 -0.71 -9.6634
C 17.8209 3.55 9.6634
C 17.8209 -3.55 9.6634
C 18.0515 2.84 8.4555
C 18.0515 -2.84 8.4555
C 18.2822 3.55 7.2475
C 18.2822 -3.55 7.2475
C 18.5129 2.84 6.0396
C 18.5129 -2.84 6.0396
C 18.7436 3.55 4.8317
C 18.7436 -3.55 4.8317
C 18.9743 2.84 3.6238
C 18.9743 -2.84 3.6238
C 19.205 3.55 2.4158
C 19.205 -3.55 2.4158
C 19.4357 2.84 1.2079
C 19.4357 -2.84 1.2079
C 19.6664 3.55 0
C 19.6664 -3.55 0
C 19.8971 2.84 -1.2079
C 19.8971 -2.84 -1.2079
C 20.1278 3.55 -2.4158
C 20.1278 -3.55 -2.4158
C 20.3585 2.84 -3.6238
C 20.3585 -2.84 -3.6238
C 20.5892 3.55 -4.8317
C 20.5892 -3.55 -4.8317
C 20.8199 2.84 -6.0396
C 20.8199 -2.84 -6.0396
C 17.8209 4.97 9.6634
C 17.8209 -4.97 9.6634
C 18.0515 5.68 8.4555
C 18.0515 -5.68 8.4555
C 18.2822 4.97 7.2475
C 18.2822 -4.97 7.2475
C 18.5129 5.68 6.0396
C 18.5129 -5.68 6.0396
C 18.7436 4.97 4.8317
C 18.7436 -4.97 4.8317
C 18.9743 5.68 3.6238
C 18.9743 -5.68 3.6238
C 19.205 4.97 2.4158
C 19.205 -4.97 2.4158
C 19.4357 5.68 1.2079
C 19.4357 -5.68 1.2079
C 19.6664 4.97 0
C 19.6664 -4.97 0
C 19.8971 5.68 -1.2079
C 19.8971 -5.68 -1.2079
C 20.1278 4.97 -2.4158
C 20.1278 -4.97 -2.4158
C 17.8209 7.81 9.6634
C 17.8209 -7.81 9.6634
C 18.0515 7.1 8.4555
C 18.0515 -7.1 8.4555
C 18.2822 7.81 7.2475
C 18.2822 -7.81 7.2475
C 18.5129 7.1 6.0396
C 18.5129 -7.1 6.0396
C 18.7436 7.81 4.8317
C 18.7436 -7.81 4.8317
C 18.9743 7.1 3.6238
C 18.9743 -7.1 3.6238
C 19.205 7.81 2.4158
C 19.205 -7.81 2.4158
C 19.4357 7.1 1.2079
C 19.4357 -7.1 1.2079
C 17.8209 9.23 9.6634
C 17.8209 -9.23 9.6634
C 18.0515 9.94 8.4555
C 18.0515 -9.94 8.4555
C 18.2822 9.23 7.2475
C 18.2822 -9.23 7.2475
C 18.5129 9.94 6.0396
C 18.5129 -9.94 6.0396
C 18.7436 9.23 4.8317
C 18.7436 -9.23 4.8317
C 17.8209 12.07 9.6634
C 17.8209 -12.07 9.6634
C 18.0515 11.36 8.4555
C 18.0515 -11.36 8.4555
C 4.8317 17.168 9.6634
C 6.1822 16.7292 9.6634
C 4.2277 17.6068 8.4555
C 6.9287 16.7292 8.4555
C 4.9743 17.6068 7.2475
C 6.3248 17.168 7.2475
C 4.3703 18.0456 6.0396
C 7.0713 17.168 6.0396
C 5.1168 18.0456 4.8317
C 6.4673 17.6068 4.8317
C 4.5129 18.4845 3.6238
C 7.2139 17.6068 3.6238
C 5.2594 18.4845 2.4158
C 6.6099 18.0456 2.4158
C 4.6555 18.9233 1.2079
C 7.3565 18.0456 1.2079
C 5.402 18.9233 0
C 6.7525 18.4845 0
C 4.798 19.3621 -1.2079
C 7.499 18.4845 -1.2079
C 5.5446 19.3621 -2.4158
C 6.8951 18.9233 -2.4158
C 4.9406 19.8009 -3.6238
C 7.6416 18.9233 -3.6238
C 5.6872 19.8009 -4.8317
C 7.0377 19.3621 -4.8317
C 5.0832 20.2397 -6.0396
C 7.7842 19.3621 -6.0396
C 5.8297 20.2397 -7.2475
C 7.1802 19.8009 -7.2475
C 5.2258 20.6785 -8.4555
C 7.9268 19.8009 -8.4555
C 5.9723 20.6785 -9.6634
C 7.3228 20.2397 -9.6634
C 2.1307 18.0456 9.6634
C 8.8832 15.8516 9.6634
C 2.8772 18.0456 8.4555
C 8.2792 16.2904 8.4555
C 2.2733 18.4845 7.2475
C 9.0258 16.2904 7.2475
C 3.0198 18.4845 6.0396
C 8.4218 16.7292 6.0396
C 2.4158 18.9233 4.8317
C 9.1683 16.7292 4.8317
C 3.1624 18.9233 3.6238
C 8.5644 17.168 3.6238
C 2.5584 19.3621 2.4158
C 9.3109 17.168 2.4158
C 3.305 19.3621 1.2079
C 8.707 17.6068 1.2079
C 2.701 19.8009 0
C 9.4535 17.6068 0
C 3.4475 19.8009 -1.2079
C 8.8495 18.0456 -1.2079
C 2.8436 20.2397 -2.4158
C 9.5961 18.0456 -2.4158
C 3.5901 20.2397 -3.6238
C 8.9921 18.4845 -3.6238
C 2.9862 20.6785 -4.8317
C 9.7387 18.4845 -4.8317
C 3.7327 20.6785 -6.0396
C 9.1347 18.9233 -6.0396
C 0.7802 18.4845 9.6634
C 10.2337 15.4128 9.6634
C 0.1762 18.9233 8.4555
C 10.9802 15.4128 8.4555
C 0.9228 18.9233 7.2475
C 10.3763 15.8516 7.2475
C 0.3188 19.3621 6.0396
C 11.1228 15.8516 6.0396
C 1.0653 19.3621 4.8317
C 10.5188 16.2904 4.8317
C 0.4614 19.8009 3.6238
C 11.2654 16.2904 3.6238
C 1.2079 19.8009 2.4158
C 10.6614 16.7292 2.4158
C 0.604 20.2397 1.2079
C 11.408 16.7292 1.2079
C 1.3505 20.2397 0
C 10.804 17.168 0
C 0.7465 20.6785 -1.2079
C 11.5505 17.168 -1.2079
C 1.4931 20.6785 -2.4158
C 10.9466 17.6068 -2.4158
C -1.9208 19.3621 9.6634
C 12.9347 14.5352 9.6634
C -1.1743 19.3621 8.4555
C 12.3307 14.974 8.4555
C -1.7782 19.8009 7.2475
C 13.0773 14.974 7.2475
C -1.0317 19.8009 6.0396
C 12.4733 15.4128 6.0396
C -1.6357 20.2397 4.8317
C 13.2199 15.4128 4.8317
C -0.8891 20.2397 3.6238
C 12.6159 15.8516 3.6238
C -1.4931 20.6785 2.4158
C 13.3624 15.8516 2.4158
C -0.7465 20.6785 1.2079
C 12.7585 16.2904 1.2079
C -3.2713 19.8009 9.6634
C 14.2852 14.0964 9.6634
C -3.8753 20.2397 8.4555
C 15.0317 14.0964 8.4555
C -3.1287 20.2397 7.2475
C 14.4278 14.5352 7.2475
C -3.7327 20.6785 6.0396
C 15.1743 14.5352 6.0396
C -2.9862 20.6785 4.8317
C 14.5704 14.974 4.8317
C -5.9723 20.6785 9.6634
C 16.9862 13.2188 9.6634
C -5.2258 20.6785 8.4555
C 16.3822 13.6576 8.4555
C -14.8347 9.9004 9.6634
C -14 11.0492 9.6634
C -15.4387 9.4616 8.4555
C -13.7694 11.7592 8.4555
C -15.208 10.1716 7.2475
C -14.3733 11.3204 7.2475
C -15.8119 9.7328 6.0396
C -14.1426 12.0304 6.0396
C -15.5812 10.4428 4.8317
C -14.7466 11.5916 4.8317
C -16.1852 10.004 3.6238
C -14.5159 12.3016 3.6238
C -15.9545 10.714 2.4158
C -15.1199 11.8628 2.4158
C -16.5585 10.2752 1.2079
C -14.8892 12.5728 1.2079
C -16.3278 10.9852 0
C -15.4931 12.134 0
C -16.9317 10.5464 -1.2079
C -15.2624 12.844 -1.2079
C -16.701 11.2564 -2.4158
C -15.8664 12.4052 -2.4158
C -17.305 10.8176 -3.6238
C -15.6357 13.1152 -3.6238
C -17.0743 11.5276 -4.8317
C -16.2397 12.6764 -4.8317
C -17.6783 11.0888 -6.0396
C -16.009 13.3864 -6.0396
C -17.4476 11.7988 -7.2475
C -16.6129 12.9476 -7.2475
C -18.0515 11.36 -8.4555
C -16.3822 13.6576 -8.4555
C -17.8209 12.07 -9.6634
C -16.9862 13.2188 -9.6634
C -16.504 7.6028 9.6634
C -12.3307 13.3468 9.6634
C -16.2733 8.3128 8.4555
C -12.9347 12.908 8.4555
C -16.8773 7.874 7.2475
C -12.704 13.618 7.2475
C -16.6466 8.584 6.0396
C -13.308 13.1792 6.0396
C -17.2505 8.1452 4.8317
C -13.0773 13.8892 4.8317
C -17.0199 8.8552 3.6238
C -13.6812 13.4504 3.6238
C -17.6238 8.4164 2.4158
C -13.4505 14.1604 2.4158
C -17.3931 9.1264 1.2079
C -14.0545 13.7216 1.2079
C -17.9971 8.6876 0
C -13.8238 14.4316 0
C -17.7664 9.3976 -1.2079
C -14.4278 13.9928 -1.2079
C -18.3704 8.9588 -2.4158
C -14.1971 14.7028 -2.4158
C -18.1397 9.6688 -3.6238
C -14.801 14.264 -3.6238
C -18.7436 9.23 -4.8317
C -14.5704 14.974 -4.8317
C -18.5129 9.94 -6.0396
C -15.1743 14.5352 -6.0396
C -17.3387 6.454 9.6634
C -11.4961 14.4956 9.6634
C -17.9426 6.0152 8.4555
C -11.2654 15.2056 8.4555
C -17.7119 6.7252 7.2475
C -11.8693 14.7668 7.2475
C -18.3159 6.2864 6.0396
C -11.6387 15.4768 6.0396
C -18.0852 6.9964 4.8317
C -12.2426 15.038 4.8317
C -18.6892 6.5576 3.6238
C -12.0119 15.748 3.6238
C -18.4585 7.2676 2.4158
C -12.6159 15.3092 2.4158
C -19.0624 6.8288 1.2079
C -12.3852 16.0192 1.2079
C -18.8317 7.5388 0
C -12.9892 15.5804 0
C -19.4357 7.1 -1.2079
C -12.7585 16.2904 -1.2079
C -19.205 7.81 -2.4158
C -13.3624 15.8516 -2.4158
C -19.008 4.1564 9.6634
C -9.8268 16.7933 9.6634
C -18.7773 4.8664 8.4555
C -10.4307 16.3545 8.4555
C -19.3812 4.4276 7.2475
C -10.2 17.0645 7.2475
C -19.1506 5.1376 6.0396
C -10.804 16.6256 6.0396
C -19.7545 4.6988 4.8317
C -10.5733 17.3356 4.8317
C -19.5238 5.4088 3.6238
C -11.1773 16.8968 3.6238
C -20.1278 4.97 2.4158
C -10.9466 17.6068 2.4158
C -19.8971 5.68 1.2079
C -11.5505 17.168 1.2079
C -19.8426 3.0076 9.6634
C -8.9921 17.9421 9.6634
C -20.4466 2.5688 8.4555
C -8.7614 18.6521 8.4555
C -20.2159 3.2788 7.2475
C -9.3654 18.2133 7.2475
C -20.8199 2.84 6.0396
C -9.1347 18.9233 6.0396
C -20.5892 3.55 4.8317
C -9.7387 18.4845 4.8317
C -21.5119 0.71 9.6634
C -7.3228 20.2397 9.6634
C -21.2812 1.42 8.4555
C -7.9268 19.8009 8.4555
C -14 -11.0492 9.6634
C -14.8347 -9.9004 9.6634
C -13.7694 -11.7592 8.4555
C -15.4387 -9.4616 8.4555
C -14.3733 -11.3204 7.2475
C -15.208 -10.1716 7.2475
C -14.1426 -12.0304 6.0396
C -15.8119 -9.7328 6.0396
C -14.7466 -11.5916 4.8317
C -15.5812 -10.4428 4.8317
C -14.5159 -12.3016 3.6238
C -16.1852 -10.004 3.6238
C -15.1199 -11.8628 2.4158
C -15.9545 -10.714 2.4158
C -14.8892 -12.5728 1.2079
C -16.5585 -10.2752 1.2079
C -15.4931 -12.134 0
C -16.3278 -10.9852 0
C -15.2624 -12.844 -1.2079
C -16.9317 -10.5464 -1.2079
C -15.8664 -12.4052 -2.4158
C -16.701 -11.2564 -2.4158
C -15.6357 -13.1152 -3.6238
C -17.305 -10.8176 -3.6238
C -16.2397 -12.6764 -4.8317
C -17.0743 -11.5276 -4.8317
C -16.009 -13.3864 -6.0396
C -17.6783 -11.0888 -6.0396
C -16.6129 -12.9476 -7.2475
C -17.4476 -11.7988 -7.2475
C -16.3822 -13.6576 -8.4555
C -18.0515 -11.36 -8.4555
C -16.9862 -13.2188 -9.6634
C -17.8209 -12.07 -9.6634
C -12.3307 -13.3468 9.6634
C -16.504 -7.6028 9.6634
C -12.9347 -12.908 8.4555
C -16.2733 -8.3128 8.4555
C -12.704 -13.618 7.2475
C -16.8773 -7.874 7.2475
C -13.308 -13.1792 6.0396
C -16.6466 -8.584 6.0396
C -13.0773 -13.8892 4.8317
C -17.2505 -8.1452 4.8317
C -13.6812 -13.4504 3.6238
C -17.0199 -8.8552 3.6238
C -13.4505 -14.1604 2.4158
C -17.6238 -8.4164 2.4158
C -14.0545 -13.7216 1.2079
C -17.3931 -9.1264 1.2079
C -13.8238 -14.4316 0
C -17.9971 -8.6876 0
C -14.4278 -13.9928 -1.2079
C -17.7664 -9.3976 -1.2079
C -14.1971 -14.7028 -2.4158
C -18.3704 -8.9588 -2.4158
C -14.801 -14.264 -3.6238
C -18.1397 -9.6688 -3.6238
C -14.5704 -14.974 -4.8317
C -18.7436 -9.23 -4.8317
C -15.1743 -14.5352 -6.0396
C -18.5129 -9.94 -6.0396
C -11.4961 -14.4956 9.6634
C -17.3387 -6.454 9.6634
C -11.2654 -15.2056 8.4555
C -17.9426 -6.0152 8.4555
C -11.8693 -14.7668 7.2475
C -17.7119 -6.7252 7.2475
C -11.6387 -15.4768 6.0396
C -18.3159 -6.2864 6.0396
C -12.2426 -15.038 4.8317
C -18.0852 -6.9964 4.8317
C -12.0119 -15.748 3.6238
C -18.6892 -6.5576 3.6238
C -12.6159 -15.3092 2.4158
C -18.4585 -7.2676 2.4158
C -12.3852 -16.0192 1.2079
C -19.0624 -6.8288 1.2079
C -12.9892 -15.5804 0
C -18.8317 -7.5388 0
C -12.7585 -16.2904 -1.2079
C -19.4357 -7.1 -1.2079
C -13.3624 -15.8516 -2.4158
C -19.205 -7.81 -2.4158
C -9.8268 -16.7933 9.6634
C -19.008 -4.1564 9.6634
C -10.4307 -16.3545 8.4555
C -18.7773 -4.8664 8.4555
C -10.2 -17.0645 7.2475
C -19.3812 -4.4276 7.2475
C -10.804 -16.6256 6.0396
C -19.1506 -5.1376 6.0396
C -10.5733 -17.3356 4.8317
C -19.7545 -4.6988 4.8317
C -11.1773 -16.8968 3.6238
C -19.5238 -5.4088 3.6238
C -10.9466 -17.6068 2.4158
C -20.1278 -4.97 2.4158
C -11.5505 -17.168 1.2079
C -19.8971 -5.68 1.2079
C -8.9921 -17.9421 9.6634
C -19.8426 -3.0076 9.6634
C -8.7614 -18.6521 8.4555
C -20.4466 -2.5688 8.4555
C -9.3654 -18.2133 7.2475
C -20.2159 -3.2788 7.2475
C -9.1347 -18.9233 6.0396
C -20.8199 -2.84 6.0396
C -9.7387 -18.4845 4.8317
C -20.5892 -3.55 4.8317
C -7.3228 -20.2397 9.6634
C -21.5119 -0.71 9.6634
C -7.9268 -19.8009 8.4555
C -21.2812 -1.42 8.4555
C 6.1822 -16.7292 9.6634
C 4.8317 -17.168 9.6634
C 6.9287 -16.7292 8.4555
C 4.2277 -17.6068 8.4555
C 6.3248 -17.168 7.2475
C 4.9743 -17.6068 7.2475
C 7.0713 -17.168 6.0396
C 4.3703 -18.0456 6.0396
C 6.4673 -17.6068 4.8317
C 5.1168 -18.0456 4.8317
C 7.2139 -17.6068 3.6238
C 4.5129 -18.4845 3.6238
C 6.6099 -18.0456 2.4158
C 5.2594 -18.4845 2.4158
C 7.3565 -18.0456 1.2079
C 4.6555 -18.9233 1.2079
C 6.7525 -18.4845 0
C 5.402 -18.9233 0
C 7.499 -18.4845 -1.2079
C 4.798 -19.3621 -1.2079
C 6.8951 -18.9233 -2.4158
C 5.5446 -19.3621 -2.4158
C 7.6416 -18.9233 -3.6238
C 4.9406 -19.8009 -3.6238
C 7.0377 -19.3621 -4.8317
C 5.6872 -19.8009 -4.8317
C 7.7842 -19.3621 -6.0396
C 5.0832 -20.2397 -6.0396
C 7.1802 -19.8009 -7.2475
C 5.8297 -20.2397 -7.2475
C 7.9268 -19.8009 -8.4555
C 5.2258 -20.6785 -8.4555
C 7.3228 -20.2397 -9.6634
C 5.9723 -20.6785 -9.6634
C 8.8832 -15.8516 9.6634
C 2.1307 -18.0456 9.6634
C 8.2792 -16.2904 8.4555
C 2.8772 -18.0456 8.4555
C 9.0258 -16.2904 7.2475
C 2.2733 -18.4845 7.2475
C 8.4218 -16.7292 6.0396
C 3.0198 -18.4845 6.0396
C 9.1683 -16.7292 4.8317
C 2.4158 -18.9233 4.8317
C 8.5644 -17.168 3.6238
C 3.1624 -18.9233 3.6238
C 9.3109 -17.168 2.4158
C 2.5584 -19.3621 2.4158
C 8.707 -17.6068 1.2079
C 3.305 -19.3621 1.2079
C 9.4535 -17.6068 0
C 2.701 -19.8009 0
C 8.8495 -18.0456 -1.2079
C 3.4475 -19.8009 -1.2079
C 9.5961 -18.0456 -2.4158
C 2.8436 -20.2397 -2.4158
C 8.9921 -18.4845 -3.6238
C 3.5901 -20.2397 -3.6238
C 9.7387 -18.4845 -4.8317
C 2.9862 -20.6785 -4.8317
C 9.1347 -18.9233 -6.0396
C 3.7327 -20.6785 -6.0396
C 10.2337 -15.4128 9.6634
C 0.7802 -18.4845 9.6634
C 10.9802 -15.4128 8.4555
C 0.1762 -18.9233 8.4555
C 10.3763 -15.8516 7.2475
C 0.9228 -18.9233 7.2475
C 11.1228 -15.8516 6.0396
C 0.3188 -19.3621 6.0396
C 10.5188 -16.2904 4.8317
C 1.0653 -19.3621 4.8317
C 11.2654 -16.2904 3.6238
C 0.4614 -19.8009 3.6238
C 10.6614 -16.7292 2.4158
C 1.2079 -19.8009 2.4158
C 11.408 -16.7292 1.2079
C 0.604 -20.2397 1.2079
C 10.804 -17.168 0
C 1.3505 -20.2397 0
C 11.5505 -17.168 -1.2079
C 0.7465 -20.6785 -1.2079
C 10.9466 -17.6068 -2.4158
C 1.4931 -20.6785 -2.4158
C 12.9347 -14.5352 9.6634
C -1.9208 -19.3621 9.6634
C 12.3307 -14.974 8.4555
C -1.1743 -19.3621 8.4555
C 13.0773 -14.974 7.2475
C -1.7782 -19.8009 7.2475
C 12.4733 -15.4128 6.0396
C -1.0317 -19.8009 6.0396
C 13.2199 -15.4128 4.8317
C -1.6357 -20.2397 4.8317
C 12.6159 -15.8516 3.6238
C -0.8891 -20.2397 3.6238
C 13.3624 -15.8516 2.4158
C -1.4931 -20.6785 2.4158
C 12.7585 -16.2904 1.2079
C -0.7465 -20.6785 1.2079
C 14.2852 -14.0964 9.6634
C -3.2713 -19.8009 9.6634
C 15.0317 -14.0964 8.4555
C -3.8753 -20.2397 8.4555
C 14.4278 -14.5352 7.2475
C -3.1287 -20.2397 7.2475
C 15.1743 -14.5352 6.0396
C -3.7327 -20.6785 6.0396
C 14.5704 -14.974 4.8317
C -2.9862 -20.6785 4.8317
C 16.9862 -13.2188 9.6634
C -5.9723 -20.6785 9.6634
C 16.3822 -13.6576 8.4555
C -5.2258 -20.6785 8.4555
C 13.3961 11.488 -10.8713
C 15.0654 9.1904 -10.8713
C 14 11.0492 -9.6634
C 14.8347 9.9004 -9.6634
C 13.7694 11.7592 -8.4555
C 15.4387 9.4616 -8.4555
C 14.3733 11.3204 -7.2475
C 15.208 10.1716 -7.2475
C 14.1426 12.0304 -6.0396
C 15.8119 9.7328 -6.0396
C 14.7466 11.5916 -4.8317
C 15.5812 10.4428 -4.8317
C 14.5159 12.3016 -3.6238
C 16.1852 10.004 -3.6238
C 15.1199 11.8628 -2.4158
C 15.9545 10.714 -2.4158
C 14.8892 12.5728 -1.2079
C 16.5585 10.2752 -1.2079
C 15.4931 12.134 0
C 16.3278 10.9852 0
C 15.2624 12.844 1.2079
C 16.9317 10.5464 1.2079
C 15.8664 12.4052 2.4158
C 16.701 11.2564 2.4158
C 15.6357 13.1152 3.6238
C 17.305 10.8176 3.6238
C 16.2397 12.6764 4.8317
C 17.0743 11.5276 4.8317
C 16.009 13.3864 6.0396
C 17.6783 11.0888 6.0396
C 16.6129 12.9476 7.2475
C 17.4476 11.7988 7.2475
C 12.5614 12.6368 -10.8713
C 15.9 8.0416 -10.8713
C 12.3307 13.3468 -9.6634
C 16.504 7.6028 -9.6634
C 12.9347 12.908 -8.4555
C 16.2733 8.3128 -8.4555
C 12.704 13.618 -7.2475
C 16.8773 7.874 -7.2475
C 13.308 13.1792 -6.0396
C 16.6466 8.584 -6.0396
C 13.0773 13.8892 -4.8317
C 17.2505 8.1452 -4.8317
C 13.6812 13.4504 -3.6238
C 17.0199 8.8552 -3.6238
C 13.4505 14.1604 -2.4158
C 17.6238 8.4164 -2.4158
C 14.0545 13.7216 -1.2079
C 17.3931 9.1264 -1.2079
C 13.8238 14.4316 0
C 17.9971 8.6876 0
C 14.4278 13.9928 1.2079
C 17.7664 9.3976 1.2079
C 14.1971 14.7028 2.4158
C 18.3704 8.9588 2.4158
C 14.801 14.264 3.6238
C 18.1397 9.6688 3.6238
C 10.8921 14.9345 -10.8713
C 17.5694 5.744 -10.8713
C 11.4961 14.4956 -9.6634
C 17.3387 6.454 -9.6634
C 11.2654 15.2056 -8.4555
C 17.9426 6.0152 -8.4555
C 11.8693 14.7668 -7.2475
C 17.7119 6.7252 -7.2475
C 11.6387 15.4768 -6.0396
C 18.3159 6.2864 -6.0396
C 12.2426 15.038 -4.8317
C 18.0852 6.9964 -4.8317
C 12.0119 15.748 -3.6238
C 18.6892 6.5576 -3.6238
C 12.6159 15.3092 -2.4158
C 18.4585 7.2676 -2.4158
C 12.3852 16.0192 -1.2079
C 19.0624 6.8288 -1.2079
C 12.9892 15.5804 0
C 18.8317 7.5388 0
C 10.0575 16.0833 -10.8713
C 18.404 4.5952 -10.8713
C 9.8268 16.7933 -9.6634
C 19.008 4.1564 -9.6634
C 10.4307 16.3545 -8.4555
C 18.7773 4.8664 -8.4555
C 10.2 17.0645 -7.2475
C 19.3812 4.4276 -7.2475
C 10.804 16.6256 -6.0396
C 19.1506 5.1376 -6.0396
C 10.5733 17.3356 -4.8317
C 19.7545 4.6988 -4.8317
C 11.1773 16.8968 -3.6238
C 19.5238 5.4088 -3.6238
C 8.3882 18.3809 -10.8713
C 20.0733 2.2976 -10.8713
C 8.9921 17.9421 -9.6634
C 19.8426 3.0076 -9.6634
C 8.7614 18.6521 -8.4555
C 20.4466 2.5688 -8.4555
C 9.3654 18.2133 -7.2475
C 20.2159 3.2788 -7.2475
C 7.5535 19.5297 -10.8713
C 20.908 1.1488 -10.8713
C -6.7862 16.2904 -10.8713
C -4.0852 17.168 -10.8713
C -6.1822 16.7292 -9.6634
C -4.8317 17.168 -9.6634
C -6.9287 16.7292 -8.4555
C -4.2277 17.6068 -8.4555
C -6.3248 17.168 -7.2475
C -4.9743 17.6068 -7.2475
C -7.0713 17.168 -6.0396
C -4.3703 18.0456 -6.0396
C -6.4673 17.6068 -4.8317
C -5.1168 18.0456 -4.8317
C -7.2139 17.6068 -3.6238
C -4.5129 18.4845 -3.6238
C -6.6099 18.0456 -2.4158
C -5.2594 18.4845 -2.4158
C -7.3565 18.0456 -1.2079
C -4.6555 18.9233 -1.2079
C -6.7525 18.4845 0
C -5.402 18.9233 0
C -7.499 18.4845 1.2079
C -4.798 19.3621 1.2079
C -6.8951 18.9233 2.4158
C -5.5446 19.3621 2.4158
C -7.6416 18.9233 3.6238
C -4.9406 19.8009 3.6238
C -7.0377 19.3621 4.8317
C -5.6872 19.8009 4.8317
C -7.7842 19.3621 6.0396
C -5.0832 20.2397 6.0396
C -7.1802 19.8009 7.2475
C -5.8297 20.2397 7.2475
C -8.1367 15.8516 -10.8713
C -2.7347 17.6068 -10.8713
C -8.8832 15.8516 -9.6634
C -2.1307 18.0456 -9.6634
C -8.2792 16.2904 -8.4555
C -2.8772 18.0456 -8.4555
C -9.0258 16.2904 -7.2475
C -2.2733 18.4845 -7.2475
C -8.4218 16.7292 -6.0396
C -3.0198 18.4845 -6.0396
C -9.1683 16.7292 -4.8317
C -2.4158 18.9233 -4.8317
C -8.5644 17.168 -3.6238
C -3.1624 18.9233 -3.6238
C -9.3109 17.168 -2.4158
C -2.5584 19.3621 -2.4158
C -8.707 17.6068 -1.2079
C -3.305 19.3621 -1.2079
C -9.4535 17.6068 0
C -2.701 19.8009 0
C -8.8495 18.0456 1.2079
C -3.4475 19.8009 1.2079
C -9.5961 18.0456 2.4158
C -2.8436 20.2397 2.4158
C -8.9921 18.4845 3.6238
C -3.5901 20.2397 3.6238
C -10.8377 14.974 -10.8713
C -0.0337 18.4845 -10.8713
C -10.2337 15.4128 -9.6634
C -0.7802 18.4845 -9.6634
C -10.9802 15.4128 -8.4555
C -0.1762 18.9233 -8.4555
C -10.3763 15.8516 -7.2475
C -0.9228 18.9233 -7.2475
C -11.1228 15.8516 -6.0396
C -0.3188 19.3621 -6.0396
C -10.5188 16.2904 -4.8317
C -1.0653 19.3621 -4.8317
C -11.2654 16.2904 -3.6238
C -0.4614 19.8009 -3.6238
C -10.6614 16.7292 -2.4158
C -1.2079 19.8009 -2.4158
C -11.408 16.7292 -1.2079
C -0.604 20.2397 -1.2079
C -10.804 17.168 0
C -1.3505 20.2397 0
C -12.1882 14.5352 -10.8713
C 1.3168 18.9233 -10.8713
C -12.9347 14.5352 -9.6634
C 1.9208 19.3621 -9.6634
C -12.3307 14.974 -8.4555
C 1.1743 19.3621 -8.4555
C -13.0773 14.974 -7.2475
C 1.7782 19.8009 -7.2475
C -12.4733 15.4128 -6.0396
C 1.0317 19.8009 -6.0396
C -13.2199 15.4128 -4.8317
C 1.6357 20.2397 -4.8317
C -12.6159 15.8516 -3.6238
C 0.8891 20.2397 -3.6238
C -14.8892 13.6576 -10.8713
C 4.0178 19.8009 -10.8713
C -14.2852 14.0964 -9.6634
C 3.2713 19.8009 -9.6634
C -15.0317 14.0964 -8.4555
C 3.8753 20.2397 -8.4555
C -14.4278 14.5352 -7.2475
C 3.1287 20.2397 -7.2475
C -16.2397 13.2188 -10.8713
C 5.3683 20.2397 -10.8713
C -17.5902 -1.42 -10.8713
C -17.5902 1.42 -10.8713
C -17.8209 -0.71 -9.6634
C -17.8209 0.71 -9.6634
C -18.0515 -1.42 -8.4555
C -18.0515 1.42 -8.4555
C -18.2822 -0.71 -7.2475
C -18.2822 0.71 -7.2475
C -18.5129 -1.42 -6.0396
C -18.5129 1.42 -6.0396
C -18.7436 -0.71 -4.8317
C -18.7436 0.71 -4.8317
C -18.9743 -1.42 -3.6238
C -18.9743 1.42 -3.6238
C -19.205 -0.71 -2.4158
C -19.205 0.71 -2.4158
C -19.4357 -1.42 -1.2079
C -19.4357 1.42 -1.2079
C -19.6664 -0.71 0
C -19.6664 0.71 0
C -19.8971 -1.42 1.2079
C -19.8971 1.42 1.2079
C -20.1278 -0.71 2.4158
C -20.1278 0.71 2.4158
C -20.3585 -1.42 3.6238
C -20.3585 1.42 3.6238
C -20.5892 -0.71 4.8317
C -20.5892 0.71 4.8317
C -20.8199 -1.42 6.0396
C -20.8199 1.42 6.0396
C -21.0506 -0.71 7.2475
C -21.0506 0.71 7.2475
C -17.5902 -2.84 -10.8713
C -17.5902 2.84 -10.8713
C -17.8209 -3.55 -9.6634
C -17.8209 3.55 -9.6634
C -18.0515 -2.84 -8.4555
C -18.0515 2.84 -8.4555
C -18.2822 -3.55 -7.2475
C -18.2822 3.55 -7.2475
C -18.5129 -2.84 -6.0396
C -18.5129 2.84 -6.0396
C -18.7436 -3.55 -4.8317
C -18.7436 3.55 -4.8317
C -18.9743 -2.84 -3.6238
C -18.9743 2.84 -3.6238
C -19.205 -3.55 -2.4158
C -19.205 3.55 -2.4158
C -19.4357 -2.84 -1.2079
C -19.4357 2.84 -1.2079
C -19.6664 -3.55 0
C -19.6664 3.55 0
C -19.8971 -2.84 1.2079
C -19.8971 2.84 1.2079
C -20.1278 -3.55 2.4158
C -20.1278 3.55 2.4158
C -20.3585 -2.84 3.6238
C -20.3585 2.84 3.6238
C -17.5902 -5.68 -10.8713
C -17.5902 5.68 -10.8713
C -17.8209 -4.97 -9.6634
C -17.8209 4.97 -9.6634
C -18.0515 -5.68 -8.4555
C -18.0515 5.68 -8.4555
C -18.2822 -4.97 -7.2475
C -18.2822 4.97 -7.2475
C -18.5129 -5.68 -6.0396
C -18.5129 5.68 -6.0396
C -18.7436 -4.97 -4.8317
C -18.7436 4.97 -4.8317
C -18.9743 -5.68 -3.6238
C -18.9743 5.68 -3.6238
C -19.205 -4.97 -2.4158
C -19.205 4.97 -2.4158
C -19.4357 -5.68 -1.2079
C -19.4357 5.68 -1.2079
C -19.6664 -4.97 0
C -19.6664 4.97 0
C -17.5902 -7.1 -10.8713
C -17.5902 7.1 -10.8713
C -17.8209 -7.81 -9.6634
C -17.8209 7.81 -9.6634
C -18.0515 -7.1 -8.4555
C -18.0515 7.1 -8.4555
C -18.2822 -7.81 -7.2475
C -18.2822 7.81 -7.2475
C -18.5129 -7.1 -6.0396
C -18.5129 7.1 -6.0396
C -18.7436 -7.81 -4.8317
C -18.7436 7.81 -4.8317
C -18.9743 -7.1 -3.6238
C -18.9743 7.1 -3.6238
C -17.5902 -9.94 -10.8713
C -17.5902 9.94 -10.8713
C -17.8209 -9.23 -9.6634
C -17.8209 9.23 -9.6634
C -18.0515 -9.94 -8.4555
C -18.0515 9.94 -8.4555
C -18.2822 -9.23 -7.2475
C -18.2822 9.23 -7.2475
C -17.5902 -11.36 -10.8713
C -17.5902 11.36 -10.8713
C -4.0852 -17.168 -10.8713
C -6.7862 -16.2904 -10.8713
C -4.8317 -17.168 -9.6634
C -6.1822 -16.7292 -9.6634
C -4.2277 -17.6068 -8.4555
C -6.9287 -16.7292 -8.4555
C -4.9743 -17.6068 -7.2475
C -6.3248 -17.168 -7.2475
C -4.3703 -18.0456 -6.0396
C -7.0713 -17.168 -6.0396
C -5.1168 -18.0456 -4.8317
C -6.4673 -17.6068 -4.8317
C -4.5129 -18.4845 -3.6238
C -7.2139 -17.6068 -3.6238
C -5.2594 -18.4845 -2.4158
C -6.6099 -18.0456 -2.4158
C -4.6555 -18.9233 -1.2079
C -7.3565 -18.0456 -1.2079
C -5.402 -18.9233 0
C -6.7525 -18.4845 0
C -4.798 -19.3621 1.2079
C -7.499 -18.4845 1.2079
C -5.5446 -19.3621 2.4158
C -6.8951 -18.9233 2.4158
C -4.9406 -19.8009 3.6238
C -7.6416 -18.9233 3.6238
C -5.6872 -19.8009 4.8317
C -7.0377 -19.3621 4.8317
C -5.0832 -20.2397 6.0396
C -7.7842 -19.3621 6.0396
C -5.8297 -20.2397 7.2475
C -7.1802 -19.8009 7.2475
C -2.7347 -17.6068 -10.8713
C -8.1367 -15.8516 -10.8713
C -2.1307 -18.0456 -9.6634
C -8.8832 -15.8516 -9.6634
C -2.8772 -18.0456 -8.4555
C -8.2792 -16.2904 -8.4555
C -2.2733 -18.4845 -7.2475
C -9.0258 -16.2904 -7.2475
C -3.0198 -18.4845 -6.0396
C -8.4218 -16.7292 -6.0396
C -2.4158 -18.9233 -4.8317
C -9.1683 -16.7292 -4.8317
C -3.1624 -18.9233 -3.6238
C -8.5644 -17.168 -3.6238
C -2.5584 -19.3621 -2.4158
C -9.3109 -17.168 -2.4158
C -3.305 -19.3621 -1.2079
C -8.707 -17.6068 -1.2079
C -2.701 -19.8009 0
C -9.4535 -17.6068 0
C -3.4475 -19.8009 1.2079
C -8.8495 -18.0456 1.2079
C -2.8436 -20.2397 2.4158
C -9.5961 -18.0456 2.4158
C -3.5901 -20.2397 3.6238
C -8.9921 -18.4845 3.6238
C -0.0337 -18.4845 -10.8713
C -10.8377 -14.974 -10.8713
C -0.7802 -18.4845 -9.6634
C -10.2337 -15.4128 -9.6634
C -0.1762 -18.9233 -8.4555
C -10.9802 -15.4128 -8.4555
C -0.9228 -18.9233 -7.2475
C -10.3763 -15.8516 -7.2475
C -0.3188 -19.3621 -6.0396
C -11.1228 -15.8516 -6.0396
C -1.0653 -19.3621 -4.8317
C -10.5188 -16.2904 -4.8317
C -0.4614 -19.8009 -3.6238
C -11.2654 -16.2904 -3.6238
C -1.2079 -19.8009 -2.4158
C -10.6614 -16.7292 -2.4158
C -0.604 -20.2397 -1.2079
C -11.408 -16.7292 -1.2079
C -1.3505 -20.2397 0
C -10.804 -17.168 0
C 1.3168 -18.9233 -10.8713
C -12.1882 -14.5352 -10.8713
C 1.9208 -19.3621 -9.6634
C -12.9347 -14.5352 -9.6634
C 1.1743 -19.3621 -8.4555
C -12.3307 -14.974 -8.4555
C 1.7782 -19.8009 -7.2475
C -13.0773 -14.974 -7.2475
C 1.0317 -19.8009 -6.0396
C -12.4733 -15.4128 -6.0396
C 1.6357 -20.2397 -4.8317
C -13.2199 -15.4128 -4.8317
C 0.8891 -20.2397 -3.6238
C -12.6159 -15.8516 -3.6238
C 4.0178 -19.8009 -10.8713
C -14.8892 -13.6576 -10.8713
C 3.2713 -19.8009 -9.6634
C -14.2852 -14.0964 -9.6634
C 3.8753 -20.2397 -8.4555
C -15.0317 -14.0964 -8.4555
C 3.1287 -20.2397 -7.2475
C -14.4278 -14.5352 -7.2475
C 5.3683 -20.2397 -10.8713
C -16.2397 -13.2188 -10.8713
C 15.0654 -9.1904 -10.8713
C 13.3961 -11.488 -10.8713
C 14.8347 -9.9004 -9.6634
C 14 -11.0492 -9.6634
C 15.4387 -9.4616 -8.4555
C 13.7694 -11.7592 -8.4555
C 15.208 -10.1716 -7.2475
C 14.3733 -11.3204 -7.2475
C 15.8119 -9.7328 -6.0396
C 14.1426 -12.0304 -6.0396
C 15.5812 -10.4428 -4.8317
C 14.7466 -11.5916 -4.8317
C 16.1852 -10.004 -3.6238
C 14.5159 -12.3016 -3.6238
C 15.9545 -10.714 -2.4158
C 15.1199 -11.8628 -2.4158
C 16.5585 -10.2752 -1.2079
C 14.8892 -12.5728 -1.2079
C 16.3278 -10.9852 0
C 15.4931 -12.134 0
C 16.9317 -10.5464 1.2079
C 15.2624 -12.844 1.2079
C 16.701 -11.2564 2.4158
C 15.8664 -12.4052 2.4158
C 17.305 -10.8176 3.6238
C 15.6357 -13.1152 3.6238
C 17.0743 -11.5276 4.8317
C 16.2397 -12.6764 4.8317
C 17.6783 -11.0888 6.0396
C 16.009 -13.3864 6.0396
C 17.4476 -11.7988 7.2475
C 16.6129 -12.9476 7.2475
C 15.9 -8.0416 -10.8713
C 12.5614 -12.6368 -10.8713
C 16.504 -7.6028 -9.6634
C 12.3307 -13.3468 -9.6634
C 16.2733 -8.3128 -8.4555
C 12.9347 -12.908 -8.4555
C 16.8773 -7.874 -7.2475
C 12.704 -13.618 -7.2475
C 16.6466 -8.584 -6.0396
C 13.308 -13.1792 -6.0396
C 17.2505 -8.1452 -4.8317
C 13.0773 -13.8892 -4.8317
C 17.0199 -8.8552 -3.6238
C 13.6812 -13.4504 -3.6238
C 17.6238 -8.4164 -2.4158
C 13.4505 -14.1604 -2.4158
C 17.3931 -9.1264 -1.2079
C 14.0545 -13.7216 -1.2079
C 17.9971 -8.6876 0
C 13.8238 -14.4316 0
C 17.7664 -9.3976 1.2079
C 14.4278 -13.9928 1.2079
C 18.3704 -8.9588 2.4158
C 14.1971 -14.7028 2.4158
C 18.1397 -9.6688 3.6238
C 14.801 -14.264 3.6238
C 17.5694 -5.744 -10.8713
C 10.8921 -14.9345 -10.8713
C 17.3387 -6.454 -9.6634
C 11.4961 -14.4956 -9.6634
C 17.9426 -6.0152 -8.4555
C 11.2654 -15.2056 -8.4555
C 17.7119 -6.7252 -7.2475
C 11.8693 -14.7668 -7.2475
C 18.3159 -6.2864 -6.0396
C 11.6387 -15.4768 -6.0396
C 18.0852 -6.9964 -4.8317
C 12.2426 -15.038 -4.8317
C 18.6892 -6.5576 -3.6238
C 12.0119 -15.748 -3.6238
C 18.4585 -7.2676 -2.4158
C 12.6159 -15.3092 -2.4158
C 19.0624 -6.8288 -1.2079
C 12.3852 -16.0192 -1.2079
C 18.8317 -7.5388 0
C 12.9892 -15.5804 0
C 18.404 -4.5952 -10.8713
C 10.0575 -16.0833 -10.8713
C 19.008 -4.1564 -9.6634
C 9.8268 -16.7933 -9.6634
C 18.7773 -4.8664 -8.4555
C 10.4307 -16.3545 -8.4555
C 19.3812 -4.4276 -7.2475
C 10.2 -17.0645 -7.2475
C 19.1506 -5.1376 -6.0396
C 10.804 -16.6256 -6.0396
C 19.7545 -4.6988 -4.8317
C 10.5733 -17.3356 -4.8317
C 19.5238 -5.4088 -3.6238
C 11.1773 -16.8968 -3.6238
C 20.0733 -2.2976 -10.8713
C 8.3882 -18.3809 -10.8713
C 19.8426 -3.0076 -9.6634
C 8.9921 -17.9421 -9.6634
C 20.4466 -2.5688 -8.4555
C 8.7614 -18.6521 -8.4555
C 20.2159 -3.2788 -7.2475
C 9.3654 -18.2133 -7.2475
C 20.908 -1.1488 -10.8713
C 7.5535 -19.5297 -10.8713
C 13.0228 10.3392 -11.6179
C 13.8575 9.1904 -11.6179
C 11.8149 10.3392 -12.3644
C 13.4842 8.0416 -12.3644
C 11.4416 9.1904 -13.1109
C 12.2763 8.0416 -13.1109
C 10.2337 9.1904 -13.8575
C 11.903 6.8928 -13.8575
C 9.8604 8.0416 -14.604
C 10.6951 6.8928 -14.604
C 8.6525 8.0416 -15.3505
C 10.3218 5.744 -15.3505
C 8.2792 6.8928 -16.0971
C 9.1139 5.744 -16.0971
C 7.0713 6.8928 -16.8436
C 8.7406 4.5952 -16.8436
C 6.698 5.744 -17.5902
C 7.5327 4.5952 -17.5902
C 5.4901 5.744 -18.3367
C 7.1594 3.4464 -18.3367
C 5.1168 4.5952 -19.0832
C 5.9515 3.4464 -19.0832
C 3.9089 4.5952 -19.8298
C 5.5782 2.2976 -19.8298
C 3.5357 3.4464 -20.5763
C 4.3703 2.2976 -20.5763
C 2.3277 3.4464 -21.3229
C 3.997 1.1488 -21.3229
C 1.9545 2.2976 -22.0694
C 2.7891 1.1488 -22.0694
C 0.7465 2.2976 -22.8159
C 2.4158 0 -22.8159
C 0.3733 1.1488 -23.5625
C 1.2079 0 -23.5625
C 11.3535 12.6368 -11.6179
C 15.5268 6.8928 -11.6179
C 10.9802 11.488 -12.3644
C 14.3189 6.8928 -12.3644
C 9.7723 11.488 -13.1109
C 13.9456 5.744 -13.1109
C 9.399 10.3392 -13.8575
C 12.7377 5.744 -13.8575
C 8.1911 10.3392 -14.604
C 12.3644 4.5952 -14.604
C 7.8178 9.1904 -15.3505
C 11.1565 4.5952 -15.3505
C 6.6099 9.1904 -16.0971
C 10.7832 3.4464 -16.0971
C 6.2367 8.0416 -16.8436
C 9.5753 3.4464 -16.8436
C 5.0287 8.0416 -17.5902
C 9.202 2.2976 -17.5902
C 4.6555 6.8928 -18.3367
C 7.9941 2.2976 -18.3367
C 3.4475 6.8928 -19.0832
C 7.6208 1.1488 -19.0832
C 3.0743 5.744 -19.8298
C 6.4129 1.1488 -19.8298
C 1.8663 5.744 -20.5763
C 6.0396 0 -20.5763
C 1.4931 4.5952 -21.3229
C 4.8317 0 -21.3229
C 10.5188 13.7856 -11.6179
C 16.3614 5.744 -11.6179
C 9.3109 13.7856 -12.3644
C 15.9882 4.5952 -12.3644
C 8.9377 12.6368 -13.1109
C 14.7802 4.5952 -13.1109
C 7.7297 12.6368 -13.8575
C 14.407 3.4464 -13.8575
C 7.3565 11.488 -14.604
C 13.199 3.4464 -14.604
C 6.1485 11.488 -15.3505
C 12.8258 2.2976 -15.3505
C 5.7753 10.3392 -16.0971
C 11.6179 2.2976 -16.0971
C 4.5673 10.3392 -16.8436
C 11.2446 1.1488 -16.8436
C 4.1941 9.1904 -17.5902
C 10.0367 1.1488 -17.5902
C 2.9862 9.1904 -18.3367
C 9.6634 0 -18.3367
C 2.6129 8.0416 -19.0832
C 8.4555 0 -19.0832
C 8.8495 16.0833 -11.6179
C 18.0307 3.4464 -11.6179
C 8.4763 14.9345 -12.3644
C 16.8228 3.4464 -12.3644
C 7.2683 14.9345 -13.1109
C 16.4496 2.2976 -13.1109
C 6.8951 13.7856 -13.8575
C 15.2416 2.2976 -13.8575
C 5.6872 13.7856 -14.604
C 14.8684 1.1488 -14.604
C 5.3139 12.6368 -15.3505
C 13.6604 1.1488 -15.3505
C 4.106 12.6368 -16.0971
C 13.2872 0 -16.0971
C 3.7327 11.488 -16.8436
C 12.0792 0 -16.8436
C 8.0149 17.2321 -11.6179
C 18.8654 2.2976 -11.6179
C 6.807 17.2321 -12.3644
C 18.4921 1.1488 -12.3644
C 6.4337 16.0833 -13.1109
C 17.2842 1.1488 -13.1109
C 5.2258 16.0833 -13.8575
C 16.9109 0 -13.8575
C 4.8525 14.9345 -14.604
C 15.703 0 -14.604
C 6.3456 19.5297 -11.6179
C 20.5347 0 -11.6179
C 5.9723 18.3809 -12.3644
C 19.3268 0 -12.3644
C -5.8089 15.5804 -11.6179
C -4.4584 16.0192 -11.6179
C -6.1822 14.4316 -12.3644
C -3.4812 15.3092 -12.3644
C -5.205 13.7216 -13.1109
C -3.8545 14.1604 -13.1109
C -5.5782 12.5728 -13.8575
C -2.8772 13.4504 -13.8575
C -4.601 11.8628 -14.604
C -3.2505 12.3016 -14.604
C -4.9743 10.714 -15.3505
C -2.2733 11.5916 -15.3505
C -3.997 10.004 -16.0971
C -2.6465 10.4428 -16.0971
C -4.3703 8.8552 -16.8436
C -1.6693 9.7328 -16.8436
C -3.3931 8.1452 -17.5902
C -2.0426 8.584 -17.5902
C -3.7663 6.9964 -18.3367
C -1.0653 7.874 -18.3367
C -2.7891 6.2864 -19.0832
C -1.4386 6.7252 -19.0832
C -3.1624 5.1376 -19.8298
C -0.4614 6.0152 -19.8298
C -2.1852 4.4276 -20.5763
C -0.8347 4.8664 -20.5763
C -2.5584 3.2788 -21.3229
C 0.1426 4.1564 -21.3229
C -1.5812 2.5688 -22.0694
C -0.2307 3.0076 -22.0694
C -1.9545 1.42 -22.8159
C -0.9772 0.71 -23.5625
C -8.5099 14.7028 -11.6179
C -1.7574 16.8968 -11.6179
C -7.5327 13.9928 -12.3644
C -2.1307 15.748 -12.3644
C -7.906 12.844 -13.1109
C -1.1535 15.038 -13.1109
C -6.9287 12.134 -13.8575
C -1.5267 13.8892 -13.8575
C -7.302 10.9852 -14.604
C -0.5495 13.1792 -14.604
C -6.3248 10.2752 -15.3505
C -0.9228 12.0304 -15.3505
C -6.698 9.1264 -16.0971
C 0.0545 11.3204 -16.0971
C -5.7208 8.4164 -16.8436
C -0.3188 10.1716 -16.8436
C -6.0941 7.2676 -17.5902
C 0.6584 9.4616 -17.5902
C -5.1168 6.5576 -18.3367
C 0.2852 8.3128 -18.3367
C -5.4901 5.4088 -19.0832
C 1.2624 7.6028 -19.0832
C -4.5129 4.6988 -19.8298
C 0.8891 6.454 -19.8298
C -4.8862 3.55 -20.5763
C -3.9089 2.84 -21.3229
C -9.8604 14.264 -11.6179
C -0.4069 17.3356 -11.6179
C -10.2337 13.1152 -12.3644
C 0.5703 16.6256 -12.3644
C -9.2565 12.4052 -13.1109
C 0.197 15.4768 -13.1109
C -9.6297 11.2564 -13.8575
C 1.1743 14.7668 -13.8575
C -8.6525 10.5464 -14.604
C 0.801 13.618 -14.604
C -9.0258 9.3976 -15.3505
C 1.7782 12.908 -15.3505
C -8.0485 8.6876 -16.0971
C 1.405 11.7592 -16.0971
C -8.4218 7.5388 -16.8436
C 2.3822 11.0492 -16.8436
C -7.4446 6.8288 -17.5902
C 2.0089 9.9004 -17.5902
C -7.8178 5.68 -18.3367
C -6.8406 4.97 -19.0832
C -12.5614 13.3864 -11.6179
C 2.2941 18.2133 -11.6179
C -11.5842 12.6764 -12.3644
C 1.9208 17.0645 -12.3644
C -11.9575 11.5276 -13.1109
C 2.898 16.3545 -13.1109
C -10.9802 10.8176 -13.8575
C 2.5248 15.2056 -13.8575
C -11.3535 9.6688 -14.604
C 3.502 14.4956 -14.604
C -10.3763 8.9588 -15.3505
C 3.1287 13.3468 -15.3505
C -10.7495 7.81 -16.0971
C -9.7723 7.1 -16.8436
C -13.9119 12.9476 -11.6179
C 3.6446 18.6521 -11.6179
C -14.2852 11.7988 -12.3644
C 4.6218 17.9421 -12.3644
C -13.308 11.0888 -13.1109
C 4.2485 16.7933 -13.1109
C -13.6812 9.94 -13.8575
C -12.704 9.23 -14.604
C -16.6129 12.07 -11.6179
C -15.6357 11.36 -12.3644
C -16.6129 -0.71 -11.6179
C -16.6129 0.71 -11.6179
C -15.6357 -1.42 -12.3644
C -15.6357 1.42 -12.3644
C -14.6585 -0.71 -13.1109
C -14.6585 0.71 -13.1109
C -13.6812 -1.42 -13.8575
C -13.6812 1.42 -13.8575
C -12.704 -0.71 -14.604
C -12.704 0.71 -14.604
C -11.7268 -1.42 -15.3505
C -11.7268 1.42 -15.3505
C -10.7495 -0.71 -16.0971
C -10.7495 0.71 -16.0971
C -9.7723 -1.42 -16.8436
C -9.7723 1.42 -16.8436
C -8.7951 -0.71 -17.5902
C -8.7951 0.71 -17.5902
C -7.8178 -1.42 -18.3367
C -7.8178 1.42 -18.3367
C -6.8406 -0.71 -19.0832
C -6.8406 0.71 -19.0832
C -5.8634 -1.42 -19.8298
C -5.8634 1.42 -19.8298
C -4.8862 -0.71 -20.5763
C -4.8862 0.71 -20.5763
C -3.9089 -1.42 -21.3229
C -3.9089 1.42 -21.3229
C -2.9317 -0.71 -22.0694
C -2.9317 0.71 -22.0694
C -1.9545 -1.42 -22.8159
C -0.9772 -0.71 -23.5625
C -16.6129 -3.55 -11.6179
C -16.6129 3.55 -11.6179
C -15.6357 -2.84 -12.3644
C -15.6357 2.84 -12.3644
C -14.6585 -3.55 -13.1109
C -14.6585 3.55 -13.1109
C -13.6812 -2.84 -13.8575
C -13.6812 2.84 -13.8575
C -12.704 -3.55 -14.604
C -12.704 3.55 -14.604
C -11.7268 -2.84 -15.3505
C -11.7268 2.84 -15.3505
C -10.7495 -3.55 -16.0971
C -10.7495 3.55 -16.0971
C -9.7723 -2.84 -16.8436
C -9.7723 2.84 -16.8436
C -8.7951 -3.55 -17.5902
C -8.7951 3.55 -17.5902
C -7.8178 -2.84 -18.3367
C -7.8178 2.84 -18.3367
C -6.8406 -3.55 -19.0832
C -6.8406 3.55 -19.0832
C -5.8634 -2.84 -19.8298
C -5.8634 2.84 -19.8298
C -4.8862 -3.55 -20.5763
C -3.9089 -2.84 -21.3229
C -16.6129 -4.97 -11.6179
C -16.6129 4.97 -11.6179
C -15.6357 -5.68 -12.3644
C -15.6357 5.68 -12.3644
C -14.6585 -4.97 -13.1109
C -14.6585 4.97 -13.1109
C -13.6812 -5.68 -13.8575
C -13.6812 5.68 -13.8575
C -12.704 -4.97 -14.604
C -12.704 4.97 -14.604
C -11.7268 -5.68 -15.3505
C -11.7268 5.68 -15.3505
C -10.7495 -4.97 -16.0971
C -10.7495 4.97 -16.0971
C -9.7723 -5.68 -16.8436
C -9.7723 5.68 -16.8436
C -8.7951 -4.97 -17.5902
C -8.7951 4.97 -17.5902
C -7.8178 -5.68 -18.3367
C -6.8406 -4.97 -19.0832
C -16.6129 -7.81 -11.6179
C -16.6129 7.81 -11.6179
C -15.6357 -7.1 -12.3644
C -15.6357 7.1 -12.3644
C -14.6585 -7.81 -13.1109
C -14.6585 7.81 -13.1109
C -13.6812 -7.1 -13.8575
C -13.6812 7.1 -13.8575
C -12.704 -7.81 -14.604
C -12.704 7.81 -14.604
C -11.7268 -7.1 -15.3505
C -11.7268 7.1 -15.3505
C -10.7495 -7.81 -16.0971
C -9.7723 -7.1 -16.8436
C -16.6129 -9.23 -11.6179
C -16.6129 9.23 -11.6179
C -15.6357 -9.94 -12.3644
C -15.6357 9.94 -12.3644
C -14.6585 -9.23 -13.1109
C -14.6585 9.23 -13.1109
C -13.6812 -9.94 -13.8575
C -12.704 -9.23 -14.604
C -16.6129 -12.07 -11.6179
C -15.6357 -11.36 -12.3644
C -4.4584 -16.0192 -11.6179
C -5.8089 -15.5804 -11.6179
C -3.4812 -15.3092 -12.3644
C -6.1822 -14.4316 -12.3644
C -3.8545 -14.1604 -13.1109
C -5.205 -13.7216 -13.1109
C -2.8772 -13.4504 -13.8575
C -5.5782 -12.5728 -13.8575
C -3.2505 -12.3016 -14.604
C -4.601 -11.8628 -14.604
C -2.2733 -11.5916 -15.3505
C -4.9743 -10.714 -15.3505
C -2.6465 -10.4428 -16.0971
C -3.997 -10.004 -16.0971
C -1.6693 -9.7328 -16.8436
C -4.3703 -8.8552 -16.8436
C -2.0426 -8.584 -17.5902
C -3.3931 -8.1452 -17.5902
C -1.0653 -7.874 -18.3367
C -3.7663 -6.9964 -18.3367
C -1.4386 -6.7252 -19.0832
C -2.7891 -6.2864 -19.0832
C -0.4614 -6.0152 -19.8298
C -3.1624 -5.1376 -19.8298
C -0.8347 -4.8664 -20.5763
C -2.1852 -4.4276 -20.5763
C 0.1426 -4.1564 -21.3229
C -2.5584 -3.2788 -21.3229
C -0.2307 -3.0076 -22.0694
C -1.5812 -2.5688 -22.0694
C 0.7465 -2.2976 -22.8159
C 0.3733 -1.1488 -23.5625
C -1.7574 -16.8968 -11.6179
C -8.5099 -14.7028 -11.6179
C -2.1307 -15.748 -12.3644
C -7.5327 -13.9928 -12.3644
C -1.1535 -15.038 -13.1109
C -7.906 -12.844 -13.1109
C -1.5267 -13.8892 -13.8575
C -6.9287 -12.134 -13.8575
C -0.5495 -13.1792 -14.604
C -7.302 -10.9852 -14.604
C -0.9228 -12.0304 -15.3505
C -6.3248 -10.2752 -15.3505
C 0.0545 -11.3204 -16.0971
C -6.698 -9.1264 -16.0971
C -0.3188 -10.1716 -16.8436
C -5.7208 -8.4164 -16.8436
C 0.6584 -9.4616 -17.5902
C -6.0941 -7.2676 -17.5902
C 0.2852 -8.3128 -18.3367
C -5.1168 -6.5576 -18.3367
C 1.2624 -7.6028 -19.0832
C -5.4901 -5.4088 -19.0832
C 0.8891 -6.454 -19.8298
C -4.5129 -4.6988 -19.8298
C 1.8663 -5.744 -20.5763
C 1.4931 -4.5952 -21.3229
C -0.4069 -17.3356 -11.6179
C -9.8604 -14.264 -11.6179
C 0.5703 -16.6256 -12.3644
C -10.2337 -13.1152 -12.3644
C 0.197 -15.4768 -13.1109
C -9.2565 -12.4052 -13.1109
C 1.1743 -14.7668 -13.8575
C -9.6297 -11.2564 -13.8575
C 0.801 -13.618 -14.604
C -8.6525 -10.5464 -14.604
C 1.7782 -12.908 -15.3505
C -9.0258 -9.3976 -15.3505
C 1.405 -11.7592 -16.0971
C -8.0485 -8.6876 -16.0971
C 2.3822 -11.0492 -16.8436
C -8.4218 -7.5388 -16.8436
C 2.0089 -9.9004 -17.5902
C -7.4446 -6.8288 -17.5902
C 2.9862 -9.1904 -18.3367
C 2.6129 -8.0416 -19.0832
C 2.2941 -18.2133 -11.6179
C -12.5614 -13.3864 -11.6179
C 1.9208 -17.0645 -12.3644
C -11.5842 -12.6764 -12.3644
C 2.898 -16.3545 -13.1109
C -11.9575 -11.5276 -13.1109
C 2.5248 -15.2056 -13.8575
C -10.9802 -10.8176 -13.8575
C 3.502 -14.4956 -14.604
C -11.3535 -9.6688 -14.604
C 3.1287 -13.3468 -15.3505
C -10.3763 -8.9588 -15.3505
C 4.106 -12.6368 -16.0971
C 3.7327 -11.488 -16.8436
C 3.6446 -18.6521 -11.6179
C -13.9119 -12.9476 -11.6179
C 4.6218 -17.9421 -12.3644
C -14.2852 -11.7988 -12.3644
C 4.2485 -16.7933 -13.1109
C -13.308 -11.0888 -13.1109
C 5.2258 -16.0833 -13.8575
C 4.8525 -14.9345 -14.604
C 6.3456 -19.5297 -11.6179
C 5.9723 -18.3809 -12.3644
C 13.8575 -9.1904 -11.6179
C 13.0228 -10.3392 -11.6179
C 13.4842 -8.0416 -12.3644
C 11.8149 -10.3392 -12.3644
C 12.2763 -8.0416 -13.1109
C 11.4416 -9.1904 -13.1109
C 11.903 -6.8928 -13.8575
C 10.2337 -9.1904 -13.8575
C 10.6951 -6.8928 -14.604
C 9.8604 -8.0416 -14.604
C 10.3218 -5.744 -15.3505
C 8.6525 -8.0416 -15.3505
C 9.1139 -5.744 -16.0971
C 8.2792 -6.8928 -16.0971
C 8.7406 -4.5952 -16.8436
C 7.0713 -6.8928 -16.8436
C 7.5327 -4.5952 -17.5902
C 6.698 -5.744 -17.5902
C 7.1594 -3.4464 -18.3367
C 5.4901 -5.744 -18.3367
C 5.9515 -3.4464 -19.0832
C 5.1168 -4.5952 -19.0832
C 5.5782 -2.2976 -19.8298
C 3.9089 -4.5952 -19.8298
C 4.3703 -2.2976 -20.5763
C 3.5357 -3.4464 -20.5763
C 3.997 -1.1488 -21.3229
C 2.3277 -3.4464 -21.3229
C 2.7891 -1.1488 -22.0694
C 1.9545 -2.2976 -22.0694
C 15.5268 -6.8928 -11.6179
C 11.3535 -12.6368 -11.6179
C 14.3189 -6.8928 -12.3644
C 10.9802 -11.488 -12.3644
C 13.9456 -5.744 -13.1109
C 9.7723 -11.488 -13.1109
C 12.7377 -5.744 -13.8575
C 9.399 -10.3392 -13.8575
C 12.3644 -4.5952 -14.604
C 8.1911 -10.3392 -14.604
C 11.1565 -4.5952 -15.3505
C 7.8178 -9.1904 -15.3505
C 10.7832 -3.4464 -16.0971
C 6.6099 -9.1904 -16.0971
C 9.5753 -3.4464 -16.8436
C 6.2367 -8.0416 -16.8436
C 9.202 -2.2976 -17.5902
C 5.0287 -8.0416 -17.5902
C 7.9941 -2.2976 -18.3367
C 4.6555 -6.8928 -18.3367
C 7.6208 -1.1488 -19.0832
C 3.4475 -6.8928 -19.0832
C 6.4129 -1.1488 -19.8298
C 3.0743 -5.744 -19.8298
C 16.3614 -5.744 -11.6179
C 10.5188 -13.7856 -11.6179
C 15.9882 -4.5952 -12.3644
C 9.3109 -13.7856 -12.3644
C 14.7802 -4.5952 -13.1109
C 8.9377 -12.6368 -13.1109
C 14.407 -3.4464 -13.8575
C 7.7297 -12.6368 -13.8575
C 13.199 -3.4464 -14.604
C 7.3565 -11.488 -14.604
C 12.8258 -2.2976 -15.3505
C 6.1485 -11.488 -15.3505
C 11.6179 -2.2976 -16.0971
C 5.7753 -10.3392 -16.0971
C 11.2446 -1.1488 -16.8436
C 4.5673 -10.3392 -16.8436
C 10.0367 -1.1488 -17.5902
C 4.1941 -9.1904 -17.5902
C 18.0307 -3.4464 -11.6179
C 8.8495 -16.0833 -11.6179
C 16.8228 -3.4464 -12.3644
C 8.4763 -14.9345 -12.3644
C 16.4496 -2.2976 -13.1109
C 7.2683 -14.9345 -13.1109
C 15.2416 -2.2976 -13.8575
C 6.8951 -13.7856 -13.8575
C 14.8684 -1.1488 -14.604
C 5.6872 -13.7856 -14.604
C 13.6604 -1.1488 -15.3505
C 5.3139 -12.6368 -15.3505
C 18.8654 -2.2976 -11.6179
C 8.0149 -17.2321 -11.6179
C 18.4921 -1.1488 -12.3644
C 6.807 -17.2321 -12.3644
C 17.2842 -1.1488 -13.1109
C 6.4337 -16.0833 -13.1109
