540
GENERATED BY SAMSON 2025 R1
C 6.18754 0.725975 5.4357
C 6.18754 -0.694025 5.4357
C 5.21024 1.43597 6.1822
C 5.21024 -1.40403 6.1822
C 4.23304 0.725975 6.9287
C 4.23304 -0.694025 6.9287
C 3.25584 1.43597 7.6753
C 3.25584 -1.40403 7.6753
C 2.27864 0.725975 8.4218
C 2.27864 -0.694025 8.4218
C 1.30134 1.43597 9.1683
C 1.30134 -1.40403 9.1683
C 0.324138 0.725975 9.9149
C 0.324138 -0.694025 9.9149
C -0.653062 1.43597 10.6614
C -0.653062 -1.40403 10.6614
C -1.63036 0.725975 11.408
C -1.63036 -0.694025 11.408
C 6.18754 3.56597 5.4357
C 6.18754 -3.53403 5.4357
C 5.21024 2.85597 6.1822
C 5.21024 -2.82403 6.1822
C 4.23304 3.56597 6.9287
C 4.23304 -3.53403 6.9287
C 3.25584 2.85597 7.6753
C 3.25584 -2.82403 7.6753
C 2.27864 3.56597 8.4218
C 2.27864 -3.53403 8.4218
C 1.30134 2.85597 9.1683
C 1.30134 -2.82403 9.1683
C 6.18754 4.98597 5.4357
C 6.18754 -4.95403 5.4357
C 5.21024 5.69597 6.1822
C 5.21024 -5.66403 6.1822
C 4.23304 4.98597 6.9287
C 4.23304 -4.95403 6.9287
C -0.564962 8.59997 5.4357
C 0.785538 8.16117 5.4357
C -1.54226 7.88997 6.1822
C 1.15874 7.01237 6.1822
C -1.16896 6.74117 6.9287
C 0.181538 6.30237 6.9287
C -2.14616 6.03117 7.6753
C 0.554838 5.15357 7.6753
C -1.77286 4.88237 8.4218
C -0.422362 4.44357 8.4218
C -2.75016 4.17237 9.1683
C -0.0491619 3.29477 9.1683
C -2.37686 3.02357 9.9149
C -1.02636 2.58477 9.9149
C -3.35406 2.31357 10.6614
C -2.98086 1.16477 11.408
C -3.26596 9.47757 5.4357
C 3.48654 7.28357 5.4357
C -2.89276 8.32877 6.1822
C 2.50924 6.57357 6.1822
C -3.86996 7.61877 6.9287
C 2.88254 5.42477 6.9287
C -3.49666 6.46997 7.6753
C 1.90534 4.71477 7.6753
C -4.47386 5.75997 8.4218
C -4.10066 4.61117 9.1683
C -4.61646 9.91637 5.4357
C 4.83704 6.84477 5.4357
C -5.59376 9.20637 6.1822
C -5.22046 8.05757 6.9287
C -10.1403 4.61117 5.4357
C -9.30556 5.75997 5.4357
C -9.76696 3.46237 6.1822
C -8.09766 5.75997 6.1822
C -8.55906 3.46237 6.9287
C -7.72436 4.61117 6.9287
C -8.18576 2.31357 7.6753
C -6.51646 4.61117 7.6753
C -6.97786 2.31357 8.4218
C -6.14326 3.46237 8.4218
C -6.60456 1.16477 9.1683
C -4.93526 3.46237 9.1683
C -5.39666 1.16477 9.9149
C -4.56206 2.31357 9.9149
C -5.02336 0.0159747 10.6614
C -3.81546 0.0159747 11.408
C -11.8096 2.31357 5.4357
C -7.63626 8.05757 5.4357
C -10.6017 2.31357 6.1822
C -7.26306 6.90877 6.1822
C -10.2284 1.16477 6.9287
C -6.05506 6.90877 6.9287
C -9.02046 1.16477 7.6753
C -5.68186 5.75997 7.6753
C -8.64716 0.0159747 8.4218
C -7.43926 0.0159747 9.1683
C -12.6443 1.16477 5.4357
C -6.80166 9.20637 5.4357
C -12.271 0.0159747 6.1822
C -11.0631 0.0159747 6.9287
C -9.30556 -5.72803 5.4357
C -10.1403 -4.57923 5.4357
C -8.09766 -5.72803 6.1822
C -9.76696 -3.43043 6.1822
C -7.72436 -4.57923 6.9287
C -8.55906 -3.43043 6.9287
C -6.51646 -4.57923 7.6753
C -8.18576 -2.28163 7.6753
C -6.14326 -3.43043 8.4218
C -6.97786 -2.28163 8.4218
C -4.93526 -3.43043 9.1683
C -6.60456 -1.13283 9.1683
C -4.56206 -2.28163 9.9149
C -5.39666 -1.13283 9.9149
C -3.35406 -2.28163 10.6614
C -2.98086 -1.13283 11.408
C -7.63626 -8.02563 5.4357
C -11.8096 -2.28163 5.4357
C -7.26306 -6.87683 6.1822
C -10.6017 -2.28163 6.1822
C -6.05506 -6.87683 6.9287
C -10.2284 -1.13283 6.9287
C -5.68186 -5.72803 7.6753
C -9.02046 -1.13283 7.6753
C -4.47386 -5.72803 8.4218
C -4.10066 -4.57923 9.1683
C -6.80166 -9.17443 5.4357
C -12.6443 -1.13283 5.4357
C -5.59376 -9.17443 6.1822
C -5.22046 -8.02563 6.9287
C 0.785538 -8.12923 5.4357
C -0.564962 -8.56803 5.4357
C 1.15874 -6.98043 6.1822
C -1.54226 -7.85803 6.1822
C 0.181538 -6.27043 6.9287
C -1.16896 -6.70923 6.9287
C 0.554838 -5.12163 7.6753
C -2.14616 -5.99923 7.6753
C -0.422362 -4.41163 8.4218
C -1.77286 -4.85043 8.4218
C -0.0491619 -3.26283 9.1683
C -2.75016 -4.14043 9.1683
C -1.02636 -2.55283 9.9149
C -2.37686 -2.99163 9.9149
C 3.48654 -7.25163 5.4357
C -3.26596 -9.44563 5.4357
C 2.50924 -6.54163 6.1822
C -2.89276 -8.29683 6.1822
C 2.88254 -5.39283 6.9287
C -3.86996 -7.58683 6.9287
C 1.90534 -4.68283 7.6753
C -3.49666 -6.43803 7.6753
C 4.83704 -6.81283 5.4357
C -4.61646 -9.88443 5.4357
C 6.41824 1.43597 4.2277
C 6.41824 -1.40403 4.2277
C 6.64894 0.725975 3.0198
C 6.64894 -0.694025 3.0198
C 6.87964 1.43597 1.8119
C 6.87964 -1.40403 1.8119
C 7.11034 0.725975 0.604
C 7.11034 -0.694025 0.604
C 7.34094 1.43597 -0.604
C 7.34094 -1.40403 -0.604
C 7.57164 0.725975 -1.8119
C 7.57164 -0.694025 -1.8119
C 7.80234 1.43597 -3.0198
C 7.80234 -1.40403 -3.0198
C 8.03304 0.725975 -4.2277
C 8.03304 -0.694025 -4.2277
C 6.41824 2.85597 4.2277
C 6.41824 -2.82403 4.2277
C 6.64894 3.56597 3.0198
C 6.64894 -3.53403 3.0198
C 6.87964 2.85597 1.8119
C 6.87964 -2.82403 1.8119
C 7.11034 3.56597 0.604
C 7.11034 -3.53403 0.604
C 7.34094 2.85597 -0.604
C 7.34094 -2.82403 -0.604
C 6.41824 5.69597 4.2277
C 6.41824 -5.66403 4.2277
C 6.64894 4.98597 3.0198
C 6.64894 -4.95403 3.0198
C -1.16896 9.03877 4.2277
C 1.53204 8.16117 4.2277
C -0.422362 9.03877 3.0198
C 0.928138 8.59997 3.0198
C -1.02636 9.47757 1.8119
C 1.67464 8.59997 1.8119
C -0.279862 9.47757 0.604
C 1.07064 9.03877 0.604
C -0.883762 9.91637 -0.604
C 1.81724 9.03877 -0.604
C -0.137262 9.91637 -1.8119
C 1.21324 9.47757 -1.8119
C -0.741262 10.3552 -3.0198
C 1.95974 9.47757 -3.0198
C 0.0053381 10.3552 -4.2277
C 1.35584 9.91637 -4.2277
C -2.51946 9.47757 4.2277
C 2.88254 7.72237 4.2277
C -3.12336 9.91637 3.0198
C 3.62914 7.72237 3.0198
C -2.37686 9.91637 1.8119
C 3.02514 8.16117 1.8119
C -2.98086 10.3552 0.604
C 3.77164 8.16117 0.604
C -2.23426 10.3552 -0.604
C 3.16774 8.59997 -0.604
C -5.22046 10.3552 4.2277
C 5.58354 6.84477 4.2277
C -4.47386 10.3552 3.0198
C 4.97964 7.28357 3.0198
C -10.7443 4.17237 4.2277
C -9.07486 6.46997 4.2277
C -10.5136 4.88237 3.0198
C -9.67886 6.03117 3.0198
C -11.1175 4.44357 1.8119
C -9.44816 6.74117 1.8119
C -10.8868 5.15357 0.604
C -10.0522 6.30237 0.604
C -11.4908 4.71477 -0.604
C -9.82146 7.01237 -0.604
C -11.2601 5.42477 -1.8119
C -10.4254 6.57357 -1.8119
C -11.8641 4.98597 -3.0198
C -10.1948 7.28357 -3.0198
C -11.6334 5.69597 -4.2277
C -10.7987 6.84477 -4.2277
C -11.5789 3.02357 4.2277
C -8.24026 7.61877 4.2277
C -12.1829 2.58477 3.0198
C -8.00956 8.32877 3.0198
C -11.9522 3.29477 1.8119
C -8.61356 7.88997 1.8119
C -12.5561 2.85597 0.604
C -8.38286 8.59997 0.604
C -12.3255 3.56597 -0.604
C -8.98676 8.16117 -0.604
C -13.2482 0.725975 4.2277
C -6.57096 9.91637 4.2277
C -13.0175 1.43597 3.0198
C -7.17486 9.47757 3.0198
C -9.07486 -6.43803 4.2277
C -10.7443 -4.14043 4.2277
C -9.67886 -5.99923 3.0198
C -10.5136 -4.85043 3.0198
C -9.44816 -6.70923 1.8119
C -11.1175 -4.41163 1.8119
C -10.0522 -6.27043 0.604
C -10.8868 -5.12163 0.604
C -9.82146 -6.98043 -0.604
C -11.4908 -4.68283 -0.604
C -10.4254 -6.54163 -1.8119
C -11.2601 -5.39283 -1.8119
C -10.1948 -7.25163 -3.0198
C -11.8641 -4.95403 -3.0198
C -10.7987 -6.81283 -4.2277
C -11.6334 -5.66403 -4.2277
C -8.24026 -7.58683 4.2277
C -11.5789 -2.99163 4.2277
C -8.00956 -8.29683 3.0198
C -12.1829 -2.55283 3.0198
C -8.61356 -7.85803 1.8119
C -11.9522 -3.26283 1.8119
C -8.38286 -8.56803 0.604
C -12.5561 -2.82403 0.604
C -8.98676 -8.12923 -0.604
C -12.3255 -3.53403 -0.604
C -6.57096 -9.88443 4.2277
C -13.2482 -0.694025 4.2277
C -7.17486 -9.44563 3.0198
C -13.0175 -1.40403 3.0198
C 1.53204 -8.12923 4.2277
C -1.16896 -9.00683 4.2277
C 0.928138 -8.56803 3.0198
C -0.422362 -9.00683 3.0198
C 1.67464 -8.56803 1.8119
C -1.02636 -9.44563 1.8119
C 1.07064 -9.00683 0.604
C -0.279862 -9.44563 0.604
C 1.81724 -9.00683 -0.604
C -0.883762 -9.88443 -0.604
C 1.21324 -9.44563 -1.8119
C -0.137262 -9.88443 -1.8119
C 1.95974 -9.44563 -3.0198
C -0.741262 -10.3232 -3.0198
C 1.35584 -9.88443 -4.2277
C 0.0053381 -10.3232 -4.2277
C 2.88254 -7.69043 4.2277
C -2.51946 -9.44563 4.2277
C 3.62914 -7.69043 3.0198
C -3.12336 -9.88443 3.0198
C 3.02514 -8.12923 1.8119
C -2.37686 -9.88443 1.8119
C 3.77164 -8.12923 0.604
C -2.98086 -10.3232 0.604
C 3.16774 -8.56803 -0.604
C -2.23426 -10.3232 -0.604
C 5.58354 -6.81283 4.2277
C -5.22046 -10.3232 4.2277
C 4.97964 -7.25163 3.0198
C -4.47386 -10.3232 3.0198
C 4.09044 5.75997 -5.4357
C 4.92514 4.61117 -5.4357
C 3.85974 6.46997 -4.2277
C 5.52914 4.17237 -4.2277
C 4.46374 6.03117 -3.0198
C 5.29844 4.88237 -3.0198
C 4.23304 6.74117 -1.8119
C 5.90234 4.44357 -1.8119
C 4.83704 6.30237 -0.604
C 5.67164 5.15357 -0.604
C 4.60634 7.01237 0.604
C 6.27564 4.71477 0.604
C 5.21024 6.57357 1.8119
C 6.04494 5.42477 1.8119
C 2.42114 8.05757 -5.4357
C 6.59444 2.31357 -5.4357
C 3.02514 7.61877 -4.2277
C 6.36374 3.02357 -4.2277
C 2.79444 8.32877 -3.0198
C 6.96774 2.58477 -3.0198
C 3.39844 7.88997 -1.8119
C 6.73704 3.29477 -1.8119
C 1.58654 9.20637 -5.4357
C 7.42914 1.16477 -5.4357
C -6.00066 8.16117 -5.4357
C -4.65016 8.59997 -5.4357
C -6.74716 8.16117 -4.2277
C -4.04616 9.03877 -4.2277
C -6.14326 8.59997 -3.0198
C -4.79276 9.03877 -3.0198
C -6.88976 8.59997 -1.8119
C -4.18876 9.47757 -1.8119
C -6.28576 9.03877 -0.604
C -4.93526 9.47757 -0.604
C -7.03236 9.03877 0.604
C -4.33136 9.91637 0.604
C -6.42836 9.47757 1.8119
C -5.07786 9.91637 1.8119
C -8.70166 7.28357 -5.4357
C -1.94916 9.47757 -5.4357
C -8.09766 7.72237 -4.2277
C -2.69566 9.47757 -4.2277
C -8.84426 7.72237 -3.0198
C -2.09176 9.91637 -3.0198
C -8.24026 8.16117 -1.8119
C -2.83826 9.91637 -1.8119
C -10.0522 6.84477 -5.4357
C -0.598662 9.91637 -5.4357
C -11.4027 -0.694025 -5.4357
C -11.4027 0.725975 -5.4357
C -11.6334 -1.40403 -4.2277
C -11.6334 1.43597 -4.2277
C -11.8641 -0.694025 -3.0198
C -11.8641 0.725975 -3.0198
C -12.0948 -1.40403 -1.8119
C -12.0948 1.43597 -1.8119
C -12.3255 -0.694025 -0.604
C -12.3255 0.725975 -0.604
C -12.5561 -1.40403 0.604
C -12.5561 1.43597 0.604
C -12.7868 -0.694025 1.8119
C -12.7868 0.725975 1.8119
C -11.4027 -3.53403 -5.4357
C -11.4027 3.56597 -5.4357
C -11.6334 -2.82403 -4.2277
C -11.6334 2.85597 -4.2277
C -11.8641 -3.53403 -3.0198
C -11.8641 3.56597 -3.0198
C -12.0948 -2.82403 -1.8119
C -12.0948 2.85597 -1.8119
C -11.4027 -4.95403 -5.4357
C -11.4027 4.98597 -5.4357
C -4.65016 -8.56803 -5.4357
C -6.00066 -8.12923 -5.4357
C -4.04616 -9.00683 -4.2277
C -6.74716 -8.12923 -4.2277
C -4.79276 -9.00683 -3.0198
C -6.14326 -8.56803 -3.0198
C -4.18876 -9.44563 -1.8119
C -6.88976 -8.56803 -1.8119
C -4.93526 -9.44563 -0.604
C -6.28576 -9.00683 -0.604
C -4.33136 -9.88443 0.604
C -7.03236 -9.00683 0.604
C -5.07786 -9.88443 1.8119
C -6.42836 -9.44563 1.8119
C -1.94916 -9.44563 -5.4357
C -8.70166 -7.25163 -5.4357
C -2.69566 -9.44563 -4.2277
C -8.09766 -7.69043 -4.2277
C -2.09176 -9.88443 -3.0198
C -8.84426 -7.69043 -3.0198
C -2.83826 -9.88443 -1.8119
C -8.24026 -8.12923 -1.8119
C -0.598662 -9.88443 -5.4357
C -10.0522 -6.81283 -5.4357
C 4.92514 -4.57923 -5.4357
C 4.09044 -5.72803 -5.4357
C 5.52914 -4.14043 -4.2277
C 3.85974 -6.43803 -4.2277
C 5.29844 -4.85043 -3.0198
C 4.46374 -5.99923 -3.0198
C 5.90234 -4.41163 -1.8119
C 4.23304 -6.70923 -1.8119
C 5.67164 -5.12163 -0.604
C 4.83704 -6.27043 -0.604
C 6.27564 -4.68283 0.604
C 4.60634 -6.98043 0.604
C 6.04494 -5.39283 1.8119
C 5.21024 -6.54163 1.8119
C 6.59444 -2.28163 -5.4357
C 2.42114 -8.02563 -5.4357
C 6.36374 -2.99163 -4.2277
C 3.02514 -7.58683 -4.2277
C 6.96774 -2.55283 -3.0198
C 2.79444 -8.29683 -3.0198
C 6.73704 -3.26283 -1.8119
C 3.39844 -7.85803 -1.8119
C 7.42914 -1.13283 -5.4357
C 1.58654 -9.17443 -5.4357
C 2.88254 5.75997 -6.1822
C 4.55184 3.46237 -6.1822
C 2.50924 4.61117 -6.9287
C 3.34394 3.46237 -6.9287
C 1.30134 4.61117 -7.6753
C 2.97064 2.31357 -7.6753
C 0.928138 3.46237 -8.4218
C 1.76274 2.31357 -8.4218
C -0.279862 3.46237 -9.1683
C 1.38944 1.16477 -9.1683
C -0.653062 2.31357 -9.9149
C 0.181538 1.16477 -9.9149
C -1.86106 2.31357 -10.6614
C -0.191762 0.0159747 -10.6614
C -2.23426 1.16477 -11.408
C -1.39966 0.0159747 -11.408
C 2.04794 6.90877 -6.1822
C 5.38654 2.31357 -6.1822
C 0.839938 6.90877 -6.9287
C 5.01324 1.16477 -6.9287
C 0.466738 5.75997 -7.6753
C 3.80534 1.16477 -7.6753
C -0.741262 5.75997 -8.4218
C 3.43204 0.0159747 -8.4218
C -1.11446 4.61117 -9.1683
C 2.22414 0.0159747 -9.1683
C 0.378638 9.20637 -6.1822
C 7.05584 0.0159747 -6.1822
C 0.0053381 8.05757 -6.9287
C 5.84794 0.0159747 -6.9287
C -6.37386 7.01237 -6.1822
C -3.67286 7.88997 -6.1822
C -5.39666 6.30237 -6.9287
C -4.04616 6.74117 -6.9287
C -5.76996 5.15357 -7.6753
C -3.06896 6.03117 -7.6753
C -4.79276 4.44357 -8.4218
C -3.44226 4.88237 -8.4218
C -5.16596 3.29477 -9.1683
C -2.46496 4.17237 -9.1683
C -4.18876 2.58477 -9.9149
C -2.83826 3.02357 -9.9149
C -4.56206 1.43597 -10.6614
C -3.58476 0.725975 -11.408
C -7.72436 6.57357 -6.1822
C -2.32236 8.32877 -6.1822
C -8.09766 5.42477 -6.9287
C -1.34516 7.61877 -6.9287
C -7.12046 4.71477 -7.6753
C -1.71846 6.46997 -7.6753
C -7.49376 3.56597 -8.4218
C -6.51646 2.85597 -9.1683
C -10.4254 5.69597 -6.1822
C -9.44816 4.98597 -6.9287
C -10.4254 -1.40403 -6.1822
C -10.4254 1.43597 -6.1822
C -9.44816 -0.694025 -6.9287
C -9.44816 0.725975 -6.9287
C -8.47096 -1.40403 -7.6753
C -8.47096 1.43597 -7.6753
C -7.49376 -0.694025 -8.4218
C -7.49376 0.725975 -8.4218
C -6.51646 -1.40403 -9.1683
C -6.51646 1.43597 -9.1683
C -5.53926 -0.694025 -9.9149
C -5.53926 0.725975 -9.9149
C -4.56206 -1.40403 -10.6614
C -3.58476 -0.694025 -11.408
C -10.4254 -2.82403 -6.1822
C -10.4254 2.85597 -6.1822
C -9.44816 -3.53403 -6.9287
C -9.44816 3.56597 -6.9287
C -8.47096 -2.82403 -7.6753
C -8.47096 2.85597 -7.6753
C -7.49376 -3.53403 -8.4218
C -6.51646 -2.82403 -9.1683
C -10.4254 -5.66403 -6.1822
C -9.44816 -4.95403 -6.9287
C -3.67286 -7.85803 -6.1822
C -6.37386 -6.98043 -6.1822
C -4.04616 -6.70923 -6.9287
C -5.39666 -6.27043 -6.9287
C -3.06896 -5.99923 -7.6753
C -5.76996 -5.12163 -7.6753
C -3.44226 -4.85043 -8.4218
C -4.79276 -4.41163 -8.4218
C -2.46496 -4.14043 -9.1683
C -5.16596 -3.26283 -9.1683
C -2.83826 -2.99163 -9.9149
C -4.18876 -2.55283 -9.9149
C -1.86106 -2.28163 -10.6614
C -2.23426 -1.13283 -11.408
C -2.32236 -8.29683 -6.1822
C -7.72436 -6.54163 -6.1822
C -1.34516 -7.58683 -6.9287
C -8.09766 -5.39283 -6.9287
C -1.71846 -6.43803 -7.6753
C -7.12046 -4.68283 -7.6753
C -0.741262 -5.72803 -8.4218
C -1.11446 -4.57923 -9.1683
C 0.378638 -9.17443 -6.1822
C 0.0053381 -8.02563 -6.9287
C 4.55184 -3.43043 -6.1822
C 2.88254 -5.72803 -6.1822
C 3.34394 -3.43043 -6.9287
C 2.50924 -4.57923 -6.9287
C 2.97064 -2.28163 -7.6753
C 1.30134 -4.57923 -7.6753
C 1.76274 -2.28163 -8.4218
C 0.928138 -3.43043 -8.4218
C 1.38944 -1.13283 -9.1683
C -0.279862 -3.43043 -9.1683
C 0.181538 -1.13283 -9.9149
C -0.653062 -2.28163 -9.9149
C 5.38654 -2.28163 -6.1822
C 2.04794 -6.87683 -6.1822
C 5.01324 -1.13283 -6.9287
C 0.839938 -6.87683 -6.9287
C 3.80534 -1.13283 -7.6753
C 0.466738 -5.72803 -7.6753
