240
GENERATED BY SAMSON 2025 R1
C 5.8634 1.42 3.6238
C 5.8634 -1.42 3.6238
C 4.8862 0.71 4.3703
C 4.8862 -0.71 4.3703
C 3.9089 1.42 5.1168
C 3.9089 -1.42 5.1168
C 2.9317 0.71 5.8634
C 2.9317 -0.71 5.8634
C 1.9545 1.42 6.6099
C 1.9545 -1.42 6.6099
C 0.9772 0.71 7.3565
C 0.9772 -0.71 7.3565
C 5.8634 2.84 3.6238
C 5.8634 -2.84 3.6238
C 4.8862 3.55 4.3703
C 4.8862 -3.55 4.3703
C 3.9089 2.84 5.1168
C 3.9089 -2.84 5.1168
C 0.4614 6.0152 3.6238
C 3.1624 5.1376 3.6238
C 0.8347 4.8664 4.3703
C 2.1852 4.4276 4.3703
C -0.1426 4.1564 5.1168
C 2.5584 3.2788 5.1168
C 0.2307 3.0076 5.8634
C 1.5812 2.5688 5.8634
C -0.7465 2.2976 6.6099
C -0.3733 1.1488 7.3565
C -0.8891 6.454 3.6238
C 4.5129 4.6988 3.6238
C -1.8663 5.744 4.3703
C -1.4931 4.5952 5.1168
C -5.5782 2.2976 3.6238
C -3.9089 4.5952 3.6238
C -4.3703 2.2976 4.3703
C -3.5357 3.4464 4.3703
C -3.997 1.1488 5.1168
C -2.3277 3.4464 5.1168
C -2.7891 1.1488 5.8634
C -1.9545 2.2976 5.8634
C -2.4158 0 6.6099
C -1.2079 0 7.3565
C -6.4129 1.1488 3.6238
C -3.0743 5.744 3.6238
C -6.0396 0 4.3703
C -4.8317 0 5.1168
C -3.9089 -4.5952 3.6238
C -5.5782 -2.2976 3.6238
C -3.5357 -3.4464 4.3703
C -4.3703 -2.2976 4.3703
C -2.3277 -3.4464 5.1168
C -3.997 -1.1488 5.1168
C -1.9545 -2.2976 5.8634
C -2.7891 -1.1488 5.8634
C -0.7465 -2.2976 6.6099
C -0.3733 -1.1488 7.3565
C -3.0743 -5.744 3.6238
C -6.4129 -1.1488 3.6238
C -1.8663 -5.744 4.3703
C -1.4931 -4.5952 5.1168
C 3.1624 -5.1376 3.6238
C 0.4614 -6.0152 3.6238
C 2.1852 -4.4276 4.3703
C 0.8347 -4.8664 4.3703
C 2.5584 -3.2788 5.1168
C -0.1426 -4.1564 5.1168
C 1.5812 -2.5688 5.8634
C 0.2307 -3.0076 5.8634
C 4.5129 -4.6988 3.6238
C -0.8891 -6.454 3.6238
C 6.0941 0.71 2.4158
C 6.0941 -0.71 2.4158
C 6.3248 1.42 1.2079
C 6.3248 -1.42 1.2079
C 6.5555 0.71 0
C 6.5555 -0.71 0
C 6.7862 1.42 -1.2079
C 6.7862 -1.42 -1.2079
C 7.0169 0.71 -2.4158
C 7.0169 -0.71 -2.4158
C 6.0941 3.55 2.4158
C 6.0941 -3.55 2.4158
C 6.3248 2.84 1.2079
C 6.3248 -2.84 1.2079
C 1.2079 6.0152 2.4158
C 2.5584 5.5764 2.4158
C 0.604 6.454 1.2079
C 3.305 5.5764 1.2079
C 1.3505 6.454 0
C 2.701 6.0152 0
C 0.7465 6.8928 -1.2079
C 3.4475 6.0152 -1.2079
C 1.4931 6.8928 -2.4158
C 2.8436 6.454 -2.4158
C -1.4931 6.8928 2.4158
C 5.2594 4.6988 2.4158
C -0.7465 6.8928 1.2079
C 4.6555 5.1376 1.2079
C -5.3475 3.0076 2.4158
C -4.5129 4.1564 2.4158
C -5.9515 2.5688 1.2079
C -4.2822 4.8664 1.2079
C -5.7208 3.2788 0
C -4.8862 4.4276 0
C -6.3248 2.84 -1.2079
C -4.6555 5.1376 -1.2079
C -6.0941 3.55 -2.4158
C -5.2594 4.6988 -2.4158
C -7.0169 0.71 2.4158
C -2.8436 6.454 2.4158
C -6.7862 1.42 1.2079
C -3.4475 6.0152 1.2079
C -4.5129 -4.1564 2.4158
C -5.3475 -3.0076 2.4158
C -4.2822 -4.8664 1.2079
C -5.9515 -2.5688 1.2079
C -4.8862 -4.4276 0
C -5.7208 -3.2788 0
C -4.6555 -5.1376 -1.2079
C -6.3248 -2.84 -1.2079
C -5.2594 -4.6988 -2.4158
C -6.0941 -3.55 -2.4158
C -2.8436 -6.454 2.4158
C -7.0169 -0.71 2.4158
C -3.4475 -6.0152 1.2079
C -6.7862 -1.42 1.2079
C 2.5584 -5.5764 2.4158
C 1.2079 -6.0152 2.4158
C 3.305 -5.5764 1.2079
C 0.604 -6.454 1.2079
C 2.701 -6.0152 0
C 1.3505 -6.454 0
C 3.4475 -6.0152 -1.2079
C 0.7465 -6.8928 -1.2079
C 2.8436 -6.454 -2.4158
C 1.4931 -6.8928 -2.4158
C 5.2594 -4.6988 2.4158
C -1.4931 -6.8928 2.4158
C 4.6555 -5.1376 1.2079
C -0.7465 -6.8928 1.2079
C 3.9089 4.5952 -3.6238
C 5.5782 2.2976 -3.6238
C 4.5129 4.1564 -2.4158
C 5.3475 3.0076 -2.4158
C 4.2822 4.8664 -1.2079
C 5.9515 2.5688 -1.2079
C 4.8862 4.4276 0
C 5.7208 3.2788 0
C 3.0743 5.744 -3.6238
C 6.4129 1.1488 -3.6238
C -3.1624 5.1376 -3.6238
C -0.4614 6.0152 -3.6238
C -2.5584 5.5764 -2.4158
C -1.2079 6.0152 -2.4158
C -3.305 5.5764 -1.2079
C -0.604 6.454 -1.2079
C -2.701 6.0152 0
C -1.3505 6.454 0
C -4.5129 4.6988 -3.6238
C 0.8891 6.454 -3.6238
C -5.8634 -1.42 -3.6238
C -5.8634 1.42 -3.6238
C -6.0941 -0.71 -2.4158
C -6.0941 0.71 -2.4158
C -6.3248 -1.42 -1.2079
C -6.3248 1.42 -1.2079
C -6.5555 -0.71 0
C -6.5555 0.71 0
C -5.8634 -2.84 -3.6238
C -5.8634 2.84 -3.6238
C -0.4614 -6.0152 -3.6238
C -3.1624 -5.1376 -3.6238
C -1.2079 -6.0152 -2.4158
C -2.5584 -5.5764 -2.4158
C -0.604 -6.454 -1.2079
C -3.305 -5.5764 -1.2079
C -1.3505 -6.454 0
C -2.701 -6.0152 0
C 0.8891 -6.454 -3.6238
C -4.5129 -4.6988 -3.6238
C 5.5782 -2.2976 -3.6238
C 3.9089 -4.5952 -3.6238
C 5.3475 -3.0076 -2.4158
C 4.5129 -4.1564 -2.4158
C 5.9515 -2.5688 -1.2079
C 4.2822 -4.8664 -1.2079
C 5.7208 -3.2788 0
C 4.8862 -4.4276 0
C 6.4129 -1.1488 -3.6238
C 3.0743 -5.744 -3.6238
C 3.5357 3.4464 -4.3703
C 4.3703 2.2976 -4.3703
C 2.3277 3.4464 -5.1168
C 3.997 1.1488 -5.1168
C 1.9545 2.2976 -5.8634
C 2.7891 1.1488 -5.8634
C 0.7465 2.2976 -6.6099
C 2.4158 0 -6.6099
C 0.3733 1.1488 -7.3565
C 1.2079 0 -7.3565
C 1.8663 5.744 -4.3703
C 6.0396 0 -4.3703
C 1.4931 4.5952 -5.1168
C 4.8317 0 -5.1168
C -2.1852 4.4276 -4.3703
C -0.8347 4.8664 -4.3703
C -2.5584 3.2788 -5.1168
C 0.1426 4.1564 -5.1168
C -1.5812 2.5688 -5.8634
C -0.2307 3.0076 -5.8634
C -1.9545 1.42 -6.6099
C -0.9772 0.71 -7.3565
C -4.8862 3.55 -4.3703
C -3.9089 2.84 -5.1168
C -4.8862 -0.71 -4.3703
C -4.8862 0.71 -4.3703
C -3.9089 -1.42 -5.1168
C -3.9089 1.42 -5.1168
C -2.9317 -0.71 -5.8634
C -2.9317 0.71 -5.8634
C -1.9545 -1.42 -6.6099
C -0.9772 -0.71 -7.3565
C -4.8862 -3.55 -4.3703
C -3.9089 -2.84 -5.1168
C -0.8347 -4.8664 -4.3703
C -2.1852 -4.4276 -4.3703
C 0.1426 -4.1564 -5.1168
C -2.5584 -3.2788 -5.1168
C -0.2307 -3.0076 -5.8634
C -1.5812 -2.5688 -5.8634
C 0.7465 -2.2976 -6.6099
C 0.3733 -1.1488 -7.3565
C 1.8663 -5.744 -4.3703
C 1.4931 -4.5952 -5.1168
C 4.3703 -2.2976 -4.3703
C 3.5357 -3.4464 -4.3703
C 3.997 -1.1488 -5.1168
C 2.3277 -3.4464 -5.1168
C 2.7891 -1.1488 -5.8634
C 1.9545 -2.2976 -5.8634
