
# Start from the minimized and heatedup restart file
read_restart 3bar_linkage.init.restart

# set groups
group free type 1 2
group anchor type 3 4   
group moveme type 5 6

# Pair Coefficients
pair_style	airebo 3.0 1 0
pair_coeff * * CH.airebo C H C H C H  

#freeze the sleeve anchor atoms
fix anchorfix anchor setforce 0.0 0.0 0.0 #first is ID = user-assigned name for the fix,  ID of the group of atoms
velocity anchor set 0.0 0.0 0.0

# Equilibrate to 300K
fix nve all nve
timestep 0.00025
# bring the temp of free atoms to 90
fix lonsfree_fix free temp/berendsen 90. 90. 0.25

#run some to chill out
run 5000

#apply linear movement in +Z about 75 angs
fix move_posz moveme move linear 0.0 0.0 1.0 #angstom/picosecond

dump mydmp1 all atom 1000 XYZ_move_Y.lammpstrj
thermo 1000
run 300000 #75 picoseconds
unfix move_posz
velocity moveme set 0.0 0.0 0.0  #trying to stop the movement
run 5000
write_restart 70ang_left.init.restart 
