31540
GENERATED BY SAMSON 2025 R1
C -3.47 79.696 0.56
C -3.488 79.69 2.119
C -3.558 76.799 -0.029
C -3.568 76.79 2.685
C -4.771 78.995 2.675
C -4.809 77.553 0.527
C -4.821 77.54 2.119
C -4.746 79.018 0.001
C -3.506 79.698 4.825
C -3.573 76.803 4.243
C -4.839 77.544 4.756
C -4.784 79.007 4.272
C -3.458 79.716 -2.149
C -3.553 76.82 -1.589
C -4.742 79.046 -1.592
C -4.795 77.593 -2.114
C -5.961 79.785 0.573
C -5.979 79.761 2.122
C -6.126 76.957 -0.053
C -6.15 76.938 2.657
C -6.023 79.717 4.883
C -6.17 76.95 4.217
C -5.954 79.844 -2.118
C -6.111 76.977 -1.612
C 8.051 78.182 2.729
C 7.745 76.74 0.599
C 7.737 76.729 2.191
C 8.067 78.201 0.073
C 7.704 76.749 4.812
C 8.038 78.2 4.314
C 8.072 78.213 -1.506
C 7.771 76.766 -2.027
C 6.947 79.252 0.561
C 6.952 79.251 2.138
C 6.383 76.326 0.026
C 6.36 76.331 2.729
C 5.517 78.771 2.661
C 5.298 77.278 0.576
C 5.291 77.289 2.153
C 5.519 78.751 0.042
C 6.939 79.282 4.747
C 6.343 76.35 4.283
C 5.283 77.336 4.789
C 5.516 78.791 4.248
C 6.938 79.233 -2.049
C 6.398 76.338 -1.53
C 5.518 78.749 -1.545
C 5.312 77.285 -2.06
C 4.312 79.688 0.552
C 4.314 79.701 2.128
C 3.988 76.707 0.013
C 3.974 76.735 2.718
C 2.914 79.041 2.664
C 2.811 77.521 0.56
C 2.806 77.54 2.149
C 2.919 79.01 0.018
C 4.324 79.729 4.733
C 3.969 76.768 4.273
C 2.802 77.598 4.774
C 2.915 79.075 4.242
C 4.313 79.672 -2.052
C 3.998 76.71 -1.543
C 2.923 79.009 -1.56
C 2.825 77.523 -2.065
C 1.587 79.658 0.556
C 1.581 79.677 2.104
C 1.539 76.799 0.002
C 1.532 76.828 2.713
C 0.301 78.973 2.67
C 0.273 77.487 0.552
C 0.268 77.501 2.142
C 0.311 78.949 0.004
C 1.583 79.728 4.795
C 1.531 76.863 4.271
C 0.264 77.548 4.782
C 0.299 79.005 4.262
C 1.602 79.646 -2.143
C 1.547 76.803 -1.558
C 0.319 78.952 -1.589
C 0.284 77.489 -2.089
C -0.955 79.67 0.555
C -0.966 79.679 2.112
C -0.996 76.765 -0.012
C -1.002 76.78 2.704
C -0.977 79.706 4.814
C -1.003 76.807 4.263
C -0.941 79.67 -2.149
C -0.993 76.775 -1.571
C 8.786 82.787 2.603
C 8.478 81.396 0.458
C 8.515 81.395 2.008
C 8.738 82.779 -0.125
C 8.543 81.37 4.706
C 8.793 82.778 4.164
C 8.714 82.768 -1.689
C 8.372 81.407 -2.316
C 7.69 83.747 0.478
C 7.711 83.749 2.058
C 7.159 80.75 -0.028
C 7.195 80.751 2.617
C 6.324 83.221 2.603
C 6.014 81.709 0.512
C 6.033 81.71 2.1
C 6.29 83.217 -0.019
C 7.726 83.743 4.686
C 7.203 80.757 4.189
C 6.066 81.721 4.679
C 6.342 83.221 4.183
C 7.641 83.746 -2.144
C 7.138 80.734 -1.606
C 6.272 83.202 -1.598
C 5.975 81.683 -2.064
C 5.194 84.211 0.513
C 5.212 84.214 2.093
C 4.592 81.191 0.009
C 4.617 81.207 2.648
C 3.87 83.683 2.683
C 3.579 82.262 0.558
C 3.595 82.269 2.113
C 3.84 83.672 -0.038
C 5.261 84.217 4.715
C 4.637 81.214 4.223
C 3.665 82.281 4.84
C 3.898 83.686 4.245
C 5.184 84.192 -2.111
C 4.578 81.175 -1.562
C 3.836 83.659 -1.601
C 3.583 82.239 -2.162
C 9.682 87.145 2.621
C 9.377 85.723 0.486
C 9.391 85.73 2.044
C 9.664 87.134 -0.1
C 9.391 85.724 4.748
C 9.684 87.138 4.186
C 9.645 87.117 -1.663
C 9.339 85.701 -2.215
C 8.59 88.12 0.469
C 8.6 88.126 2.062
C 7.99 85.196 -0.051
C 8.016 85.201 2.595
C 7.194 87.637 2.593
C 6.881 86.168 0.489
C 6.896 86.171 2.072
C 7.175 87.63 -0.042
C 8.598 88.112 4.693
C 8.025 85.194 4.175
C 6.916 86.165 4.674
C 7.203 87.627 4.176
C 8.555 88.09 -2.161
C 7.973 85.185 -1.627
C 7.163 87.612 -1.624
C 6.86 86.151 -2.112
C 6.066 88.621 0.483
C 6.076 88.625 2.077
C 5.472 85.677 -0.029
C 5.497 85.683 2.616
C 4.708 88.121 2.652
C 4.41 86.698 0.518
C 4.423 86.7 2.077
C 4.69 88.116 -0.071
C 6.106 88.604 4.708
C 5.514 85.679 4.195
C 4.461 86.687 4.78
C 4.724 88.111 4.217
C 6.062 88.586 -2.148
C 5.462 85.662 -1.609
C 4.686 88.098 -1.636
C 4.408 86.671 -2.187
C 8.851 89.56 -0.105
C 8.866 89.57 2.626
C 7.76 90.514 0.478
C 7.768 90.52 2.05
C 8.87 89.561 4.196
C 7.779 90.501 4.777
C 8.838 89.54 -1.674
C 7.743 90.478 -2.249
C 6.38 90.052 -0.093
C 6.395 90.059 2.639
C 6.404 90.048 4.209
C 6.373 90.032 -1.663
C -2.24 78.971 2.672
C -2.265 77.486 0.539
C -2.272 77.488 2.136
C -2.224 78.967 0.002
C -2.282 77.515 4.764
C -2.249 78.992 4.262
C -2.217 78.983 -1.589
C -2.254 77.507 -2.092
H -3.59 75.752 2.38
H -3.589 75.76 0.27
H -3.589 75.788 4.617
H -3.503 79.645 5.906
H -4.848 77.501 5.837
H -3.585 75.808 -1.969
H -3.458 79.662 -3.229
H -4.791 77.581 -3.196
H -3.425 80.772 -1.919
H -3.495 80.755 4.593
H -3.467 80.724 2.436
H -3.438 80.731 0.248
H -6.223 75.902 2.354
H -6.206 75.919 0.241
H -6.258 75.936 4.584
H -6.08 79.493 5.94
H -6.178 75.965 -1.989
H -5.942 79.911 -3.198
H -5.755 80.827 -1.712
H -5.8 80.775 4.913
H -5.766 80.729 2.553
H -5.702 80.805 0.319
H 7.662 76.722 5.893
H 7.774 76.758 -3.109
H 6.926 79.328 5.828
H 5.276 77.343 5.871
H 6.947 79.202 -3.131
H 5.313 77.271 -3.142
H 4.319 79.746 5.815
H 2.806 77.6 5.856
H 4.314 79.672 -3.134
H 2.837 77.503 -3.147
H 1.53 75.785 2.428
H 1.535 75.762 0.308
H 1.533 75.851 4.654
H 1.596 79.733 5.877
H 0.264 77.538 5.864
H 1.547 75.784 -1.921
H 1.62 79.608 -3.224
H 0.292 77.462 -3.171
H 1.46 80.688 -1.892
H 1.443 80.759 4.497
H 1.45 80.706 2.411
H 1.46 80.676 0.211
H -0.999 75.739 2.408
H -1.001 75.728 0.295
H -0.996 75.794 4.644
H -0.978 79.665 5.895
H -1.002 75.759 -1.943
H -0.941 79.616 -3.23
H -0.931 80.728 -1.921
H -0.986 80.761 4.574
H -0.969 80.716 2.421
H -0.95 80.703 0.234
H 8.6 81.346 5.787
H 8.143 81.542 -3.364
H 7.743 83.737 5.768
H 6.088 81.722 5.76
H 7.615 83.769 -3.226
H 5.941 81.671 -3.145
H 5.282 84.224 5.796
H 3.779 82.307 5.916
H 5.177 84.189 -3.193
H 3.644 82.243 -3.242
H 9.686 83.048 -2.073
H 9.294 80.845 -2.387
H 3.047 84.321 2.391
H 2.565 82.06 0.238
H 2.593 82.067 2.469
H 3.024 84.314 0.265
H 2.615 82.074 4.678
H 3.104 84.318 4.621
H 3.034 84.287 -1.965
H 2.542 82.055 -1.932
H 9.778 83.085 2.29
H 9.331 80.891 0.025
H 9.44 80.892 2.258
H 9.742 83.065 0.163
H 9.406 80.854 4.306
H 9.77 83.07 4.525
H 9.347 85.761 5.829
H 9.29 85.73 -3.295
H 8.606 88.108 5.775
H 6.926 86.165 5.756
H 8.551 88.08 -3.243
H 6.855 86.147 -3.194
H 6.112 88.6 5.79
H 4.529 86.703 5.86
H 6.056 88.576 -3.23
H 4.465 86.679 -3.268
H 10.608 87.435 -2.041
H 10.175 85.053 -1.988
H 3.917 88.797 2.356
H 3.412 86.413 0.209
H 3.43 86.416 2.401
H 3.904 88.795 0.231
H 3.44 86.403 4.566
H 3.959 88.778 4.592
H 3.918 88.765 -2.005
H 3.388 86.389 -1.961
H 10.668 87.468 2.314
H 10.19 85.083 0.168
H 10.21 85.097 2.357
H 10.654 87.455 0.195
H 10.231 85.08 4.523
H 10.65 87.462 4.55
H 7.774 90.438 5.857
H 7.727 90.409 -3.328
H -2.289 77.496 5.846
H -2.247 77.486 -3.174
H 9.833 89.903 0.193
H 9.844 89.914 2.316
H 9.836 89.885 4.559
H 9.802 89.859 -2.049
H 7.973 91.535 2.363
H 7.963 91.527 0.156
H 7.984 91.538 4.548
H 7.955 91.517 -2.029
H 5.611 90.75 0.212
H 5.621 90.753 2.338
H 5.64 90.717 4.582
H 5.607 90.702 -2.032
H 6.2 75.341 -1.901
H 6.167 75.308 0.323
H 6.145 75.313 2.433
H 6.114 75.36 4.655
H 3.897 75.696 -1.907
H 3.88 75.674 0.317
H 3.865 75.697 2.433
H 3.855 75.762 4.655
C 11.927 77.877 0.657
C 11.913 77.872 2.216
C 11.278 75.052 0.064
C 11.276 75.039 2.778
C 10.524 77.435 2.777
C 10.2 76.032 0.627
C 10.191 76.019 2.218
C 10.544 77.458 0.102
C 11.906 77.877 4.923
C 11.279 75.05 4.336
C 10.184 76.02 4.856
C 10.52 77.446 4.373
C 11.933 77.899 -2.053
C 11.281 75.074 -1.496
C 10.548 77.488 -1.491
C 10.212 76.074 -2.016
C 9.506 78.445 0.68
C 9.488 78.421 2.228
C 8.793 75.704 0.05
C 8.774 75.684 2.761
C 9.447 78.381 4.991
C 8.762 75.697 4.32
C 9.515 78.507 -2.012
C 8.805 75.724 -1.509
C 22.914 74.171 2.786
C 22.303 72.833 0.653
C 22.296 72.821 2.244
C 22.925 74.192 0.128
C 22.275 72.844 4.873
C 22.91 74.188 4.37
C 22.93 74.207 -1.451
C 22.331 72.861 -1.979
C 22.041 75.438 0.619
C 22.05 75.434 2.197
C 20.894 72.692 0.081
C 20.879 72.697 2.789
C 20.551 75.246 2.725
C 20.03 73.833 0.637
C 20.031 73.844 2.215
C 20.541 75.23 0.103
C 22.053 75.463 4.808
C 20.87 72.718 4.343
C 20.039 73.888 4.855
C 20.559 75.263 4.312
C 22.021 75.427 -1.992
C 20.909 72.704 -1.476
C 20.535 75.231 -1.484
C 20.038 73.842 -2.003
C 19.546 76.381 0.62
C 19.556 76.391 2.196
C 18.64 73.522 0.077
C 18.64 73.549 2.785
C 18.058 76.013 2.737
C 17.652 74.547 0.63
C 17.655 74.564 2.219
C 18.047 75.986 0.089
C 19.58 76.412 4.802
C 18.646 73.58 4.34
C 17.671 74.617 4.847
C 18.07 76.043 4.315
C 19.536 76.37 -1.986
C 18.646 73.526 -1.479
C 18.047 75.987 -1.49
C 17.657 74.549 -1.997
C 16.871 76.877 0.633
C 16.874 76.894 2.182
C 16.268 74.079 0.075
C 16.275 74.104 2.787
C 15.486 76.444 2.751
C 15.164 74.995 0.631
C 15.167 75.007 2.222
C 15.483 76.423 0.084
C 16.895 76.938 4.874
C 16.286 74.135 4.346
C 15.181 75.048 4.863
C 15.496 76.472 4.344
C 16.874 76.865 -2.067
C 16.271 74.083 -1.484
C 15.485 76.427 -1.509
C 15.166 74.999 -2.011
C 14.383 77.371 0.641
C 14.379 77.379 2.199
C 13.781 74.528 0.071
C 13.788 74.538 2.787
C 14.383 77.402 4.902
C 13.797 74.561 4.346
C 14.388 77.372 -2.064
C 13.781 74.539 -1.488
C 24.557 78.521 2.656
C 23.969 77.224 0.511
C 24.01 77.212 2.061
C 24.499 78.527 -0.071
C 24.044 77.179 4.76
C 24.568 78.508 4.217
C 24.468 78.526 -1.635
C 23.858 77.264 -2.263
C 23.665 79.683 0.536
C 23.691 79.678 2.117
C 22.546 76.86 0.03
C 22.591 76.849 2.676
C 22.229 79.436 2.667
C 21.616 78.023 0.575
C 21.64 78.017 2.163
C 22.185 79.444 0.045
C 23.715 79.664 4.744
C 22.605 76.851 4.248
C 21.684 78.017 4.742
C 22.252 79.43 4.246
C 23.607 79.698 -2.085
C 22.517 76.852 -1.548
C 22.158 79.437 -1.535
C 21.563 78.011 -2.001
C 21.308 80.633 0.582
C 21.332 80.629 2.162
C 20.117 77.797 0.077
C 20.154 77.803 2.716
C 19.913 80.374 2.757
C 19.337 79.044 0.631
C 19.359 79.046 2.186
C 19.872 80.375 0.035
C 21.391 80.617 4.784
C 20.18 77.804 4.291
C 19.44 79.038 4.913
C 19.947 80.369 4.319
C 21.285 80.621 -2.042
C 20.095 77.788 -1.495
C 19.859 80.365 -1.527
C 19.327 79.026 -2.089
C 26.297 82.614 2.676
C 25.71 81.285 0.54
C 25.731 81.286 2.098
C 26.268 82.612 -0.044
C 25.74 81.274 4.802
C 26.304 82.604 4.241
C 26.241 82.603 -1.608
C 25.659 81.277 -2.16
C 25.411 83.79 0.529
C 25.428 83.791 2.123
C 24.244 81.045 0.009
C 24.28 81.039 2.654
C 23.955 83.588 2.659
C 23.35 82.214 0.554
C 23.371 82.212 2.137
C 23.926 83.591 0.024
C 25.433 83.772 4.754
C 24.294 81.027 4.234
C 23.4 82.196 4.739
C 23.968 83.573 4.241
C 25.362 83.773 -2.1
C 24.22 81.04 -1.568
C 23.905 83.578 -1.558
C 23.318 82.207 -2.047
C 23.036 84.779 0.554
C 23.052 84.777 2.148
C 21.87 82.014 0.04
C 21.905 82.01 2.686
C 21.613 84.553 2.729
C 21.032 83.222 0.593
C 21.051 83.219 2.152
C 21.585 84.557 0.005
C 23.086 84.745 4.779
C 21.927 81.999 4.264
C 21.096 83.193 4.856
C 21.633 84.537 4.293
C 23.016 84.751 -2.077
C 21.852 82.004 -1.539
C 21.572 84.544 -1.56
C 21.016 83.201 -2.113
C 25.949 85.151 -0.043
C 25.976 85.152 2.688
C 25.07 86.3 0.545
C 25.084 86.301 2.118
C 25.983 85.139 4.258
C 25.1 86.274 4.845
C 25.927 85.137 -1.612
C 25.036 86.274 -2.182
C 23.624 86.121 -0.021
C 23.649 86.119 2.712
C 23.662 86.103 4.282
C 23.607 86.106 -1.591
C 12.998 76.925 2.763
C 12.679 75.477 0.628
C 12.678 75.477 2.225
C 13.004 76.923 0.092
C 12.682 75.5 4.854
C 12.999 76.943 4.353
C 13.008 76.94 -1.499
C 12.685 75.5 -2.004
H 11.053 74.026 2.472
H 11.049 74.037 0.362
H 11.069 74.056 4.709
H 11.904 77.822 6.004
H 10.17 75.977 5.937
H 11.053 74.088 -1.877
H 11.919 77.847 -3.134
H 10.211 76.064 -3.098
H 12.171 78.929 -1.822
H 12.121 78.912 4.692
H 12.135 78.882 2.534
H 12.158 78.887 0.345
H 8.5 74.683 2.456
H 8.513 74.701 0.343
H 8.48 74.719 4.687
H 9.351 78.169 6.048
H 8.541 74.745 -1.887
H 9.536 78.573 -3.092
H 9.903 79.431 -1.604
H 9.871 79.376 5.024
H 9.888 79.329 2.662
H 9.958 79.395 0.427
H 22.236 72.826 5.954
H 22.331 72.856 -3.061
H 22.054 75.509 5.889
H 20.038 73.893 5.937
H 22.022 75.396 -3.074
H 20.034 73.829 -3.085
H 19.583 76.428 5.884
H 17.679 74.614 5.929
H 19.534 76.371 -3.068
H 17.662 74.528 -3.079
H 16.074 73.081 2.5
H 16.067 73.061 0.381
H 16.097 73.141 4.727
H 16.912 76.935 5.956
H 15.183 75.034 5.945
H 16.075 73.083 -1.848
H 16.882 76.824 -3.149
H 15.166 74.971 -3.092
H 16.938 77.916 -1.816
H 16.956 77.977 4.58
H 16.946 77.929 2.491
H 16.943 77.9 0.288
H 13.591 73.516 2.49
H 13.58 73.51 0.377
H 13.612 73.565 4.727
H 14.379 77.358 5.983
H 13.577 73.544 -1.861
H 14.374 77.32 -3.145
H 14.601 78.408 -1.835
H 14.576 78.439 4.664
H 14.576 78.396 2.509
H 14.585 78.385 0.321
H 24.1 77.14 5.84
H 23.655 77.445 -3.311
H 23.734 79.653 5.826
H 21.71 78.012 5.824
H 23.582 79.728 -3.167
H 21.525 78.007 -3.083
H 21.418 80.617 5.865
H 19.561 79.038 5.988
H 21.275 80.621 -3.124
H 19.384 79.018 -3.17
H 25.475 78.607 -2.024
H 24.646 76.527 -2.341
H 19.231 81.163 2.468
H 18.302 79.045 0.315
H 18.339 79.042 2.546
H 19.2 81.165 0.342
H 18.37 79.04 4.753
H 19.296 81.144 4.699
H 19.196 81.14 -1.889
H 18.271 79.047 -1.855
H 25.587 78.615 2.338
H 24.698 76.554 0.075
H 24.813 76.529 2.307
H 25.54 78.607 0.213
H 24.782 76.499 4.355
H 25.585 78.598 4.574
H 25.709 81.315 5.883
H 25.613 81.316 -3.24
H 25.444 83.763 5.836
H 23.414 82.191 5.82
H 25.353 83.765 -3.182
H 23.308 82.207 -3.129
H 23.095 84.737 5.861
H 21.17 83.191 5.935
H 23.004 84.743 -3.159
H 21.07 83.2 -3.193
H 27.246 82.725 -1.989
H 26.351 80.476 -1.936
H 20.97 85.373 2.436
H 19.997 83.14 0.288
H 20.023 83.135 2.48
H 20.949 85.377 0.311
H 20.038 83.115 4.645
H 21.015 85.34 4.672
H 20.949 85.349 -1.926
H 19.961 83.125 -1.882
H 27.326 82.736 2.365
H 26.379 80.497 0.219
H 26.409 80.502 2.408
H 27.303 82.731 0.247
H 26.435 80.477 4.572
H 27.316 82.73 4.602
H 25.086 86.211 5.925
H 25.003 86.21 -3.261
H 12.677 75.479 5.936
H 12.684 75.479 -3.085
H 26.98 85.294 0.252
H 27.001 85.297 2.375
H 26.995 85.266 4.618
H 26.933 85.261 -1.991
H 25.486 87.255 2.432
H 25.467 87.254 0.224
H 25.505 87.251 4.617
H 25.449 87.25 -1.962
H 23.008 86.955 0.288
H 23.026 86.953 2.415
H 23.045 86.908 4.659
H 22.987 86.914 -1.957
H 20.519 71.766 -1.849
H 20.483 71.736 0.377
H 20.466 71.743 2.491
H 20.452 71.792 4.715
H 18.351 72.551 -1.844
H 18.336 72.53 0.382
H 18.331 72.552 2.498
H 18.342 72.614 4.721
C 26.627 73.02 0.72
C 26.616 73.001 2.278
C 25.312 70.436 0.096
C 25.295 70.404 2.82
C 25.162 72.909 2.831
C 24.519 71.633 0.672
C 24.506 71.614 2.265
C 25.184 72.944 0.157
C 26.618 72.993 4.978
C 25.298 70.406 4.379
C 24.501 71.609 4.91
C 25.164 72.915 4.428
C 26.643 73.076 -1.987
C 25.331 70.473 -1.465
C 25.195 72.985 -1.437
C 24.546 71.691 -1.977
C 24.39 74.132 0.736
C 24.373 74.106 2.285
C 23.09 71.61 0.094
C 23.067 71.586 2.812
C 24.334 74.073 5.04
C 23.06 71.599 4.372
C 24.407 74.205 -1.954
C 23.11 71.633 -1.466
C 36.164 66.635 2.784
C 35.331 65.413 0.638
C 35.316 65.362 2.216
C 36.2 66.703 0.143
C 35.263 65.318 4.831
C 36.146 66.616 4.371
C 36.216 66.746 -1.441
C 35.37 65.496 -1.981
C 35.687 68.135 0.657
C 35.681 68.1 2.231
C 33.845 65.56 0.074
C 33.805 65.448 2.702
C 34.178 68.182 2.752
C 33.363 66.944 0.64
C 33.343 66.886 2.217
C 34.193 68.243 0.149
C 35.664 68.075 4.825
C 33.767 65.389 4.266
C 33.308 66.806 4.786
C 34.166 68.143 4.325
C 35.676 68.175 -1.945
C 33.882 65.631 -1.489
C 34.204 68.287 -1.422
C 33.404 67.041 -1.942
C 33.505 69.59 0.676
C 33.503 69.557 2.25
C 31.924 66.963 0.088
C 31.877 66.841 2.737
C 31.961 69.455 2.79
C 31.196 68.193 0.66
C 31.184 68.139 2.233
C 31.969 69.526 0.155
C 33.516 69.508 4.841
C 31.849 66.785 4.287
C 31.189 68.078 4.858
C 31.967 69.426 4.374
C 33.512 69.631 -1.921
C 31.958 67.034 -1.453
C 31.984 69.573 -1.43
C 31.241 68.279 -1.975
C 31.095 70.689 0.728
C 31.092 70.65 2.271
C 29.762 68.205 0.082
C 29.738 68.131 2.801
C 29.652 70.623 2.821
C 28.974 69.38 0.667
C 28.965 69.345 2.258
C 29.661 70.677 0.153
C 31.114 70.61 4.958
C 29.739 68.111 4.359
C 28.976 69.324 4.904
C 29.665 70.613 4.41
C 31.127 70.764 -1.966
C 29.79 68.26 -1.473
C 29.682 70.725 -1.437
C 29.01 69.457 -1.981
C 28.875 71.886 0.72
C 28.872 71.859 2.276
C 27.542 69.314 0.092
C 27.525 69.274 2.818
C 28.882 71.84 4.97
C 27.531 69.273 4.38
C 28.898 71.948 -1.984
C 27.565 69.356 -1.469
C 38.872 70.749 2.711
C 38.049 69.579 0.571
C 38.078 69.545 2.124
C 38.829 70.779 -0.011
C 38.084 69.519 4.83
C 38.874 70.737 4.272
C 38.806 70.789 -1.576
C 37.956 69.651 -2.203
C 38.267 72.092 0.585
C 38.288 72.074 2.164
C 36.554 69.462 0.084
C 36.575 69.413 2.724
C 36.799 72.103 2.714
C 35.902 70.817 0.627
C 35.913 70.791 2.219
C 36.768 72.131 0.098
C 38.306 72.063 4.785
C 36.578 69.394 4.296
C 35.943 70.762 4.779
C 36.816 72.086 4.293
C 38.22 72.122 -2.035
C 36.531 69.475 -1.494
C 36.747 72.139 -1.482
C 35.861 70.834 -1.936
C 36.168 73.49 0.629
C 36.183 73.474 2.209
C 34.384 70.902 0.133
C 34.398 70.863 2.769
C 34.742 73.485 2.806
C 33.912 72.309 0.678
C 33.919 72.29 2.234
C 34.715 73.512 0.087
C 36.238 73.448 4.824
C 34.414 70.834 4.343
C 33.998 72.244 4.966
C 34.773 73.463 4.367
C 36.15 73.495 -1.992
C 34.37 70.917 -1.44
C 34.706 73.52 -1.477
C 33.928 72.314 -2.062
C 41.455 74.501 2.692
C 40.612 73.305 0.563
C 40.632 73.297 2.122
C 41.422 74.511 -0.025
C 40.645 73.292 4.823
C 41.464 74.494 4.255
C 41.393 74.513 -1.588
C 40.556 73.32 -2.138
C 40.825 75.839 0.548
C 40.844 75.833 2.14
C 39.12 73.335 0.045
C 39.154 73.316 2.686
C 39.359 75.913 2.681
C 38.488 74.671 0.586
C 38.506 74.661 2.169
C 39.328 75.925 0.05
C 40.855 75.821 4.766
C 39.167 73.305 4.265
C 38.538 74.645 4.762
C 39.374 75.9 4.262
C 40.771 75.841 -2.078
C 39.097 73.34 -1.533
C 39.304 75.922 -1.532
C 38.453 74.676 -2.009
C 38.696 77.271 0.579
C 38.714 77.264 2.172
C 36.995 74.756 0.08
C 37.025 74.739 2.722
C 37.26 77.317 2.755
C 36.424 76.119 0.627
C 36.44 76.11 2.186
C 37.229 77.33 0.036
C 38.752 77.233 4.797
C 37.047 74.725 4.299
C 36.49 76.08 4.887
C 37.283 77.3 4.318
C 38.669 77.256 -2.049
C 36.977 74.757 -1.499
C 37.213 77.325 -1.528
C 36.406 76.11 -2.078
C 41.623 77.077 -0.026
C 41.655 77.068 2.697
C 40.991 78.38 0.562
C 41.008 78.374 2.131
C 41.667 77.058 4.264
C 41.035 78.356 4.843
C 41.597 77.074 -1.593
C 40.951 78.374 -2.153
C 39.535 78.483 0.003
C 39.565 78.473 2.727
C 39.582 78.458 4.294
C 39.514 78.477 -1.565
C 27.422 71.799 2.823
C 26.751 70.509 0.669
C 26.743 70.488 2.266
C 27.433 71.833 0.152
C 26.747 70.486 4.903
C 27.429 71.8 4.413
C 27.449 71.876 -1.439
C 26.78 70.571 -1.971
H 24.829 69.48 2.505
H 24.843 69.505 0.385
H 24.842 69.496 4.747
H 26.606 72.953 6.059
H 24.482 71.568 5.991
H 24.881 69.572 -1.859
H 26.628 73.045 -3.068
H 24.544 71.691 -3.059
H 27.114 74.017 -1.738
H 27.087 73.938 4.738
H 27.08 73.924 2.603
H 27.096 73.947 0.415
H 22.586 70.667 2.504
H 22.605 70.687 0.385
H 22.575 70.703 4.738
H 24.206 73.904 6.101
H 22.649 70.732 -1.848
H 24.444 74.267 -3.034
H 24.982 75.024 -1.544
H 24.974 74.945 5.042
H 24.964 74.903 2.716
H 25.037 74.961 0.483
H 35.215 65.29 5.911
H 35.367 65.502 -3.063
H 35.662 68.105 5.907
H 33.298 66.791 5.868
H 35.653 68.163 -3.027
H 33.4 67.077 -3.024
H 33.532 69.508 5.923
H 31.192 68.036 5.94
H 33.511 69.631 -3.003
H 31.253 68.265 -3.057
H 29.214 67.241 2.478
H 29.226 67.311 0.375
H 29.23 67.229 4.725
H 31.122 70.586 6.039
H 28.971 69.298 5.986
H 29.27 67.416 -1.905
H 31.153 70.793 -3.047
H 29.016 69.461 -3.063
H 31.472 71.727 -1.612
H 31.499 71.584 4.686
H 31.466 71.6 2.629
H 31.458 71.665 0.433
H 27.05 68.354 2.503
H 27.068 68.384 0.379
H 27.06 68.371 4.747
H 28.865 71.808 6.051
H 27.112 68.457 -1.865
H 28.887 71.925 -3.065
H 29.376 72.884 -1.727
H 29.372 72.774 4.729
H 29.348 72.774 2.603
H 29.351 72.81 0.417
H 38.102 69.529 5.912
H 37.792 69.873 -3.249
H 38.33 72.063 5.866
H 35.97 70.755 5.861
H 38.202 72.149 -3.116
H 35.825 70.837 -3.018
H 36.27 73.454 5.906
H 34.138 72.222 6.039
H 36.14 73.5 -3.074
H 34.045 72.288 -3.137
H 39.815 70.682 -1.952
H 38.625 68.805 -2.291
H 34.242 74.403 2.527
H 32.919 72.57 0.337
H 32.927 72.55 2.579
H 34.225 74.426 0.394
H 32.96 72.519 4.833
H 34.3 74.36 4.743
H 34.219 74.42 -1.828
H 32.895 72.605 -1.92
H 39.905 70.651 2.406
H 38.696 68.821 0.149
H 38.767 68.751 2.379
H 39.868 70.67 0.271
H 38.745 68.728 4.502
H 39.893 70.64 4.622
H 40.63 73.354 5.903
H 40.509 73.387 -3.217
H 40.874 75.821 5.848
H 38.559 74.649 5.844
H 40.76 75.845 -3.16
H 38.442 74.681 -3.091
H 38.769 77.235 5.879
H 36.577 76.075 5.965
H 38.657 77.26 -3.13
H 36.471 76.101 -3.158
H 42.403 74.441 -1.97
H 41.085 72.397 -1.937
H 36.792 78.248 2.464
H 35.394 76.248 0.321
H 35.417 76.238 2.512
H 36.771 78.261 0.342
H 35.436 76.217 4.688
H 36.839 78.213 4.694
H 36.761 78.239 -1.89
H 35.356 76.25 -1.86
H 42.488 74.422 2.379
H 41.114 72.404 0.237
H 41.147 72.395 2.425
H 42.462 74.43 0.26
H 41.169 72.372 4.6
H 42.484 74.422 4.609
H 41.026 78.319 5.924
H 40.914 78.339 -3.234
H 26.737 70.463 5.985
H 26.779 70.569 -3.053
H 42.664 77.022 0.264
H 42.688 77.014 2.38
H 42.687 76.99 4.617
H 42.607 77.006 -1.974
H 41.59 79.233 2.439
H 41.565 79.239 0.243
H 41.62 79.232 4.596
H 41.544 79.249 -1.92
H 39.099 79.423 0.312
H 39.12 79.413 2.431
H 39.141 79.373 4.668
H 39.065 79.393 -1.926
C 39.786 65.246 0.681
C 39.776 65.233 2.237
C 38.316 62.764 0.066
C 38.331 62.721 2.782
C 38.304 65.193 2.807
C 37.538 63.995 0.644
C 37.535 63.962 2.237
C 38.323 65.24 0.136
C 39.785 65.229 4.931
C 38.352 62.719 4.341
C 37.541 63.938 4.868
C 38.307 65.191 4.397
C 39.793 65.299 -2.019
C 38.317 62.808 -1.494
C 38.334 65.291 -1.452
C 37.552 64.075 -1.99
C 37.615 66.456 0.74
C 37.59 66.422 2.282
C 36.054 64.12 0.072
C 36.044 64.048 2.774
C 37.531 66.356 5.029
C 36.041 64.031 4.336
C 37.656 66.563 -1.948
C 36.068 64.17 -1.486
C 48.978 57.838 2.693
C 47.903 56.825 0.565
C 47.905 56.808 2.157
C 48.977 57.867 0.038
C 47.913 56.822 4.777
C 48.991 57.848 4.278
C 48.973 57.885 -1.541
C 47.916 56.853 -2.059
C 48.623 59.363 0.54
C 48.64 59.348 2.117
C 46.535 57.249 0.008
C 46.543 57.244 2.711
C 47.182 59.75 2.656
C 46.161 58.641 0.572
C 46.177 58.642 2.149
C 47.148 59.752 0.038
C 48.671 59.36 4.725
C 46.554 57.258 4.265
C 46.221 58.666 4.786
C 47.206 59.755 4.243
C 48.581 59.373 -2.068
C 46.539 57.264 -1.549
C 47.132 59.764 -1.549
C 46.154 58.662 -2.065
C 46.655 61.204 0.564
C 46.679 61.201 2.139
C 44.753 58.901 0.022
C 44.783 58.91 2.73
C 45.136 61.435 2.69
C 44.217 60.223 0.586
C 44.238 60.229 2.174
C 45.099 61.429 0.049
C 46.727 61.2 4.741
C 44.811 58.931 4.285
C 44.292 60.263 4.801
C 45.17 61.453 4.268
C 46.624 61.212 -2.037
C 44.749 58.914 -1.534
C 45.09 61.442 -1.53
C 44.207 60.244 -2.04
C 44.303 62.7 0.603
C 44.322 62.706 2.151
C 42.756 60.295 0.039
C 42.792 60.3 2.753
C 42.84 62.777 2.727
C 42.036 61.529 0.607
C 42.055 61.529 2.198
C 42.812 62.774 0.068
C 44.377 62.731 4.831
C 42.826 60.321 4.312
C 42.104 61.558 4.837
C 42.872 62.798 4.318
C 44.289 62.713 -2.083
C 42.751 60.312 -1.52
C 42.809 62.794 -1.524
C 42.026 61.559 -2.033
C 42.043 64.023 0.636
C 42.05 64.023 2.191
C 40.568 61.533 0.054
C 40.6 61.52 2.773
C 42.084 64.04 4.879
C 40.63 61.535 4.332
C 42.039 64.053 -2.056
C 40.563 61.562 -1.506
C 52.134 61.252 2.565
C 51.081 60.289 0.422
C 51.125 60.255 1.971
C 52.065 61.292 -0.161
C 51.16 60.196 4.668
C 52.149 61.227 4.125
C 52.026 61.309 -1.724
C 50.976 60.378 -2.349
C 51.739 62.675 0.455
C 51.772 62.654 2.035
C 49.623 60.494 -0.049
C 49.677 60.455 2.595
C 50.329 62.986 2.595
C 49.207 61.923 0.506
C 49.237 61.901 2.093
C 50.275 63.022 -0.026
C 51.805 62.619 4.661
C 49.701 60.443 4.167
C 49.294 61.871 4.671
C 50.358 62.963 4.174
C 51.676 62.723 -2.166
C 49.583 60.504 -1.626
C 50.238 63.032 -1.605
C 49.138 61.943 -2.069
C 49.922 64.454 0.52
C 49.952 64.434 2.1
C 47.729 62.291 0.02
C 47.781 62.27 2.656
C 48.542 64.737 2.703
C 47.482 63.736 0.579
C 47.513 63.722 2.134
C 48.487 64.766 -0.016
C 50.018 64.387 4.719
C 47.817 62.253 4.23
C 47.601 63.672 4.856
C 48.582 64.712 4.265
C 49.88 64.464 -2.102
C 47.696 62.298 -1.551
C 48.463 64.769 -1.578
C 47.452 63.735 -2.138
C 55.313 64.361 2.579
C 54.246 63.369 0.446
C 54.275 63.355 2.003
C 55.268 64.384 -0.14
C 54.298 63.328 4.707
C 55.326 64.342 4.143
C 55.229 64.393 -1.703
C 54.179 63.394 -2.253
C 54.933 65.797 0.442
C 54.959 65.784 2.035
C 52.795 63.712 -0.075
C 52.843 63.681 2.57
C 53.524 66.159 2.582
C 52.422 65.132 0.48
C 52.45 65.114 2.062
C 53.48 66.184 -0.053
C 54.974 65.752 4.665
C 52.862 63.657 4.149
C 52.488 65.076 4.663
C 53.54 66.132 4.164
C 54.864 65.812 -2.187
C 52.761 63.724 -1.651
C 53.447 66.188 -1.635
C 52.373 65.15 -2.12
C 53.119 67.621 0.486
C 53.144 67.606 2.081
C 50.972 65.516 -0.023
C 51.02 65.487 2.622
C 51.733 67.947 2.672
C 50.669 66.952 0.538
C 50.695 66.934 2.097
C 51.69 67.975 -0.052
C 53.181 67.551 4.711
C 51.047 65.461 4.2
C 50.746 66.88 4.801
C 51.755 67.917 4.236
C 53.073 67.615 -2.145
C 50.942 65.521 -1.602
C 51.663 67.974 -1.617
C 50.63 66.951 -2.167
C 55.949 66.85 -0.132
C 55.992 66.828 2.598
C 55.582 68.246 0.464
C 55.606 68.234 2.037
C 56.004 66.806 4.167
C 55.629 68.19 4.763
C 55.913 66.853 -1.701
C 55.524 68.247 -2.261
C 54.174 68.638 -0.091
C 54.215 68.613 2.642
C 54.231 68.586 4.211
C 54.143 68.637 -1.661
C 40.573 64.019 2.764
C 39.802 62.758 0.625
C 39.812 62.745 2.222
C 40.563 64.035 0.101
C 39.846 62.756 4.849
C 40.591 64.032 4.352
C 40.567 64.068 -1.489
C 39.801 62.811 -2.003
H 37.835 61.81 2.474
H 37.811 61.851 0.354
H 37.883 61.817 4.71
H 39.787 65.185 6.012
H 37.528 63.896 5.949
H 37.816 61.932 -1.884
H 39.765 65.275 -3.101
H 37.551 64.087 -3.072
H 40.314 66.217 -1.778
H 40.268 66.168 4.695
H 40.268 66.142 2.555
H 40.286 66.156 0.378
H 35.497 63.169 2.46
H 35.491 63.239 0.351
H 35.508 63.16 4.691
H 37.398 66.189 6.09
H 35.521 63.322 -1.878
H 37.702 66.651 -3.026
H 38.28 67.326 -1.502
H 38.187 67.217 5.025
H 38.194 67.204 2.723
H 38.298 67.261 0.502
H 47.873 56.816 5.859
H 47.904 56.854 -3.141
H 48.696 59.397 5.806
H 46.229 58.668 5.868
H 48.563 59.351 -3.15
H 46.137 58.659 -3.147
H 46.744 61.211 5.823
H 44.308 60.258 5.883
H 46.617 61.222 -3.119
H 44.199 60.235 -3.122
H 42.238 59.414 2.47
H 42.208 59.412 0.339
H 42.297 59.457 4.692
H 44.401 62.724 5.913
H 42.113 61.547 5.919
H 42.209 59.45 -1.886
H 44.279 62.691 -3.165
H 42.015 61.548 -3.114
H 44.735 63.664 -1.826
H 44.818 63.678 4.546
H 44.772 63.641 2.457
H 44.744 63.631 0.272
H 40.094 60.61 2.478
H 40.062 60.624 0.351
H 40.15 60.642 4.711
H 42.087 64.013 5.961
H 40.057 60.684 -1.883
H 42.011 64.031 -3.137
H 42.565 64.968 -1.816
H 42.585 64.967 4.631
H 42.555 64.929 2.498
H 42.547 64.928 0.322
H 51.205 60.133 5.747
H 50.853 60.626 -3.395
H 51.827 62.595 5.743
H 49.323 61.852 5.752
H 51.659 62.765 -3.247
H 49.095 61.959 -3.15
H 50.05 64.372 5.801
H 47.719 63.623 5.931
H 49.865 64.472 -3.184
H 47.503 63.71 -3.218
H 52.985 61.001 -2.119
H 51.424 59.397 -2.432
H 48.215 65.73 2.422
H 46.515 64.111 0.272
H 46.56 64.087 2.496
H 48.173 65.753 0.297
H 46.605 64.064 4.701
H 48.282 65.677 4.651
H 48.146 65.741 -1.933
H 46.473 64.134 -1.906
H 53.12 60.947 2.24
H 51.499 59.395 -0.023
H 51.612 59.319 2.209
H 53.059 60.967 0.116
H 51.58 59.289 4.253
H 53.125 60.92 4.475
H 54.293 63.373 5.788
H 54.146 63.453 -3.333
H 54.989 65.735 5.747
H 52.507 65.062 5.744
H 54.847 65.814 -3.269
H 52.358 65.157 -3.202
H 53.194 67.535 5.793
H 50.823 66.844 5.88
H 53.053 67.617 -3.226
H 50.674 66.933 -3.248
H 56.202 64.121 -2.092
H 54.513 62.388 -2.037
H 51.452 68.953 2.386
H 49.68 67.275 0.241
H 49.716 67.25 2.433
H 51.421 68.975 0.26
H 49.737 67.216 4.6
H 51.497 68.895 4.621
H 51.396 68.959 -1.976
H 49.628 67.284 -1.931
H 56.308 64.081 2.26
H 54.561 62.387 0.118
H 54.605 62.37 2.306
H 56.271 64.095 0.143
H 54.633 62.327 4.471
H 56.311 64.068 4.497
H 55.601 68.133 5.843
H 55.463 68.207 -3.341
H 39.847 62.739 5.931
H 39.795 62.809 -3.085
H 56.958 66.585 0.155
H 56.992 66.57 2.277
H 56.99 66.533 4.52
H 56.888 66.583 -2.087
H 56.345 68.959 2.349
H 56.313 68.976 0.142
H 56.377 68.938 4.532
H 56.281 68.989 -2.042
H 53.928 69.643 0.224
H 53.958 69.624 2.351
H 53.974 69.565 4.594
H 53.879 69.623 -2.02
H 45.817 56.548 -1.917
H 45.792 56.521 0.304
H 45.795 56.52 2.417
H 45.816 56.56 4.637
H 44.103 58.126 -1.897
H 44.097 58.095 0.324
H 44.118 58.105 2.447
H 44.165 58.15 4.665
C 52.022 55.427 0.575
C 52.022 55.418 2.134
C 49.908 53.449 -0.014
C 49.923 53.418 2.699
C 50.627 55.831 2.709
C 49.558 54.863 0.562
C 49.557 54.844 2.154
C 50.633 55.86 0.036
C 52.045 55.405 4.838
C 49.946 53.413 4.256
C 49.576 54.829 4.79
C 50.645 55.831 4.306
C 52.015 55.464 -2.133
C 49.909 53.479 -1.574
C 50.638 55.896 -1.556
C 49.567 54.912 -2.078
C 50.319 57.258 0.628
C 50.305 57.235 2.176
C 48.198 55.383 0.003
C 48.196 55.356 2.712
C 50.273 57.203 4.938
C 48.208 55.361 4.272
C 50.335 57.325 -2.062
C 48.205 55.405 -1.556
C 59.142 46.169 2.559
C 57.882 45.39 0.434
C 57.886 45.37 2.025
C 59.138 46.202 -0.097
C 57.905 45.377 4.646
C 59.163 46.172 4.143
C 59.132 46.224 -1.676
C 57.89 45.421 -2.191
C 59.091 47.733 0.409
C 59.111 47.711 1.986
C 56.619 46.069 -0.117
C 56.636 46.057 2.585
C 57.762 48.382 2.531
C 56.528 47.504 0.45
C 56.549 47.499 2.027
C 57.72 48.396 -0.087
C 59.152 47.712 4.595
C 56.654 46.065 4.139
C 56.604 47.508 4.661
C 57.792 48.378 4.118
C 59.043 47.756 -2.2
C 56.621 46.085 -1.674
C 57.701 48.414 -1.674
C 56.514 47.531 -2.186
C 57.533 49.907 0.443
C 57.561 49.897 2.018
C 55.191 48.036 -0.093
C 55.231 48.034 2.612
C 56.109 50.417 2.576
C 54.939 49.439 0.473
C 54.966 49.437 2.062
C 56.062 50.422 -0.069
C 57.616 49.88 4.622
C 55.267 48.043 4.167
C 55.032 49.451 4.686
C 56.15 50.421 4.154
C 57.495 49.925 -2.16
C 55.183 48.049 -1.648
C 56.047 50.436 -1.647
C 54.921 49.46 -2.151
C 55.582 51.817 0.49
C 55.608 51.817 2.038
C 53.522 49.836 -0.065
C 53.566 49.831 2.646
C 54.209 52.22 2.623
C 53.116 51.213 0.505
C 53.139 51.208 2.096
C 54.17 52.227 -0.042
C 55.675 51.82 4.728
C 53.607 49.838 4.204
C 53.199 51.214 4.734
C 54.248 52.226 4.215
C 55.554 51.829 -2.208
C 53.512 49.852 -1.624
C 54.161 52.242 -1.635
C 53.097 51.238 -2.134
C 53.788 53.627 0.529
C 53.803 53.623 2.087
C 51.7 51.61 -0.038
C 51.736 51.592 2.676
C 53.844 53.619 4.787
C 51.771 51.594 4.235
C 53.769 53.648 -2.174
C 51.693 51.632 -1.597
C 62.912 48.91 2.424
C 61.687 48.169 0.283
C 61.729 48.124 1.833
C 62.843 48.969 -0.303
C 61.761 48.056 4.53
C 62.928 48.881 3.985
C 62.801 48.997 -1.866
C 61.591 48.284 -2.488
C 62.793 50.388 0.317
C 62.827 50.357 1.897
C 60.293 48.65 -0.182
C 60.348 48.595 2.463
C 61.478 50.958 2.464
C 60.167 50.132 0.376
C 60.198 50.101 1.964
C 61.423 51.009 -0.158
C 62.861 50.312 4.524
C 60.375 48.576 4.034
C 60.257 50.056 4.542
C 61.508 50.927 4.043
C 62.729 50.453 -2.304
C 60.25 48.672 -1.759
C 61.382 51.03 -1.737
C 60.093 50.171 -2.198
C 61.356 52.482 0.392
C 61.388 52.452 1.971
C 58.789 50.777 -0.104
C 58.847 50.74 2.534
C 60.07 53.019 2.582
C 58.836 52.244 0.461
C 58.869 52.22 2.016
C 60.012 53.064 -0.138
C 61.453 52.389 4.592
C 58.883 50.713 4.109
C 58.957 52.148 4.741
C 60.109 52.983 4.144
C 61.307 52.505 -2.231
C 58.751 50.794 -1.675
C 59.982 53.075 -1.7
C 58.794 52.256 -2.258
C 66.627 51.359 2.43
C 65.383 50.593 0.299
C 65.415 50.571 1.856
C 66.577 51.395 -0.29
C 65.441 50.535 4.56
C 66.641 51.335 3.994
C 66.535 51.415 -1.853
C 65.312 50.637 -2.401
C 66.521 52.846 0.295
C 66.55 52.824 1.889
C 64.024 51.208 -0.216
C 64.075 51.162 2.429
C 65.216 53.466 2.441
C 63.932 52.673 0.342
C 63.963 52.646 1.924
C 65.169 53.505 -0.193
C 66.568 52.785 4.519
C 64.093 51.132 4.009
C 64.001 52.597 4.525
C 65.233 53.434 4.024
C 66.447 52.879 -2.333
C 63.987 51.23 -1.792
C 65.131 53.519 -1.775
C 63.878 52.705 -2.258
C 65.091 54.984 0.35
C 65.118 54.96 1.944
C 62.583 53.328 -0.154
C 62.634 53.284 2.49
C 63.801 55.565 2.54
C 62.56 54.794 0.41
C 62.588 54.768 1.969
C 63.755 55.605 -0.183
C 65.153 54.895 4.574
C 62.661 53.251 4.068
C 62.636 54.701 4.671
C 63.823 55.528 4.104
C 65.035 54.992 -2.281
C 62.549 53.342 -1.733
C 63.722 55.614 -1.747
C 62.511 54.808 -2.295
C 67.718 53.686 -0.281
C 67.766 53.651 2.449
C 67.628 55.125 0.319
C 67.654 55.105 1.891
C 67.779 53.623 4.018
C 67.678 55.053 4.617
C 67.678 53.699 -1.85
C 67.561 55.143 -2.407
C 66.319 55.781 -0.23
C 66.364 55.743 2.502
C 66.38 55.711 4.071
C 66.283 55.79 -1.8
C 52.406 54.02 2.666
C 51.316 53.011 0.533
C 51.329 52.999 2.129
C 52.386 54.036 -0.003
C 51.37 52.995 4.757
C 52.432 54.021 4.255
C 52.384 54.061 -1.594
C 51.309 53.049 -2.096
H 49.171 52.703 2.394
H 49.154 52.732 0.284
H 49.222 52.702 4.63
H 52.021 55.353 5.919
H 49.552 54.792 5.871
H 49.166 52.789 -1.953
H 51.966 55.438 -3.213
H 49.551 54.913 -3.16
H 52.788 56.186 -1.904
H 52.797 56.148 4.608
H 52.772 56.131 2.45
H 52.774 56.14 0.263
H 47.408 54.678 2.411
H 47.409 54.703 0.297
H 47.432 54.702 4.64
H 50.084 57.069 5.995
H 47.438 54.741 -1.931
H 50.38 57.375 -3.142
H 51.178 57.872 -1.66
H 51.18 57.791 4.972
H 51.148 57.76 2.606
H 51.223 57.795 0.372
H 57.869 45.376 5.728
H 57.875 45.426 -3.273
H 59.187 47.741 5.676
H 56.616 47.505 5.743
H 59.016 47.741 -3.281
H 56.493 47.532 -3.267
H 57.637 49.882 5.704
H 55.048 49.437 5.768
H 57.484 49.937 -3.242
H 54.904 49.451 -3.233
H 52.825 49.097 2.36
H 52.788 49.102 0.24
H 52.898 49.116 4.585
H 55.698 51.802 5.81
H 53.204 51.194 5.816
H 52.788 49.135 -1.987
H 55.529 51.802 -3.289
H 53.072 51.225 -3.216
H 56.195 52.664 -1.955
H 56.302 52.651 4.434
H 56.247 52.634 2.347
H 56.209 52.63 0.148
H 51 50.857 2.381
H 50.967 50.875 0.268
H 51.065 50.868 4.616
H 53.827 53.577 5.868
H 50.965 50.923 -1.969
H 53.718 53.622 -3.254
H 54.526 54.387 -1.947
H 54.582 54.373 4.548
H 54.538 54.355 2.395
H 54.519 54.358 0.209
H 61.796 47.987 5.61
H 61.512 48.552 -3.533
H 62.881 50.284 5.605
H 60.285 50.029 5.623
H 62.715 50.5 -3.385
H 60.049 50.199 -3.279
H 61.485 52.367 5.673
H 59.068 52.073 5.815
H 61.288 52.52 -3.313
H 58.828 52.228 -3.339
H 63.683 48.512 -2.265
H 61.843 47.235 -2.572
H 59.936 54.055 2.303
H 57.972 52.821 0.157
H 58.021 52.78 2.388
H 59.892 54.092 0.178
H 58.066 52.744 4.595
H 59.999 53.987 4.532
H 59.855 54.091 -2.052
H 57.928 52.858 -2.012
H 63.821 48.423 2.095
H 61.927 47.213 -0.163
H 62.029 47.112 2.069
H 63.758 48.459 -0.031
H 62.001 47.085 4.117
H 63.829 48.392 4.33
H 65.447 50.579 5.642
H 65.285 50.704 -3.48
H 66.582 52.764 5.601
H 64.02 52.578 5.607
H 66.426 52.887 -3.415
H 63.86 52.719 -3.34
H 65.166 54.875 5.655
H 62.707 54.651 5.75
H 65.012 55.002 -3.363
H 62.546 54.785 -3.376
H 67.436 50.963 -2.247
H 65.447 49.584 -2.188
H 63.716 56.606 2.257
H 61.65 55.301 0.117
H 61.689 55.265 2.308
H 63.682 56.638 0.132
H 61.71 55.224 4.473
H 63.757 56.537 4.492
H 63.647 56.633 -2.104
H 61.593 55.326 -2.052
H 67.549 50.894 2.107
H 65.502 49.57 -0.032
H 65.55 49.54 2.157
H 67.508 50.919 -0.012
H 65.576 49.488 4.322
H 67.557 50.877 4.343
H 67.642 55 5.697
H 67.489 55.118 -3.486
H 51.364 52.973 5.838
H 51.288 53.041 -3.178
H 68.658 53.231 0.001
H 68.697 53.206 2.124
H 68.695 53.165 4.367
H 68.58 53.248 -2.241
H 68.52 55.675 2.201
H 68.484 55.702 -0.006
H 68.554 55.644 4.385
H 68.447 55.725 -2.19
H 66.271 56.814 0.087
H 66.304 56.785 2.213
H 66.317 56.72 4.457
H 66.211 56.809 -2.157
H 55.772 45.524 -2.041
H 55.75 45.499 0.182
H 55.76 45.493 2.292
H 55.796 45.523 4.513
H 54.391 47.407 -2.01
H 54.388 47.378 0.212
H 54.416 47.381 2.329
H 54.48 47.408 4.549
C 61.646 43.226 0.426
C 61.65 43.214 1.985
C 59.183 41.699 -0.158
C 59.201 41.66 2.556
C 60.366 43.886 2.566
C 59.12 43.15 0.422
C 59.122 43.128 2.014
C 60.367 43.919 -0.107
C 61.679 43.192 4.69
C 59.229 41.647 4.113
C 59.146 43.104 4.65
C 60.388 43.879 4.163
C 61.637 43.269 -2.283
C 59.184 41.731 -1.718
C 60.373 43.956 -1.7
C 59.129 43.201 -2.22
C 60.336 45.347 0.487
C 60.323 45.325 2.036
C 57.886 43.922 -0.132
C 57.888 43.89 2.578
C 60.296 45.294 4.797
C 57.906 43.889 4.138
C 60.356 45.416 -2.204
C 57.892 43.946 -1.691
C 66.82 32.767 2.371
C 65.425 32.254 0.25
C 65.431 32.23 1.841
C 66.813 32.806 -0.284
C 65.46 32.227 4.462
C 66.846 32.763 3.956
C 66.806 32.832 -1.863
C 65.43 32.287 -2.375
C 67.068 34.315 0.223
C 67.088 34.287 1.801
C 64.317 33.166 -0.296
C 64.34 33.145 2.407
C 65.898 35.205 2.352
C 64.51 34.589 0.274
C 64.535 34.576 1.851
C 65.851 35.233 -0.266
C 67.138 34.274 4.409
C 64.365 33.147 3.96
C 64.601 34.569 4.485
C 65.933 35.193 3.938
C 67.016 34.353 -2.385
C 64.316 33.185 -1.852
C 65.83 35.257 -1.853
C 64.493 34.623 -2.362
C 65.964 36.75 0.266
C 65.996 36.731 1.841
C 63.301 35.371 -0.263
C 63.349 35.356 2.442
C 64.675 37.52 2.406
C 63.33 36.793 0.306
C 63.361 36.784 1.895
C 64.62 37.54 -0.24
C 66.055 36.698 4.445
C 63.392 35.355 3.997
C 63.439 36.779 4.519
C 64.722 37.514 3.983
C 65.921 36.781 -2.337
C 63.29 35.388 -1.818
C 64.604 37.56 -1.818
C 63.308 36.823 -2.319
C 64.426 38.999 0.323
C 64.457 38.991 1.871
C 62.016 37.459 -0.227
C 62.068 37.44 2.484
C 63.166 39.656 2.462
C 61.89 38.885 0.347
C 61.918 38.873 1.937
C 63.12 39.675 -0.203
C 64.532 38.976 4.561
C 62.116 37.436 4.042
C 61.987 38.862 4.577
C 63.211 39.651 4.054
C 64.391 39.022 -2.375
C 62.004 37.479 -1.786
C 63.108 39.696 -1.796
C 61.867 38.919 -2.293
C 63.023 41.12 0.371
C 63.042 41.11 1.929
C 60.578 39.55 -0.191
C 60.62 39.52 2.524
C 63.091 41.093 4.629
C 60.66 39.512 4.083
C 62.999 41.15 -2.332
C 60.57 39.576 -1.75
C 71.052 34.723 2.225
C 69.698 34.238 0.088
C 69.736 34.183 1.638
C 70.985 34.8 -0.501
C 69.764 34.105 4.335
C 71.066 34.689 3.786
C 70.945 34.838 -2.064
C 69.616 34.375 -2.682
C 71.215 36.2 0.12
C 71.247 36.16 1.7
C 68.423 34.983 -0.371
C 68.476 34.913 2.273
C 70.044 37.011 2.273
C 68.59 36.459 0.19
C 68.62 36.42 1.777
C 69.99 37.077 -0.348
C 71.282 36.104 4.327
C 68.504 34.886 3.845
C 68.678 36.359 4.355
C 70.073 36.971 3.852
C 71.156 36.282 -2.5
C 68.379 35.016 -1.948
C 69.949 37.109 -1.927
C 68.516 36.518 -2.385
C 70.214 38.533 0.203
C 70.245 38.495 1.783
C 67.363 37.361 -0.285
C 67.421 37.309 2.353
C 69.065 39.306 2.399
C 67.696 38.791 0.282
C 67.73 38.757 1.837
C 69.007 39.367 -0.32
C 70.306 38.416 4.403
C 67.457 37.272 3.928
C 67.811 38.664 4.562
C 69.102 39.26 3.961
C 70.161 38.572 -2.419
C 67.323 37.389 -1.855
C 68.974 39.387 -1.883
C 67.647 38.816 -2.437
C 75.172 36.402 2.22
C 73.795 35.897 0.093
C 73.827 35.866 1.65
C 75.12 36.453 -0.5
C 73.855 35.82 4.354
C 75.186 36.372 3.784
C 75.077 36.483 -2.063
C 73.724 35.959 -2.607
C 75.35 37.885 0.088
C 75.38 37.855 1.681
C 72.58 36.766 -0.416
C 72.63 36.706 2.229
C 74.198 38.743 2.239
C 72.777 38.219 0.144
C 72.807 38.184 1.726
C 74.15 38.796 -0.395
C 75.399 37.808 4.311
C 72.648 36.67 3.808
C 72.845 38.124 4.327
C 74.214 38.706 3.822
C 75.274 37.938 -2.54
C 72.542 36.798 -1.992
C 74.11 38.82 -1.976
C 72.721 38.267 -2.456
C 74.364 40.26 0.15
C 74.392 40.229 1.744
C 71.58 39.126 -0.346
C 71.631 39.067 2.298
C 73.22 41.078 2.347
C 71.845 40.567 0.22
C 71.873 40.534 1.779
C 73.172 41.132 -0.376
C 74.422 40.152 4.374
C 71.656 39.026 3.876
C 71.916 40.453 4.481
C 73.239 41.034 3.91
C 74.302 40.285 -2.48
C 71.543 39.15 -1.925
C 73.137 41.15 -1.941
C 71.79 40.596 -2.484
C 76.685 38.476 -0.492
C 76.735 38.427 2.237
C 76.879 39.905 0.11
C 76.907 39.877 1.682
C 76.748 38.395 3.807
C 76.93 39.815 4.408
C 76.643 38.5 -2.061
C 76.808 39.941 -2.616
C 75.721 40.804 -0.433
C 75.768 40.753 2.298
C 75.782 40.715 3.868
C 75.682 40.823 -2.003
C 61.753 41.768 2.514
C 60.479 40.996 0.384
C 60.495 40.979 1.98
C 61.727 41.794 -0.156
C 60.544 40.962 4.608
C 61.784 41.762 4.103
C 61.725 41.822 -1.746
C 60.471 41.04 -2.247
H 58.323 41.106 2.253
H 58.305 41.142 0.143
H 58.38 41.091 4.489
H 61.649 43.143 5.771
H 59.118 43.071 5.731
H 58.32 41.2 -2.096
H 61.58 43.256 -3.363
H 59.11 43.208 -3.301
H 62.537 43.826 -2.055
H 62.561 43.774 4.457
H 62.525 43.767 2.299
H 62.521 43.78 0.111
H 56.983 43.379 2.278
H 56.982 43.408 0.164
H 57.019 43.393 4.508
H 60.09 45.2 5.856
H 57.009 43.445 -2.065
H 60.405 45.46 -3.284
H 61.289 45.79 -1.803
H 61.3 45.696 4.823
H 61.253 45.679 2.462
H 61.324 45.702 0.227
H 65.428 32.231 5.544
H 65.411 32.298 -3.457
H 67.181 34.294 5.49
H 64.615 34.562 5.567
H 66.982 34.346 -3.467
H 64.468 34.631 -3.444
H 66.08 36.695 5.527
H 63.455 36.76 5.601
H 65.909 36.797 -3.419
H 63.285 36.82 -3.401
H 61.196 36.865 2.201
H 61.154 36.881 0.081
H 61.28 36.865 4.426
H 64.556 38.952 5.643
H 61.991 38.84 5.658
H 61.153 36.918 -2.147
H 64.357 39.003 -3.457
H 61.836 38.914 -3.375
H 65.182 39.716 -2.123
H 65.307 39.67 4.264
H 65.243 39.667 2.179
H 65.197 39.676 -0.021
H 59.752 38.944 2.23
H 59.717 38.972 0.117
H 59.827 38.938 4.466
H 63.07 41.054 5.71
H 59.716 39.025 -2.12
H 62.94 41.137 -3.413
H 63.886 41.727 -2.106
H 63.961 41.69 4.388
H 63.906 41.684 2.236
H 63.881 41.695 0.049
H 69.788 34.029 5.414
H 69.587 34.657 -3.727
H 71.299 36.07 5.408
H 68.704 36.325 5.436
H 71.147 36.333 -3.581
H 68.474 36.556 -3.465
H 70.337 38.386 5.484
H 67.909 38.567 5.635
H 70.141 38.592 -3.501
H 67.671 38.784 -3.518
H 71.713 34.192 -2.468
H 69.659 33.298 -2.769
H 69.134 40.349 2.122
H 66.961 39.526 -0.017
H 67.009 39.472 2.213
H 69.09 40.398 -0.003
H 67.054 39.424 4.42
H 69.19 40.266 4.351
H 69.046 40.409 -2.232
H 66.918 39.576 -2.187
H 71.847 34.069 1.892
H 69.745 33.255 -0.359
H 69.834 33.132 1.871
H 71.784 34.121 -0.233
H 69.808 33.107 3.92
H 71.856 34.033 4.127
H 73.874 35.86 5.435
H 73.707 36.033 -3.686
H 75.412 37.782 5.393
H 72.863 38.099 5.409
H 75.251 37.952 -3.622
H 72.702 38.287 -3.537
H 74.435 40.129 5.455
H 71.98 40.388 5.559
H 74.276 40.301 -3.562
H 71.816 40.569 -3.566
H 75.872 35.865 -2.46
H 73.652 34.9 -2.396
H 73.338 42.115 2.065
H 71.05 41.243 -0.068
H 71.089 41.196 2.122
H 73.304 42.158 -0.059
H 71.109 41.147 4.287
H 73.372 42.035 4.3
H 73.26 42.164 -2.295
H 70.991 41.283 -2.237
H 75.984 35.766 1.893
H 73.711 34.871 -0.24
H 73.76 34.828 1.948
H 75.941 35.804 -0.226
H 73.783 34.768 4.114
H 75.996 35.743 4.129
H 76.888 39.768 5.488
H 76.728 39.932 -3.695
H 60.537 40.94 5.69
H 60.444 41.039 -3.328
H 77.52 37.847 -0.214
H 77.56 37.81 1.908
H 77.558 37.767 4.151
H 77.439 37.883 -2.456
H 77.868 40.266 1.99
H 77.83 40.304 -0.217
H 77.903 40.225 4.173
H 77.791 40.339 -2.401
H 75.877 41.826 -0.114
H 75.912 41.787 2.012
H 75.919 41.716 4.255
H 75.809 41.837 -2.358
H 63.373 32.801 -2.217
H 63.354 32.776 0.006
H 63.371 32.764 2.116
H 63.42 32.781 4.338
H 62.387 34.914 -2.179
H 62.385 34.882 0.044
H 62.421 34.875 2.161
H 62.497 34.884 4.381
C 68.693 29.398 0.225
C 68.7 29.382 1.784
C 65.977 28.382 -0.351
C 65.997 28.334 2.362
C 67.574 30.29 2.371
C 66.201 29.816 0.231
C 66.204 29.791 1.822
C 67.572 30.328 -0.303
C 68.733 29.349 4.489
C 66.027 28.313 3.92
C 66.232 29.757 4.459
C 67.6 30.276 3.968
C 68.683 29.447 -2.483
C 65.979 28.416 -1.911
C 67.58 30.367 -1.895
C 66.211 29.869 -2.411
C 67.823 31.733 0.294
C 67.812 31.71 1.842
C 65.14 30.815 -0.318
C 65.145 30.777 2.392
C 67.788 31.68 4.604
C 65.168 30.77 3.952
C 67.846 31.802 -2.397
C 65.145 30.839 -1.877
C 71.745 18.122 2.14
C 70.267 17.91 0.024
C 70.275 17.874 1.615
C 71.733 18.18 -0.515
C 70.317 17.851 4.236
C 71.78 18.103 3.724
C 71.723 18.217 -2.094
C 70.265 17.957 -2.603
C 72.277 19.606 -0.006
C 72.298 19.566 1.571
C 69.353 19.02 -0.514
C 69.385 18.981 2.189
C 71.31 20.698 2.129
C 69.82 20.374 0.056
C 69.849 20.349 1.633
C 71.259 20.744 -0.489
C 72.355 19.533 4.179
C 69.418 18.97 3.742
C 69.923 20.32 4.267
C 71.348 20.672 3.715
C 72.221 19.664 -2.615
C 69.348 19.045 -2.071
C 71.236 20.779 -2.076
C 69.799 20.42 -2.58
C 71.666 22.208 0.044
C 71.699 22.178 1.619
C 68.783 21.375 -0.476
C 68.838 21.341 2.229
C 70.559 23.207 2.189
C 69.09 22.763 0.094
C 69.125 22.742 1.683
C 70.499 23.245 -0.456
C 71.761 22.126 4.223
C 68.887 21.327 3.784
C 69.209 22.715 4.306
C 70.61 23.187 3.766
C 71.62 22.254 -2.56
C 68.769 21.4 -2.031
C 70.481 23.272 -2.034
C 69.064 22.803 -2.531
C 70.594 24.712 0.109
C 70.629 24.694 1.656
C 67.929 23.672 -0.434
C 67.986 23.635 2.277
C 69.494 25.596 2.253
C 68.085 25.094 0.142
C 68.116 25.072 1.732
C 69.443 25.63 -0.412
C 70.709 24.658 4.346
C 68.037 23.618 3.835
C 68.19 25.043 4.37
C 69.543 25.579 3.844
C 70.555 24.747 -2.59
C 67.915 23.698 -1.993
C 69.43 25.656 -2.005
C 68.06 25.137 -2.499
C 69.632 27.065 0.163
C 69.654 27.048 1.721
C 66.926 26.002 -0.391
C 66.971 25.959 2.324
C 69.708 27.016 4.421
C 67.014 25.94 3.882
C 69.604 27.105 -2.54
C 66.917 26.033 -1.95
C 76.267 19.222 1.978
C 74.838 19.018 -0.154
C 74.87 18.951 1.395
C 76.207 19.318 -0.749
C 74.893 18.862 4.093
C 76.281 19.181 3.538
C 76.169 19.368 -2.312
C 74.774 19.177 -2.927
C 76.707 20.645 -0.126
C 76.737 20.595 1.454
C 73.732 19.998 -0.606
C 73.78 19.911 2.038
C 75.725 21.663 2.033
C 74.185 21.412 -0.044
C 74.212 21.363 1.543
C 75.676 21.745 -0.588
C 76.77 20.527 4.081
C 73.808 19.874 3.609
C 74.267 21.284 4.121
C 75.751 21.615 3.612
C 76.655 20.743 -2.746
C 73.689 20.044 -2.183
C 75.635 21.788 -2.166
C 74.113 21.491 -2.618
C 76.18 23.128 -0.035
C 76.209 23.081 1.544
C 73.155 22.536 -0.512
C 73.212 22.466 2.126
C 75.212 24.105 2.167
C 73.762 23.871 0.056
C 73.794 23.828 1.609
C 75.157 24.182 -0.552
C 76.263 22.985 4.164
C 73.245 22.418 3.7
C 73.865 23.714 4.334
C 75.245 24.049 3.728
C 76.127 23.182 -2.658
C 73.115 22.576 -2.082
C 75.124 24.213 -2.114
C 73.709 23.913 -2.664
C 80.634 20.066 1.958
C 79.178 19.844 -0.164
C 79.209 19.803 1.393
C 80.583 20.131 -0.762
C 79.237 19.747 4.097
C 80.648 20.031 3.522
C 80.542 20.173 -2.324
C 79.11 19.924 -2.863
C 81.09 21.49 -0.173
C 81.12 21.451 1.42
C 78.154 20.934 -0.667
C 78.201 20.86 1.978
C 80.136 22.552 1.985
C 78.633 22.32 -0.105
C 78.661 22.276 1.476
C 80.09 22.619 -0.649
C 81.138 21.396 4.05
C 78.218 20.817 3.557
C 78.695 22.204 4.077
C 80.15 22.509 3.567
C 81.017 21.562 -2.801
C 78.118 20.977 -2.242
C 80.049 22.654 -2.231
C 78.577 22.384 -2.705
C 80.587 24.012 -0.103
C 80.613 23.973 1.491
C 77.634 23.444 -0.59
C 77.682 23.371 2.055
C 79.631 25.032 2.099
C 78.176 24.805 -0.023
C 78.202 24.763 1.536
C 79.586 25.1 -0.624
C 80.637 23.886 4.12
C 77.704 23.322 3.632
C 78.239 24.669 4.238
C 79.648 24.983 3.663
C 80.521 24.054 -2.733
C 77.597 23.478 -2.168
C 79.549 25.128 -2.188
C 78.118 24.849 -2.727
C 82.513 21.811 -0.757
C 82.562 21.748 1.972
C 82.984 23.173 -0.154
C 83.011 23.137 1.418
C 82.574 21.71 3.541
C 83.031 23.066 4.144
C 82.47 21.846 -2.326
C 82.911 23.228 -2.879
C 82.022 24.282 -0.691
C 82.068 24.217 2.04
C 82.08 24.173 3.609
C 81.981 24.311 -2.261
C 68.52 27.943 2.311
C 67.113 27.439 0.185
C 67.131 27.415 1.782
C 68.49 27.979 -0.358
C 67.184 27.384 4.409
C 68.555 27.927 3.901
C 68.488 28.01 -1.949
C 67.104 27.488 -2.445
H 65.026 27.963 2.062
H 65.008 28.007 -0.048
H 65.087 27.933 4.298
H 68.699 29.305 5.57
H 66.202 29.728 5.54
H 65.026 28.065 -2.286
H 68.62 29.448 -3.564
H 66.189 29.882 -3.493
H 69.675 29.817 -2.258
H 69.711 29.748 4.253
H 69.667 29.753 2.096
H 69.658 29.771 -0.092
H 64.157 30.454 2.095
H 64.153 30.486 -0.018
H 64.202 30.456 4.325
H 67.573 31.626 5.663
H 64.179 30.521 -2.248
H 67.899 31.838 -3.477
H 68.836 31.986 -2
H 68.852 31.879 4.625
H 68.794 31.876 2.265
H 68.861 31.889 0.03
H 70.292 17.856 5.318
H 70.245 17.975 -3.685
H 72.406 19.541 5.26
H 69.94 20.308 5.349
H 72.182 19.666 -3.696
H 69.772 20.433 -3.662
H 71.789 22.117 5.304
H 69.225 22.692 5.388
H 71.607 22.274 -3.641
H 69.037 22.806 -3.613
H 67.018 23.242 1.995
H 66.972 23.273 -0.124
H 67.108 23.221 4.22
H 70.731 24.628 5.428
H 68.193 25.018 5.452
H 66.97 23.314 -2.352
H 70.514 24.737 -3.671
H 68.025 25.14 -3.58
H 71.467 25.274 -2.34
H 71.603 25.189 4.048
H 71.532 25.204 1.963
H 71.481 25.226 -0.238
H 66.007 25.563 2.032
H 65.969 25.603 -0.081
H 66.085 25.539 4.267
H 69.684 26.98 5.503
H 65.971 25.659 -2.318
H 69.541 27.105 -3.62
H 70.588 27.497 -2.317
H 70.677 27.432 4.178
H 70.615 27.442 2.025
H 70.584 27.462 -0.161
H 74.905 18.78 5.172
H 74.797 19.465 -3.969
H 76.784 20.488 5.162
H 74.29 21.244 5.202
H 76.653 20.798 -3.827
H 74.075 21.539 -3.699
H 76.292 22.947 5.245
H 73.946 23.598 5.407
H 76.107 23.209 -3.739
H 73.722 23.879 -3.745
H 76.794 18.585 -2.72
H 74.607 18.112 -3.023
H 75.482 25.115 1.891
H 73.183 24.736 -0.24
H 73.227 24.668 1.99
H 75.441 25.177 -0.233
H 73.269 24.606 4.195
H 75.529 25.017 4.12
H 75.392 25.201 -2.463
H 73.143 24.8 -2.409
H 76.918 18.426 1.64
H 74.69 18.046 -0.606
H 74.758 17.9 1.627
H 76.859 18.495 -0.485
H 74.735 17.875 3.677
H 76.929 18.383 3.875
H 79.267 19.781 5.178
H 79.104 20.002 -3.942
H 81.15 21.366 5.132
H 78.713 22.174 5.158
H 80.993 21.583 -3.882
H 78.559 22.408 -3.787
H 80.65 23.858 5.202
H 78.292 24.591 5.316
H 80.495 24.077 -3.815
H 78.134 24.82 -3.809
H 81.199 19.413 -2.726
H 78.834 18.899 -2.653
H 79.949 26.028 1.818
H 77.528 25.622 -0.307
H 77.564 25.564 1.883
H 79.916 26.081 -0.306
H 77.582 25.508 4.047
H 79.975 25.938 4.052
H 79.866 26.1 -2.542
H 77.47 25.678 -2.476
H 81.306 19.285 1.627
H 78.894 18.854 -0.498
H 78.942 18.798 1.69
H 81.263 19.334 -0.491
H 78.961 18.73 3.855
H 81.322 19.255 3.863
H 82.985 23.026 5.224
H 82.827 23.237 -3.958
H 67.177 27.361 5.491
H 67.074 27.495 -3.527
H 83.21 21.03 -0.483
H 83.25 20.982 1.639
H 83.248 20.935 3.882
H 83.129 21.086 -2.724
H 84.031 23.331 1.722
H 83.994 23.38 -0.484
H 84.065 23.279 3.906
H 83.953 23.426 -2.668
H 82.375 25.253 -0.372
H 82.409 25.203 1.754
H 82.41 25.128 3.997
H 82.302 25.282 -2.615
H 68.346 18.852 -2.432
H 68.334 18.822 -0.208
H 68.358 18.795 1.903
H 68.421 18.793 4.123
H 67.79 21.111 -2.389
H 67.791 21.073 -0.165
H 67.834 21.049 1.951
H 67.918 21.038 4.171
C 72.906 14.455 -0.035
C 72.909 14.413 1.523
C 70.034 14.033 -0.616
C 70.047 13.956 2.1
C 71.996 15.536 2.123
C 70.549 15.376 -0.016
C 70.55 15.336 1.576
C 71.994 15.603 -0.549
C 72.943 14.336 4.225
C 70.079 13.912 3.658
C 70.585 15.272 4.213
C 72.028 15.5 3.719
C 72.907 14.547 -2.74
C 70.041 14.083 -2.175
C 72.004 15.657 -2.141
C 70.561 15.453 -2.659
C 72.519 16.924 0.055
C 72.509 16.889 1.603
C 69.703 16.564 -0.55
C 69.712 16.506 2.161
C 72.496 16.841 4.36
C 69.743 16.483 3.72
C 72.545 17.012 -2.634
C 69.704 16.598 -2.109
C 72.911 2.746 1.567
C 71.426 2.857 -0.593
C 71.358 2.814 0.979
C 73.017 2.825 -1.066
C 71.25 2.742 3.599
C 72.855 2.706 3.151
C 73.088 2.87 -2.651
C 71.555 2.924 -3.213
C 74 4.041 -0.49
C 73.964 3.976 1.085
C 70.951 4.217 -1.121
C 70.868 4.15 1.572
C 73.292 5.303 1.646
C 71.813 5.383 -0.478
C 71.785 5.335 1.1
C 73.335 5.407 -0.965
C 73.916 3.882 3.679
C 70.828 4.112 3.124
C 71.764 5.225 3.726
C 73.274 5.239 3.229
C 74.063 4.147 -3.085
C 71.023 4.259 -2.676
C 73.378 5.469 -2.549
C 71.902 5.482 -3.104
C 74.105 6.719 -0.374
C 74.091 6.649 1.2
C 71.124 6.648 -0.985
C 71.093 6.563 1.724
C 73.252 7.925 1.784
C 71.77 7.894 -0.346
C 71.763 7.842 1.243
C 73.263 8.035 -0.857
C 74.073 6.526 3.797
C 71.097 6.508 3.28
C 71.791 7.729 3.872
C 73.266 7.859 3.36
C 74.147 6.827 -2.97
C 71.17 6.702 -2.54
C 73.294 8.1 -2.433
C 71.824 8.003 -2.971
C 73.7 9.432 -0.245
C 73.701 9.369 1.297
C 70.887 9.067 -0.844
C 70.886 8.977 1.874
C 72.827 10.514 1.915
C 71.368 10.391 -0.213
C 71.373 10.341 1.377
C 72.816 10.615 -0.746
C 73.746 9.25 3.974
C 70.914 8.918 3.434
C 71.424 10.237 4.022
C 72.861 10.452 3.506
C 73.733 9.543 -2.932
C 70.911 9.123 -2.403
C 72.833 10.676 -2.338
C 71.389 10.496 -2.856
C 73.323 11.961 -0.135
C 73.33 11.906 1.421
C 70.452 11.536 -0.716
C 70.467 11.449 2.004
C 73.37 11.806 4.115
C 70.505 11.396 3.565
C 73.329 12.065 -2.831
C 70.461 11.591 -2.275
C 77.939 2.797 1.621
C 76.508 2.875 -0.533
C 76.483 2.792 1.022
C 77.967 2.932 -1.092
C 76.443 2.696 3.731
C 77.918 2.739 3.183
C 77.985 3.014 -2.653
C 76.557 3.064 -3.269
C 78.748 4.125 -0.458
C 78.737 4.048 1.119
C 75.601 4.078 -1.012
C 75.556 3.95 1.619
C 77.935 5.279 1.69
C 76.383 5.364 -0.42
C 76.366 5.284 1.168
C 77.954 5.407 -0.922
C 78.717 3.947 3.734
C 75.528 3.881 3.19
C 76.335 5.156 3.727
C 77.918 5.206 3.268
C 78.769 4.266 -3.072
C 75.623 4.156 -2.587
C 77.963 5.482 -2.5
C 76.405 5.49 -2.983
C 78.737 6.66 -0.343
C 78.727 6.584 1.234
C 75.648 6.701 -0.885
C 75.625 6.571 1.749
C 77.942 7.767 1.866
C 76.525 7.861 -0.273
C 76.514 7.782 1.279
C 77.963 7.901 -0.85
C 78.72 6.443 3.846
C 75.608 6.489 3.321
C 76.51 7.586 4.021
C 77.932 7.681 3.425
C 78.75 6.763 -2.96
C 75.664 6.773 -2.456
C 77.976 7.965 -2.41
C 76.553 7.96 -2.998
C 82.55 2.856 1.656
C 81.092 2.91 -0.483
C 81.093 2.847 1.075
C 82.547 2.955 -1.063
C 81.084 2.771 3.78
C 82.543 2.809 3.22
C 82.537 3.019 -2.625
C 81.083 3.036 -3.182
C 83.297 4.189 -0.456
C 83.298 4.132 1.135
C 80.265 4.161 -0.98
C 80.255 4.047 1.659
C 82.514 5.379 1.702
C 81.008 5.431 -0.4
C 81.003 5.364 1.181
C 82.517 5.478 -0.927
C 83.284 4.057 3.762
C 80.243 3.988 3.237
C 80.992 5.264 3.772
C 82.503 5.323 3.283
C 83.274 4.3 -3.082
C 80.267 4.231 -2.556
C 82.508 5.538 -2.508
C 81.007 5.536 -2.994
C 83.261 6.754 -0.364
C 83.256 6.696 1.227
C 80.243 6.722 -0.878
C 80.232 6.609 1.76
C 82.471 7.906 1.839
C 81.029 7.958 -0.294
C 81.019 7.894 1.263
C 82.482 8.008 -0.875
C 83.24 6.587 3.85
C 80.222 6.541 3.335
C 81.003 7.768 3.959
C 82.458 7.841 3.4
C 83.243 6.835 -2.99
C 80.244 6.784 -2.455
C 82.479 8.061 -2.438
C 81.028 8.047 -2.993
C 84.77 4.258 -1.026
C 84.774 4.166 1.698
C 85.477 5.508 -0.407
C 85.477 5.456 1.162
C 84.767 4.119 3.266
C 85.468 5.37 3.873
C 84.755 4.315 -2.594
C 85.453 5.599 -3.126
C 84.735 6.774 -0.938
C 84.731 6.682 1.784
C 84.721 6.628 3.35
C 84.724 6.825 -2.506
C 72.428 13.032 2.029
C 70.949 12.877 -0.102
C 70.957 12.831 1.494
C 72.412 13.118 -0.638
C 71.007 12.748 4.124
C 72.462 12.983 3.619
C 72.421 13.174 -2.227
C 70.959 12.969 -2.735
H 69.017 13.801 1.804
H 69.011 13.859 -0.31
H 69.082 13.735 4.04
H 72.904 14.289 5.305
H 70.554 15.238 5.294
H 69.036 13.934 -2.549
H 72.851 14.574 -3.82
H 70.54 15.482 -3.74
H 73.951 14.707 -2.506
H 73.983 14.522 3.991
H 73.932 14.57 1.838
H 73.927 14.627 -0.348
H 68.677 16.386 1.87
H 68.673 16.432 -0.245
H 68.736 16.364 4.099
H 72.281 16.825 5.42
H 68.694 16.475 -2.475
H 72.604 17.042 -3.714
H 73.55 16.997 -2.234
H 73.578 16.822 4.373
H 73.506 16.852 2.022
H 73.567 16.872 -0.21
H 71.181 2.727 4.679
H 71.581 2.973 -4.294
H 73.922 3.852 4.76
H 71.746 5.164 4.806
H 74.083 4.191 -4.166
H 71.932 5.543 -4.184
H 74.072 6.477 4.878
H 71.79 7.657 4.952
H 74.177 6.883 -4.051
H 71.832 8.058 -4.052
H 69.852 8.853 1.58
H 69.858 8.901 -0.553
H 69.91 8.768 3.808
H 73.783 9.191 5.054
H 71.423 10.177 5.102
H 69.908 8.983 -2.782
H 73.733 9.58 -4.013
H 71.372 10.544 -3.936
H 74.726 9.85 -2.633
H 74.732 9.561 3.654
H 74.695 9.652 1.619
H 74.684 9.748 -0.564
H 69.437 11.293 1.711
H 69.431 11.349 -0.411
H 69.509 11.217 3.948
H 73.342 11.756 5.196
H 69.458 11.435 -2.65
H 73.286 12.105 -3.912
H 74.37 12.231 -2.587
H 74.41 11.987 3.877
H 74.353 12.059 1.736
H 74.343 12.145 -0.446
H 76.459 2.714 4.812
H 76.636 3.276 -4.327
H 78.716 3.904 4.816
H 76.326 5.099 4.808
H 78.789 4.327 -4.152
H 76.412 5.554 -4.063
H 78.739 6.387 4.926
H 76.573 7.385 5.082
H 78.758 6.814 -4.04
H 76.596 7.941 -4.079
H 78.475 2.136 -3.052
H 76.201 2.043 -3.244
H 78.415 8.708 1.619
H 76.162 8.839 -0.56
H 76.148 8.716 1.685
H 78.436 8.811 -0.502
H 76.129 8.597 3.975
H 78.393 8.568 3.84
H 78.449 8.885 -2.727
H 76.185 8.946 -2.745
H 78.441 1.896 1.295
H 76.173 1.933 -0.945
H 76.129 1.803 1.277
H 78.459 2.003 -0.835
H 76.083 1.712 3.461
H 78.407 1.83 3.51
H 81.121 2.808 4.861
H 81.113 3.136 -4.258
H 83.291 4.023 4.843
H 81 5.228 4.853
H 83.271 4.339 -4.163
H 81.01 5.58 -4.075
H 83.249 6.553 4.931
H 81.042 7.673 5.036
H 83.239 6.878 -4.071
H 81.06 8.028 -4.075
H 83.055 2.158 -3.026
H 80.621 2.074 -2.999
H 82.966 8.831 1.574
H 80.553 8.888 -0.575
H 80.54 8.8 1.611
H 82.983 8.907 -0.542
H 80.514 8.716 3.779
H 82.946 8.719 3.801
H 82.976 8.961 -2.774
H 80.551 8.985 -2.743
H 83.081 1.972 1.327
H 80.636 1.993 -0.832
H 80.642 1.904 1.357
H 83.075 2.049 -0.796
H 80.628 1.818 3.545
H 83.069 1.926 3.557
H 85.431 5.336 4.954
H 85.393 5.636 -4.206
H 70.999 12.705 5.205
H 70.934 13.006 -3.816
H 85.318 3.366 -0.755
H 85.323 3.296 1.365
H 85.297 3.238 3.603
H 85.275 3.454 -2.994
H 86.513 5.465 1.473
H 86.511 5.534 -0.725
H 86.521 5.401 3.628
H 86.511 5.604 -2.901
H 85.257 7.662 -0.607
H 85.246 7.593 1.509
H 85.213 7.507 3.744
H 85.221 7.724 -2.846
H 70.027 4.388 -3.081
H 69.906 4.334 -0.865
H 69.849 4.31 1.244
H 69.812 4.269 3.46
H 70.161 6.693 -2.93
H 70.078 6.616 -0.711
H 70.055 6.578 1.419
H 70.076 6.502 3.639
C 73.378 -0.982 -0.571
C 73.298 -1.002 0.985
C 70.474 -0.896 -1.276
C 70.318 -0.953 1.39
C 72.586 0.243 1.529
C 71.244 0.322 -0.671
C 71.152 0.288 0.919
C 72.733 0.293 -1.136
C 73.151 -1.032 3.688
C 70.227 -0.986 2.935
C 71 0.239 3.498
C 72.502 0.218 3.098
C 73.516 -0.934 -3.27
C 70.571 -0.863 -2.821
C 72.826 0.328 -2.705
C 71.394 0.38 -3.257
C 73.501 1.466 -0.511
C 73.428 1.423 1.032
C 70.512 1.593 -1.208
C 70.358 1.536 1.428
C 73.285 1.372 3.742
C 70.264 1.503 2.988
C 73.643 1.539 -3.196
C 70.608 1.631 -2.772
C 72.623 -12.583 1.535
C 71.168 -12.272 -0.584
C 71.164 -12.291 1.008
C 72.63 -12.563 -1.123
C 71.202 -12.293 3.635
C 72.652 -12.592 3.121
C 72.633 -12.545 -2.701
C 71.179 -12.263 -3.213
C 73.659 -11.422 -0.626
C 73.661 -11.44 0.952
C 70.73 -10.919 -1.15
C 70.739 -10.938 1.559
C 73.148 -10.016 1.483
C 71.656 -9.828 -0.605
C 71.663 -9.845 0.972
C 73.131 -9.997 -1.136
C 73.701 -11.453 3.561
C 70.769 -10.94 3.115
C 71.714 -9.85 3.616
C 73.17 -10.028 3.072
C 73.637 -11.386 -3.236
C 70.737 -10.911 -2.706
C 73.132 -9.981 -2.724
C 71.669 -9.823 -3.248
C 74.026 -8.757 -0.618
C 74.033 -8.767 0.957
C 71.037 -8.549 -1.186
C 71.045 -8.573 1.526
C 73.279 -7.382 1.484
C 71.779 -7.345 -0.645
C 71.776 -7.363 0.944
C 73.282 -7.373 -1.159
C 74.055 -8.789 3.559
C 71.072 -8.581 3.083
C 71.802 -7.362 3.572
C 73.296 -7.39 3.061
C 74.028 -8.741 -3.22
C 71.055 -8.54 -2.741
C 73.308 -7.365 -2.736
C 71.828 -7.345 -3.272
C 73.814 -5.987 -0.61
C 73.8 -5.986 0.939
C 70.959 -6.135 -1.242
C 70.925 -6.172 1.471
C 72.916 -4.771 1.478
C 71.49 -4.817 -0.688
C 71.453 -4.84 0.903
C 72.977 -4.758 -1.183
C 73.796 -5.99 3.619
C 70.925 -6.187 3.028
C 71.414 -4.851 3.535
C 72.898 -4.78 3.066
C 73.875 -5.988 -3.293
C 71.007 -6.121 -2.801
C 73.038 -4.747 -2.772
C 71.59 -4.801 -3.321
C 73.512 -3.431 -0.606
C 73.457 -3.434 0.95
C 70.63 -3.602 -1.292
C 70.533 -3.655 1.418
C 73.373 -3.444 3.649
C 70.489 -3.681 2.974
C 73.624 -3.416 -3.304
C 70.709 -3.576 -2.849
C 77.206 -13.235 1.384
C 75.81 -12.909 -0.749
C 75.814 -12.96 0.8
C 77.189 -13.153 -1.342
C 75.801 -13.018 3.499
C 77.202 -13.263 2.945
C 77.175 -13.108 -2.904
C 75.813 -12.773 -3.52
C 78.148 -12.104 -0.732
C 78.156 -12.146 0.848
C 75.154 -11.593 -1.217
C 75.163 -11.654 1.427
C 77.618 -10.763 1.417
C 76.093 -10.436 -0.666
C 76.097 -10.468 0.921
C 77.604 -10.696 -1.202
C 78.163 -12.201 3.473
C 75.174 -11.678 2.999
C 76.114 -10.527 3.496
C 77.622 -10.803 2.996
C 78.137 -12.015 -3.351
C 75.136 -11.555 -2.794
C 77.587 -10.655 -2.78
C 76.067 -10.368 -3.239
C 78.592 -9.598 -0.657
C 78.602 -9.637 0.923
C 75.546 -9.011 -1.152
C 75.559 -9.054 1.481
C 78.045 -8.297 1.529
C 76.6 -7.981 -0.59
C 76.61 -8.009 0.965
C 78.028 -8.233 -1.184
C 78.613 -9.725 3.538
C 75.567 -9.088 3.055
C 76.623 -8.102 3.675
C 78.053 -8.347 3.091
C 78.566 -9.548 -3.276
C 75.536 -8.981 -2.722
C 78.014 -8.206 -2.745
C 76.581 -7.953 -3.297
C 81.551 -14.152 1.337
C 80.123 -13.797 -0.779
C 80.135 -13.84 0.778
C 81.53 -14.076 -1.381
C 80.143 -13.897 3.479
C 81.553 -14.189 2.9
C 81.507 -14.025 -2.943
C 80.09 -13.705 -3.477
C 82.519 -13.016 -0.798
C 82.533 -13.062 0.794
C 79.594 -12.397 -1.279
C 79.61 -12.471 1.365
C 82.048 -11.665 1.361
C 80.565 -11.298 -0.723
C 80.576 -11.342 0.859
C 82.026 -11.589 -1.272
C 82.536 -13.122 3.422
C 79.61 -12.511 2.943
C 80.585 -11.417 3.457
C 82.048 -11.71 2.943
C 82.474 -12.924 -3.425
C 79.577 -12.351 -2.854
C 81.999 -11.543 -2.853
C 80.534 -11.225 -3.321
C 83.024 -10.496 -0.73
C 83.038 -10.543 0.863
C 80.065 -9.875 -1.208
C 80.085 -9.947 1.435
C 82.539 -9.187 1.474
C 81.097 -8.831 -0.644
C 81.111 -8.876 0.915
C 82.513 -9.106 -1.248
C 83.037 -10.635 3.492
C 80.088 -9.996 3.013
C 81.118 -8.977 3.619
C 82.54 -9.241 3.038
C 82.971 -10.433 -3.36
C 80.043 -9.835 -2.786
C 82.486 -9.068 -2.813
C 81.053 -8.774 -3.347
C 83.955 -13.271 -1.39
C 83.98 -13.351 1.337
C 84.916 -12.197 -0.79
C 84.93 -12.244 0.781
C 83.98 -13.394 2.905
C 84.933 -12.324 3.503
C 83.926 -13.221 -2.958
C 84.862 -12.115 -3.515
C 84.452 -10.802 -1.324
C 84.478 -10.883 1.406
C 84.478 -10.933 2.975
C 84.421 -10.758 -2.894
C 72.57 -2.255 1.482
C 71.154 -2.255 -0.704
C 71.079 -2.283 0.874
C 72.695 -2.224 -1.177
C 70.96 -2.314 3.509
C 72.503 -2.272 3.078
C 72.783 -2.201 -2.774
C 71.294 -2.209 -3.338
H 73.024 -1.043 4.762
H 70.932 0.216 4.577
H 73.509 -0.906 -4.351
H 71.443 0.397 -4.338
H 74.563 -0.958 -3
H 74.221 -1.03 3.527
H 74.317 -1.014 1.351
H 74.428 -0.992 -0.832
H 73.143 1.384 4.815
H 73.708 1.569 -4.275
H 74.642 1.353 -2.823
H 74.343 1.193 3.6
H 74.417 1.246 1.432
H 74.537 1.288 -0.77
H 71.187 -12.259 4.716
H 71.164 -12.256 -4.295
H 73.751 -11.447 4.642
H 71.725 -9.833 4.698
H 73.608 -11.387 -4.318
H 71.659 -9.831 -4.329
H 74.073 -8.781 4.64
H 71.791 -7.346 4.654
H 74.041 -8.741 -4.301
H 71.837 -7.374 -4.354
H 69.895 -6.283 1.16
H 69.915 -6.219 -0.968
H 69.91 -6.307 3.383
H 73.774 -6.001 4.7
H 71.37 -4.847 4.616
H 70.002 -6.199 -3.194
H 73.887 -6.01 -4.375
H 71.614 -4.824 -4.403
H 74.901 -5.795 -3.008
H 74.83 -5.792 3.371
H 74.815 -5.797 1.264
H 74.837 -5.811 -0.916
H 69.518 -3.8 1.072
H 69.586 -3.727 -1.037
H 69.472 -3.846 3.306
H 73.3 -3.466 4.728
H 69.719 -3.687 -3.271
H 73.622 -3.421 -4.386
H 74.668 -3.324 -3.035
H 74.427 -3.299 3.448
H 74.476 -3.315 1.296
H 74.554 -3.33 -0.881
H 75.782 -13.093 4.578
H 75.939 -12.533 -4.568
H 78.17 -12.238 4.554
H 76.121 -10.561 4.578
H 78.152 -11.972 -4.433
H 76.055 -10.323 -4.32
H 78.624 -9.764 4.62
H 76.65 -8.226 4.749
H 78.559 -9.525 -4.357
H 76.589 -7.997 -4.378
H 77.461 -14.072 -3.302
H 75.257 -13.698 -3.59
H 78.686 -7.471 1.251
H 76.347 -6.972 -0.889
H 76.352 -7.018 1.316
H 78.669 -7.42 -0.87
H 76.36 -7.064 3.519
H 78.691 -7.562 3.475
H 78.639 -7.396 -3.097
H 76.35 -6.925 -3.052
H 77.505 -14.222 1.057
H 75.304 -13.759 -1.187
H 75.315 -13.889 1.044
H 77.481 -14.158 -1.067
H 75.285 -13.876 3.085
H 77.496 -14.244 3.293
H 80.19 -13.883 4.56
H 80.112 -13.632 -4.557
H 82.544 -13.159 4.504
H 80.594 -11.455 4.538
H 82.455 -12.896 -4.507
H 80.523 -11.199 -4.403
H 83.044 -10.671 4.574
H 81.143 -9.082 4.696
H 82.953 -10.403 -4.441
H 81.055 -8.808 -4.429
H 81.822 -14.979 -3.345
H 79.448 -14.55 -3.266
H 83.219 -8.394 1.193
H 80.811 -7.827 -0.928
H 80.833 -7.89 1.263
H 83.199 -8.33 -0.933
H 80.836 -7.948 3.441
H 83.216 -8.489 3.425
H 83.152 -8.293 -3.168
H 80.772 -7.759 -3.096
H 81.868 -15.132 1.005
H 79.484 -14.604 -1.11
H 79.504 -14.667 1.076
H 81.852 -15.073 -1.111
H 79.495 -14.73 3.239
H 81.873 -15.165 3.239
H 84.886 -12.349 4.583
H 84.784 -12.074 -4.593
H 70.879 -2.316 4.588
H 71.313 -2.198 -4.42
H 84.299 -14.26 -1.119
H 84.316 -14.323 1
H 84.302 -14.371 3.241
H 84.241 -14.176 -3.359
H 85.947 -12.461 1.08
H 85.926 -12.395 -1.125
H 85.966 -12.53 3.255
H 85.902 -12.333 -3.309
H 85.155 -10.044 -1.007
H 85.174 -10.107 1.119
H 85.156 -10.183 3.361
H 85.09 -9.985 -3.249
H 69.734 -10.724 -3.068
H 69.711 -10.723 -0.843
H 69.713 -10.75 1.274
H 69.775 -10.746 3.497
H 70.04 -8.474 -3.111
H 69.999 -8.484 -0.887
H 70.002 -8.527 1.24
H 70.059 -8.533 3.461
C 72.313 -16.439 -0.608
C 72.321 -16.456 0.952
C 69.482 -15.774 -1.159
C 69.495 -15.832 1.555
C 71.893 -15.074 1.546
C 70.472 -14.716 -0.585
C 70.471 -14.739 1.007
C 71.895 -15.044 -1.129
C 72.354 -16.505 3.656
C 69.523 -15.87 3.113
C 70.498 -14.783 3.646
C 71.921 -15.1 3.143
C 72.309 -16.387 -3.318
C 69.487 -15.742 -2.719
C 71.909 -15.017 -2.722
C 70.489 -14.677 -3.229
C 72.888 -14.013 -0.539
C 72.872 -14.019 1.011
C 70.135 -13.307 -1.136
C 70.133 -13.339 1.577
C 72.854 -14.023 3.772
C 70.162 -13.356 3.138
C 72.931 -13.978 -3.23
C 70.141 -13.291 -2.694
C 68.585 -27.489 1.248
C 67.211 -26.842 -0.851
C 67.216 -26.881 0.74
C 68.578 -27.425 -1.407
C 67.263 -26.933 3.361
C 68.618 -27.528 2.832
C 68.574 -27.384 -2.986
C 67.21 -26.791 -3.476
C 69.831 -26.546 -0.902
C 69.842 -26.598 0.675
C 67.066 -25.407 -1.378
C 67.098 -25.469 1.325
C 69.656 -25.114 1.246
C 68.216 -24.545 -0.81
C 68.242 -24.589 0.767
C 69.613 -25.032 -1.371
C 69.897 -26.672 3.282
C 67.134 -25.504 2.877
C 68.312 -24.671 3.4
C 69.689 -25.166 2.832
C 69.792 -26.452 -3.51
C 67.062 -25.376 -2.934
C 69.598 -24.982 -2.958
C 68.198 -24.479 -3.445
C 70.771 -24.047 -0.839
C 70.798 -24.099 0.736
C 67.906 -23.133 -1.326
C 67.96 -23.208 1.378
C 70.428 -22.616 1.323
C 68.939 -22.156 -0.756
C 68.973 -22.202 0.833
C 70.374 -22.535 -1.321
C 70.846 -24.194 3.338
C 68.007 -23.256 2.932
C 69.053 -22.289 3.455
C 70.475 -22.671 2.9
C 70.734 -23.965 -3.442
C 67.894 -23.095 -2.881
C 70.358 -22.492 -2.9
C 68.915 -22.09 -3.38
C 71.275 -21.375 -0.753
C 71.308 -21.418 0.794
C 68.476 -20.753 -1.266
C 68.53 -20.831 1.444
C 70.875 -20.043 1.407
C 69.404 -19.665 -0.689
C 69.433 -19.708 0.901
C 70.825 -19.972 -1.258
C 71.381 -21.51 3.483
C 68.578 -20.884 3.001
C 69.504 -19.791 3.539
C 70.921 -20.093 2.998
C 71.236 -21.307 -3.453
C 68.464 -20.713 -2.825
C 70.813 -19.934 -2.851
C 69.381 -19.598 -3.33
C 71.789 -18.893 -0.681
C 71.812 -18.925 0.876
C 68.943 -18.266 -1.206
C 68.982 -18.339 1.508
C 71.865 -18.994 3.576
C 69.023 -18.388 3.066
C 71.762 -18.831 -3.386
C 68.936 -18.226 -2.766
C 72.959 -29.095 1.036
C 71.635 -28.457 -1.079
C 71.641 -28.541 0.47
C 72.937 -28.962 -1.689
C 71.634 -28.647 3.166
C 72.962 -29.148 2.596
C 72.918 -28.888 -3.251
C 71.644 -28.27 -3.848
C 74.095 -28.141 -1.071
C 74.107 -28.21 0.508
C 71.255 -27.024 -1.517
C 71.272 -27.141 1.126
C 73.864 -26.765 1.101
C 72.423 -26.104 -0.959
C 72.434 -26.171 0.628
C 73.844 -26.65 -1.519
C 74.121 -28.305 3.135
C 71.289 -27.198 2.696
C 72.46 -26.285 3.204
C 73.874 -26.831 2.679
C 74.083 -28.011 -3.69
C 71.229 -26.952 -3.094
C 73.82 -26.58 -3.097
C 72.384 -25.981 -3.532
C 75.037 -25.785 -0.971
C 75.05 -25.852 0.608
C 72.187 -24.594 -1.413
C 72.22 -24.703 1.224
C 74.795 -24.451 1.244
C 73.44 -23.825 -0.851
C 73.457 -23.89 0.702
C 74.767 -24.336 -1.475
C 75.065 -25.981 3.227
C 72.238 -24.772 2.797
C 73.479 -24.045 3.426
C 74.806 -24.528 2.804
C 74.999 -25.69 -3.592
C 72.162 -24.529 -2.983
C 74.742 -24.281 -3.036
C 73.394 -23.741 -3.57
C 77.059 -30.819 0.966
C 75.706 -30.178 -1.14
C 75.723 -30.241 0.417
C 77.029 -30.715 -1.753
C 75.74 -30.324 3.12
C 77.066 -30.868 2.529
C 77.003 -30.645 -3.315
C 75.67 -30.052 -3.837
C 78.21 -29.871 -1.168
C 78.228 -29.932 0.424
C 75.455 -28.699 -1.628
C 75.477 -28.807 1.015
C 78.026 -28.474 1.002
C 76.628 -27.817 -1.071
C 76.642 -27.881 0.511
C 78.001 -28.373 -1.631
C 78.236 -30.008 3.054
C 75.481 -28.864 2.594
C 76.654 -27.98 3.111
C 78.028 -28.53 2.584
C 78.166 -29.75 -3.795
C 75.434 -28.631 -3.203
C 77.972 -28.309 -3.212
C 76.593 -27.713 -3.669
C 79.193 -27.494 -1.089
C 79.208 -27.555 0.504
C 76.416 -26.324 -1.542
C 76.44 -26.432 1.102
C 78.985 -26.133 1.125
C 77.629 -25.498 -0.979
C 77.642 -25.559 0.579
C 78.96 -26.03 -1.596
C 79.204 -27.66 3.133
C 76.446 -26.496 2.679
C 77.645 -25.678 3.28
C 78.986 -26.195 2.689
C 79.137 -27.403 -3.718
C 76.391 -26.263 -3.119
C 78.931 -25.974 -3.16
C 77.58 -25.407 -3.682
C 79.566 -30.389 -1.769
C 79.597 -30.49 0.959
C 80.72 -29.523 -1.17
C 80.737 -29.581 0.402
C 79.6 -30.541 2.528
C 80.739 -29.672 3.127
C 79.536 -30.324 -3.337
C 80.665 -29.415 -3.893
C 80.531 -28.063 -1.694
C 80.558 -28.163 1.037
C 80.558 -28.218 2.606
C 80.499 -28.003 -3.263
C 71.375 -17.553 1.48
C 69.906 -17.185 -0.632
C 69.922 -17.22 0.964
C 71.346 -17.499 -1.19
C 69.974 -17.287 3.592
C 71.411 -17.591 3.07
C 71.346 -17.466 -2.78
C 69.901 -17.128 -3.264
H 68.479 -15.598 1.266
H 68.472 -15.546 -0.844
H 68.534 -15.667 3.502
H 72.309 -16.526 4.737
H 70.467 -14.79 4.727
H 68.498 -15.498 -3.083
H 72.249 -16.347 -4.397
H 70.468 -14.653 -4.31
H 73.339 -16.635 -3.099
H 73.387 -16.714 3.413
H 73.334 -16.685 1.256
H 73.319 -16.665 -0.933
H 69.126 -13.068 1.29
H 69.134 -13.034 -0.826
H 69.185 -13.089 3.52
H 72.652 -13.947 4.833
H 69.158 -13.02 -3.056
H 72.991 -13.98 -4.31
H 73.856 -14.374 -2.835
H 73.848 -14.449 3.79
H 73.781 -14.428 1.431
H 73.835 -14.462 -0.805
H 67.255 -26.92 4.443
H 67.193 -26.757 -4.557
H 69.953 -26.702 4.363
H 68.328 -24.7 4.482
H 69.751 -26.42 -4.591
H 68.175 -24.442 -4.526
H 70.873 -24.227 4.419
H 69.063 -22.327 4.537
H 70.724 -23.931 -4.524
H 68.885 -22.062 -4.462
H 67.505 -20.615 1.174
H 67.462 -20.554 -0.944
H 67.589 -20.699 3.398
H 71.392 -21.557 4.564
H 69.502 -19.822 4.62
H 67.461 -20.502 -3.173
H 71.187 -21.282 -4.533
H 69.344 -19.566 -4.411
H 72.288 -21.378 -3.21
H 72.417 -21.563 3.174
H 72.345 -21.499 1.09
H 72.295 -21.437 -1.11
H 67.958 -18.128 1.228
H 67.929 -18.065 -0.884
H 68.032 -18.207 3.462
H 71.833 -19.018 4.657
H 67.939 -18.005 -3.122
H 71.7 -18.786 -4.465
H 72.799 -19.056 -3.173
H 72.899 -19.186 3.323
H 72.832 -19.136 1.17
H 72.798 -19.091 -1.017
H 71.609 -28.73 4.245
H 71.811 -28.038 -4.892
H 74.121 -28.353 4.215
H 72.467 -26.34 4.285
H 74.101 -27.956 -4.77
H 72.369 -25.911 -4.611
H 75.078 -26.036 4.307
H 73.491 -24.194 4.498
H 74.988 -25.649 -4.673
H 73.376 -23.769 -4.651
H 73 -29.883 -3.667
H 70.912 -29.061 -3.936
H 75.578 -23.758 0.966
H 73.438 -22.783 -1.14
H 73.459 -22.88 1.09
H 75.559 -23.67 -1.158
H 73.479 -22.971 3.295
H 75.584 -23.883 3.193
H 75.511 -23.605 -3.387
H 73.421 -22.692 -3.308
H 73.055 -30.115 0.69
H 70.969 -29.181 -1.528
H 70.969 -29.356 0.701
H 73.025 -30.01 -1.434
H 70.956 -29.379 2.75
H 73.061 -30.174 2.925
H 75.793 -30.321 4.201
H 75.698 -29.976 -4.916
H 78.239 -30.048 4.135
H 76.661 -28.023 4.192
H 78.147 -29.71 -4.876
H 76.582 -27.674 -4.751
H 79.208 -27.699 4.214
H 77.656 -25.781 4.357
H 79.119 -27.361 -4.799
H 77.568 -25.432 -4.764
H 77.124 -31.639 -3.725
H 74.873 -30.753 -3.626
H 79.8 -25.479 0.842
H 77.541 -24.455 -1.255
H 77.559 -24.541 0.935
H 79.782 -25.4 -1.281
H 77.563 -24.614 3.099
H 79.791 -25.586 3.076
H 79.731 -25.339 -3.516
H 77.504 -24.36 -3.422
H 77.181 -31.838 0.626
H 74.917 -30.841 -1.471
H 74.945 -30.931 0.716
H 77.154 -31.757 -1.492
H 74.943 -31.015 2.881
H 77.198 -31.889 2.862
H 80.688 -29.688 4.208
H 80.591 -29.353 -4.971
H 69.964 -17.307 4.674
H 69.869 -17.099 -4.345
H 79.715 -31.428 -1.504
H 79.74 -31.507 0.617
H 79.733 -31.562 2.86
H 79.658 -31.319 -3.745
H 81.695 -29.988 0.695
H 81.671 -29.909 -1.511
H 81.715 -30.068 2.878
H 81.644 -29.831 -3.694
H 81.367 -27.453 -1.377
H 81.386 -27.53 0.748
H 81.366 -27.611 2.991
H 81.302 -27.371 -3.619
H 66.12 -24.976 -3.284
H 66.113 -25.006 -1.061
H 66.14 -25.05 1.049
H 66.211 -25.098 3.269
H 66.916 -22.788 -3.228
H 66.917 -22.835 -1.004
H 66.961 -22.888 1.111
H 67.046 -22.96 3.331
C 67.503 -31.169 -0.93
C 67.514 -31.203 0.629
C 64.858 -29.961 -1.464
C 64.869 -30.04 1.249
C 67.366 -29.772 1.235
C 66.037 -29.112 -0.884
C 66.038 -29.151 0.707
C 67.363 -29.713 -1.439
C 67.544 -31.281 3.333
C 64.892 -30.093 2.806
C 66.063 -29.225 3.343
C 67.392 -29.819 2.83
C 67.502 -31.096 -3.638
C 64.867 -29.92 -3.024
C 67.378 -29.673 -3.032
C 66.053 -29.051 -3.526
C 68.54 -28.904 -0.846
C 68.533 -28.931 0.703
C 65.986 -27.65 -1.415
C 65.994 -27.711 1.294
C 68.525 -28.967 3.465
C 66.021 -27.751 2.853
C 68.576 -28.841 -3.537
C 65.991 -27.618 -2.974
C 61.707 -41.309 0.927
C 60.479 -40.401 -1.165
C 60.482 -40.444 0.425
C 61.704 -41.24 -1.727
C 60.527 -40.51 3.046
C 61.737 -41.357 2.511
C 61.703 -41.195 -3.306
C 60.479 -40.346 -3.791
C 63.106 -40.621 -1.227
C 63.113 -40.678 0.35
C 60.616 -38.965 -1.69
C 60.644 -39.038 1.011
C 63.222 -39.187 0.923
C 61.913 -38.343 -1.127
C 61.935 -38.396 0.45
C 63.187 -39.092 -1.694
C 63.161 -40.767 2.957
C 60.678 -39.082 2.564
C 61.997 -38.495 3.082
C 63.249 -39.247 2.509
C 63.077 -40.516 -3.834
C 60.613 -38.93 -3.247
C 63.177 -39.037 -3.28
C 61.9 -38.27 -3.762
C 64.517 -38.352 -1.166
C 64.538 -38.412 0.409
C 61.884 -36.896 -1.641
C 61.931 -36.986 1.063
C 64.467 -36.886 0.998
C 63.09 -36.138 -1.075
C 63.119 -36.195 0.513
C 64.421 -36.788 -1.646
C 64.575 -38.521 3.011
C 61.973 -37.047 2.616
C 63.189 -36.302 3.136
C 64.507 -36.952 2.574
C 64.488 -38.258 -3.768
C 61.875 -36.853 -3.196
C 64.41 -36.738 -3.224
C 63.071 -36.063 -3.698
C 65.533 -35.824 -1.082
C 65.562 -35.879 0.465
C 62.907 -34.668 -1.582
C 62.952 -34.765 1.127
C 65.405 -34.446 1.081
C 64.03 -33.781 -1.008
C 64.054 -33.835 0.581
C 65.363 -34.355 -1.583
C 65.623 -35.991 3.154
C 62.994 -34.83 2.684
C 64.115 -33.939 3.219
C 65.444 -34.51 2.671
C 65.5 -35.741 -3.779
C 62.899 -34.623 -3.141
C 65.355 -34.31 -3.176
C 64.013 -33.702 -3.648
C 66.517 -33.481 -1.009
C 66.538 -33.527 0.548
C 63.846 -32.313 -1.521
C 63.877 -32.406 1.193
C 66.583 -33.619 3.247
C 63.911 -32.468 2.751
C 66.496 -33.402 -3.712
C 63.845 -32.267 -3.08
C 65.682 -43.736 0.697
C 64.502 -42.848 -1.413
C 64.496 -42.934 0.136
C 65.677 -43.596 -2.028
C 64.478 -43.042 2.832
C 65.681 -43.792 2.257
C 65.668 -43.517 -3.59
C 64.537 -42.66 -4.181
C 66.976 -43.018 -1.413
C 66.98 -43.092 0.166
C 64.407 -41.367 -1.848
C 64.41 -41.491 0.795
C 67.025 -41.628 0.761
C 65.734 -40.694 -1.293
C 65.737 -40.765 0.294
C 67.019 -41.506 -1.859
C 66.983 -43.193 2.792
C 64.421 -41.553 2.365
C 65.749 -40.887 2.87
C 67.027 -41.698 2.339
C 66.98 -42.883 -4.032
C 64.391 -41.288 -3.424
C 67.004 -41.43 -3.436
C 65.711 -40.56 -3.865
C 68.36 -40.891 -1.313
C 68.365 -40.963 0.265
C 65.796 -39.166 -1.744
C 65.816 -39.284 0.892
C 68.39 -39.541 0.904
C 67.177 -38.657 -1.186
C 67.186 -38.727 0.368
C 68.377 -39.417 -1.814
C 68.364 -41.098 2.884
C 65.825 -39.359 2.466
C 67.186 -38.889 3.091
C 68.392 -39.621 2.464
C 68.332 -40.786 -3.935
C 65.779 -39.093 -3.314
C 68.357 -39.354 -3.376
C 67.139 -38.56 -3.903
C 69.367 -46.228 0.609
C 68.157 -45.331 -1.49
C 68.168 -45.4 0.066
C 69.348 -46.115 -2.11
C 68.178 -45.49 2.769
C 69.369 -46.281 2.172
C 69.331 -46.038 -3.671
C 68.137 -45.196 -4.188
C 70.674 -45.519 -1.528
C 70.684 -45.585 0.064
C 68.198 -43.831 -1.977
C 68.208 -43.946 0.667
C 70.773 -44.118 0.644
C 69.523 -43.196 -1.422
C 69.53 -43.265 0.159
C 70.759 -44.008 -1.988
C 70.687 -45.667 2.693
C 68.207 -44.006 2.246
C 69.531 -43.37 2.759
C 70.77 -44.176 2.226
C 70.644 -45.386 -4.155
C 68.185 -43.757 -3.551
C 70.738 -43.937 -3.569
C 69.501 -43.082 -4.02
C 72.102 -43.38 -1.45
C 72.11 -43.445 0.143
C 69.605 -41.689 -1.89
C 69.617 -41.805 0.753
C 72.171 -42.009 0.767
C 70.958 -41.117 -1.331
C 70.964 -41.183 0.227
C 72.158 -41.897 -1.954
C 72.094 -43.554 2.772
C 69.616 -41.873 2.33
C 70.953 -41.305 2.928
C 72.165 -42.073 2.331
C 72.056 -43.274 -4.078
C 69.587 -41.621 -3.468
C 72.134 -41.834 -3.517
C 70.919 -41.013 -4.034
C 71.9 -46.291 -2.135
C 71.92 -46.402 0.593
C 73.203 -45.668 -1.539
C 73.214 -45.731 0.033
C 71.918 -46.455 2.162
C 73.208 -45.826 2.758
C 71.878 -46.218 -3.703
C 73.161 -45.546 -4.262
C 73.301 -44.198 -2.06
C 73.317 -44.307 0.67
C 73.312 -44.364 2.239
C 73.276 -44.13 -3.629
C 66.376 -32.099 1.157
C 65.001 -31.436 -0.946
C 65.014 -31.484 0.649
C 66.351 -32.022 -1.512
C 65.059 -31.575 3.276
C 66.407 -32.153 2.746
C 66.354 -31.98 -3.102
C 65.001 -31.365 -3.577
H 63.917 -29.612 0.964
H 63.911 -29.544 -1.145
H 63.962 -29.703 3.199
H 67.5 -31.3 4.414
H 66.033 -29.236 4.424
H 63.941 -29.49 -3.384
H 67.446 -31.038 -4.717
H 66.035 -29.013 -4.607
H 68.467 -31.537 -3.429
H 68.515 -31.687 3.082
H 68.464 -31.628 0.925
H 68.446 -31.584 -1.262
H 65.063 -27.238 1.013
H 65.06 -27.188 -1.1
H 65.12 -27.294 3.242
H 68.346 -28.865 4.527
H 65.079 -27.156 -3.33
H 68.627 -28.84 -4.618
H 69.41 -29.415 -3.156
H 69.418 -29.578 3.468
H 69.349 -29.513 1.11
H 69.382 -29.524 -1.126
H 60.526 -40.498 4.127
H 60.465 -40.308 -4.872
H 63.214 -40.809 4.037
H 62.012 -38.528 4.164
H 63.04 -40.476 -4.915
H 61.88 -38.228 -4.843
H 64.599 -38.56 4.092
H 63.195 -36.343 4.217
H 64.482 -38.222 -4.849
H 63.043 -36.029 -4.779
H 61.987 -34.355 0.861
H 61.952 -34.278 -1.257
H 62.06 -34.458 3.085
H 65.63 -36.041 4.234
H 64.111 -33.972 4.3
H 61.955 -34.222 -3.485
H 65.453 -35.706 -4.859
H 63.979 -33.662 -4.728
H 66.52 -36.016 -3.543
H 66.628 -36.245 2.841
H 66.564 -36.161 0.757
H 66.52 -36.084 -1.442
H 62.913 -32 0.917
H 62.891 -31.922 -1.195
H 62.976 -32.1 3.15
H 66.552 -33.64 4.329
H 62.908 -31.857 -3.433
H 66.441 -33.344 -4.791
H 67.472 -33.823 -3.504
H 67.56 -34.006 2.989
H 67.499 -33.931 0.837
H 67.468 -33.87 -1.349
H 64.441 -43.121 3.911
H 64.743 -42.464 -5.225
H 66.978 -43.243 3.873
H 65.749 -40.945 3.95
H 67.005 -42.831 -5.112
H 65.706 -40.487 -4.945
H 68.369 -41.157 3.964
H 67.172 -39.041 4.162
H 68.325 -40.741 -5.016
H 67.112 -38.581 -4.985
H 65.553 -44.509 -4.008
H 63.664 -43.294 -4.268
H 69.293 -39.014 0.624
H 67.376 -37.633 -1.472
H 67.384 -37.738 0.757
H 69.284 -38.918 -1.5
H 67.395 -37.835 2.963
H 69.281 -39.142 2.851
H 69.242 -38.841 -3.728
H 67.368 -37.536 -3.64
H 65.577 -44.756 0.349
H 63.705 -43.427 -1.86
H 63.679 -43.603 0.369
H 65.56 -44.642 -1.775
H 63.668 -43.628 2.417
H 65.579 -44.818 2.584
H 68.234 -45.5 3.85
H 68.176 -45.124 -5.267
H 70.686 -45.71 3.775
H 69.534 -43.415 3.84
H 70.63 -45.342 -5.236
H 69.493 -43.039 -5.101
H 72.095 -43.595 3.853
H 70.948 -41.411 4.005
H 72.042 -43.228 -5.159
H 70.898 -41.033 -5.116
H 69.254 -47.036 -4.083
H 67.22 -45.728 -3.974
H 73.097 -41.527 0.482
H 71.075 -40.077 -1.605
H 71.083 -40.169 0.584
H 73.088 -41.441 -1.641
H 71.079 -40.246 2.749
H 73.076 -41.634 2.716
H 73.042 -41.367 -3.876
H 71.049 -39.972 -3.773
H 69.286 -47.252 0.267
H 67.254 -45.827 -1.82
H 67.271 -45.925 0.367
H 69.268 -47.162 -1.85
H 67.26 -46.011 2.532
H 69.301 -47.309 2.503
H 73.158 -45.834 3.839
H 73.096 -45.468 -5.339
H 65.049 -31.598 4.358
H 64.973 -31.325 -4.657
H 71.844 -47.339 -1.872
H 71.861 -47.426 0.249
H 71.851 -47.483 2.492
H 71.802 -47.217 -4.112
H 74.075 -46.318 0.321
H 74.06 -46.231 -1.885
H 74.087 -46.404 2.504
H 74.04 -46.145 -4.067
H 74.241 -43.764 -1.746
H 74.252 -43.847 0.379
H 74.224 -43.927 2.622
H 74.185 -43.666 -3.988
H 59.765 -38.353 -3.593
H 59.76 -38.386 -1.37
H 59.784 -38.439 0.74
H 59.853 -38.505 2.96
H 60.974 -36.36 -3.538
H 60.973 -36.411 -1.315
H 61.012 -36.478 0.8
H 61.089 -36.57 3.019
C 59.92 -44.705 -1.251
C 59.93 -44.744 0.308
C 57.56 -43.003 -1.773
C 57.564 -43.088 0.94
C 60.067 -43.312 0.916
C 58.883 -42.401 -1.197
C 58.883 -42.442 0.394
C 60.065 -43.248 -1.757
C 59.953 -44.831 3.012
C 57.582 -43.148 2.497
C 58.903 -42.525 3.03
C 60.088 -43.366 2.512
C 59.924 -44.627 -3.959
C 57.571 -42.961 -3.332
C 60.082 -43.208 -3.35
C 58.902 -42.338 -3.838
C 61.38 -42.685 -1.168
C 61.373 -42.712 0.381
C 59.118 -40.955 -1.726
C 59.122 -41.023 0.984
C 61.368 -42.752 3.142
C 59.147 -41.07 2.542
C 61.418 -42.624 -3.859
C 59.123 -40.921 -3.285
C 52.26 -53.531 0.615
C 51.225 -52.397 -1.471
C 51.225 -52.443 0.119
C 52.26 -53.457 -2.039
C 51.266 -52.522 2.739
C 52.286 -53.587 2.199
C 52.263 -53.41 -3.618
C 51.226 -52.337 -4.096
C 53.759 -53.122 -1.543
C 53.76 -53.183 0.034
C 51.638 -51.013 -1.995
C 51.661 -51.095 0.706
C 54.16 -51.742 0.608
C 53.034 -50.655 -1.435
C 53.051 -50.714 0.141
C 54.135 -51.637 -2.008
C 53.799 -53.284 2.64
C 51.691 -51.148 2.259
C 53.101 -50.829 2.773
C 54.18 -51.809 2.194
C 53.742 -53.008 -4.149
C 51.636 -50.975 -3.551
C 54.13 -51.577 -3.594
C 53.026 -50.575 -4.07
C 55.587 -51.169 -1.484
C 55.601 -51.236 0.09
C 53.286 -49.228 -1.947
C 53.324 -49.331 0.756
C 55.831 -49.726 0.681
C 54.619 -48.72 -1.385
C 54.642 -48.784 0.203
C 55.796 -49.615 -1.962
C 55.625 -51.355 2.692
C 53.359 -49.402 2.309
C 54.699 -48.909 2.825
C 55.863 -49.802 2.257
C 55.567 -51.067 -4.086
C 53.28 -49.181 -3.502
C 55.789 -49.561 -3.54
C 54.606 -48.637 -4.008
C 57.077 -48.888 -1.4
C 57.1 -48.95 0.146
C 54.725 -47.241 -1.89
C 54.761 -47.35 0.819
C 57.228 -47.515 0.764
C 56.002 -46.59 -1.319
C 56.021 -46.651 0.271
C 57.196 -47.413 -1.9
C 57.148 -49.077 2.834
C 54.794 -47.426 2.376
C 56.07 -46.77 2.908
C 57.26 -47.589 2.354
C 57.052 -48.794 -4.098
C 54.721 -47.192 -3.448
C 57.191 -47.363 -3.492
C 55.992 -46.504 -3.958
C 58.5 -46.781 -1.329
C 58.518 -46.833 0.228
C 56.108 -45.113 -1.829
C 56.13 -45.216 0.884
C 58.554 -46.937 2.927
C 56.156 -45.287 2.442
C 58.486 -46.694 -4.031
C 56.11 -45.065 -3.388
C 55.688 -56.681 0.367
C 54.695 -55.576 -1.736
C 54.678 -55.662 -0.188
C 55.7 -56.537 -2.357
C 54.65 -55.77 2.508
C 55.681 -56.738 1.927
C 55.701 -56.454 -3.919
C 54.757 -55.393 -4.505
C 57.089 -56.224 -1.747
C 57.084 -56.301 -0.168
C 54.889 -54.104 -2.169
C 54.877 -54.231 0.473
C 57.416 -54.875 0.429
C 56.324 -53.703 -1.619
C 56.319 -53.777 -0.032
C 57.424 -54.749 -2.19
C 57.078 -56.405 2.458
C 54.882 -54.298 2.043
C 56.316 -53.904 2.544
C 57.41 -54.947 2.007
C 57.11 -56.087 -4.365
C 54.883 -54.02 -3.745
C 57.419 -54.667 -3.768
C 56.318 -53.562 -4.191
C 58.862 -54.408 -1.65
C 58.858 -54.482 -0.071
C 56.681 -52.215 -2.068
C 56.687 -52.341 0.568
C 59.162 -53.093 0.569
C 58.136 -51.986 -1.514
C 58.137 -52.06 0.039
C 59.163 -52.964 -2.149
C 58.84 -54.62 2.547
C 56.686 -52.419 2.141
C 58.115 -52.224 2.762
C 59.153 -53.176 2.129
C 58.845 -54.293 -4.271
C 56.672 -52.137 -3.638
C 59.151 -52.895 -3.71
C 58.108 -51.878 -4.232
C 58.817 -59.842 0.262
C 57.797 -58.723 -1.832
C 57.8 -58.795 -0.275
C 58.811 -59.722 -2.457
C 57.801 -58.89 2.427
C 58.814 -59.897 1.825
C 58.803 -59.64 -4.018
C 57.794 -58.58 -4.529
C 60.229 -59.397 -1.88
C 60.232 -59.467 -0.287
C 58.128 -57.258 -2.316
C 58.124 -57.379 0.327
C 60.607 -58.046 0.295
C 59.553 -56.894 -1.766
C 59.552 -56.966 -0.185
C 60.605 -57.931 -2.338
C 60.228 -59.554 2.342
C 58.117 -57.44 1.906
C 59.542 -57.075 2.415
C 60.598 -58.106 1.876
C 60.217 -59.256 -4.506
C 58.124 -57.18 -3.891
C 60.593 -57.853 -3.918
C 59.544 -56.773 -4.364
C 62.046 -57.578 -1.804
C 62.047 -57.646 -0.211
C 59.926 -55.432 -2.232
C 59.924 -55.553 0.41
C 62.39 -56.25 0.415
C 61.366 -55.135 -1.678
C 61.364 -55.204 -0.12
C 62.388 -56.133 -2.306
C 62.02 -57.755 2.418
C 59.915 -55.622 1.987
C 61.34 -55.328 2.581
C 62.377 -56.316 1.978
C 62.013 -57.459 -4.432
C 59.915 -55.358 -3.81
C 62.372 -56.063 -3.869
C 61.338 -55.02 -4.38
C 61.279 -60.392 -2.492
C 61.286 -60.51 0.236
C 62.68 -60.036 -1.9
C 62.684 -60.103 -0.329
C 61.28 -60.565 1.805
C 62.67 -60.201 2.396
C 61.266 -60.313 -4.059
C 62.653 -59.903 -4.623
C 63.061 -58.612 -2.42
C 63.065 -58.727 0.31
C 63.055 -58.786 1.879
C 63.045 -58.537 -3.988
C 58.64 -45.402 0.84
C 57.413 -44.479 -1.258
C 57.423 -44.532 0.338
C 58.621 -45.316 -1.829
C 57.458 -44.635 2.964
C 58.665 -45.464 2.428
C 58.627 -45.272 -3.419
C 57.418 -44.404 -3.887
H 56.713 -42.482 0.659
H 56.714 -42.41 -1.45
H 56.748 -42.584 2.893
H 59.911 -44.844 4.093
H 58.875 -42.533 4.112
H 56.746 -42.358 -3.688
H 59.876 -44.557 -5.037
H 58.888 -42.296 -4.919
H 60.785 -45.249 -3.753
H 60.825 -45.418 2.757
H 60.779 -45.346 0.6
H 60.763 -45.295 -1.587
H 58.301 -40.376 0.706
H 58.301 -40.322 -1.407
H 58.354 -40.447 2.935
H 61.216 -42.619 4.205
H 58.318 -40.29 -3.636
H 61.464 -42.632 -4.94
H 62.125 -43.35 -3.481
H 62.124 -43.525 3.143
H 62.061 -43.443 0.784
H 62.083 -43.456 -1.452
H 51.271 -52.512 3.821
H 51.216 -52.295 -5.177
H 53.847 -53.337 3.72
H 53.113 -50.866 3.854
H 53.71 -52.959 -5.23
H 53.011 -50.528 -5.151
H 55.645 -51.4 3.773
H 54.701 -48.952 3.906
H 55.564 -51.028 -5.167
H 54.581 -48.596 -5.089
H 53.893 -46.759 0.558
H 53.866 -46.672 -1.561
H 53.952 -46.879 2.781
H 57.148 -49.13 3.915
H 56.064 -46.804 3.989
H 53.872 -46.613 -3.788
H 57.008 -48.749 -5.178
H 55.963 -46.456 -5.038
H 57.999 -49.263 -3.866
H 58.083 -49.521 2.517
H 58.03 -49.422 0.434
H 57.993 -49.334 -1.765
H 55.262 -44.629 0.613
H 55.249 -44.544 -1.499
H 55.312 -44.744 2.846
H 58.523 -46.954 4.008
H 55.269 -44.479 -3.736
H 58.439 -46.624 -5.11
H 59.361 -47.297 -3.827
H 59.435 -47.507 2.664
H 59.383 -47.418 0.513
H 59.356 -47.347 -1.672
H 54.602 -55.842 3.587
H 54.992 -55.239 -5.55
H 57.067 -56.455 3.539
H 56.308 -53.962 3.624
H 57.141 -56.038 -5.446
H 56.324 -53.488 -5.27
H 58.838 -54.681 3.627
H 58.076 -52.373 3.833
H 58.844 -54.246 -5.352
H 58.075 -51.891 -5.313
H 55.394 -57.404 -4.338
H 53.776 -55.843 -4.586
H 60.149 -52.752 0.286
H 58.53 -51.02 -1.8
H 58.526 -51.129 0.429
H 60.151 -52.652 -1.837
H 58.525 -51.231 2.634
H 60.121 -52.88 2.513
H 60.117 -52.564 -4.065
H 58.533 -50.919 -3.967
H 55.385 -57.659 0.019
H 53.798 -55.986 -2.181
H 53.746 -56.158 0.048
H 55.382 -57.54 -2.105
H 53.739 -56.185 2.097
H 55.382 -57.726 2.253
H 57.859 -58.913 3.508
H 57.843 -58.515 -5.608
H 60.223 -59.597 3.423
H 59.54 -57.122 3.496
H 60.208 -59.207 -5.586
H 59.542 -56.727 -5.445
H 62.017 -57.797 3.499
H 61.318 -55.432 3.658
H 62.005 -57.409 -5.513
H 61.311 -55.033 -5.462
H 58.532 -60.603 -4.431
H 56.792 -58.924 -4.312
H 63.39 -55.957 0.127
H 61.682 -54.137 -1.951
H 61.68 -54.233 0.239
H 63.391 -55.867 -1.996
H 61.669 -54.313 2.403
H 63.357 -56.063 2.36
H 63.352 -55.781 -4.231
H 61.67 -54.024 -4.118
H 58.537 -60.83 -0.081
H 56.813 -59.032 -2.158
H 56.819 -59.136 0.028
H 58.529 -60.734 -2.198
H 56.799 -59.223 2.193
H 58.548 -60.893 2.154
H 62.623 -60.201 3.477
H 62.601 -59.811 -5.7
H 57.448 -44.658 4.046
H 57.394 -44.358 -4.968
H 61.021 -61.41 -2.23
H 61.028 -61.502 -0.11
H 61.015 -61.561 2.133
H 60.996 -61.277 -4.47
H 63.416 -60.848 -0.044
H 63.41 -60.755 -2.25
H 63.418 -60.939 2.138
H 63.4 -60.662 -4.432
H 64.069 -58.37 -2.109
H 64.071 -58.459 0.016
H 64.036 -58.536 2.259
H 64.026 -58.259 -4.35
H 50.916 -50.243 -3.893
H 50.912 -50.279 -1.67
H 50.934 -50.34 0.439
H 50.995 -50.422 2.659
H 52.492 -48.521 -3.84
H 52.489 -48.576 -1.617
H 52.521 -48.653 0.498
H 52.586 -48.762 2.716
C 49.829 -56.513 -1.56
C 49.837 -56.555 -0.002
C 47.849 -54.379 -2.07
C 47.847 -54.468 0.642
C 50.257 -55.178 0.607
C 49.268 -54.048 -1.499
C 49.265 -54.092 0.092
C 50.258 -55.11 -2.065
C 49.853 -56.651 2.701
C 47.858 -54.534 2.199
C 49.278 -54.182 2.727
C 50.273 -55.238 2.203
C 49.839 -56.431 -4.267
C 47.862 -54.337 -3.63
C 50.277 -55.071 -3.658
C 49.289 -53.986 -4.14
C 51.661 -54.814 -1.481
C 51.655 -54.843 0.068
C 49.78 -52.675 -2.027
C 49.78 -52.747 0.682
C 51.652 -54.887 2.828
C 49.801 -52.801 2.24
C 51.7 -54.756 -4.171
C 49.785 -52.639 -3.586
C 40.481 -63.614 0.306
C 39.723 -62.276 -1.783
C 39.712 -62.317 -0.193
C 40.513 -63.535 -2.34
C 39.719 -62.417 2.425
C 40.484 -63.681 1.884
C 40.534 -63.492 -3.917
C 39.751 -62.221 -4.403
C 42.062 -63.535 -1.834
C 42.048 -63.599 -0.259
C 40.434 -61.018 -2.292
C 40.442 -61.107 0.411
C 42.748 -62.271 0.315
C 41.874 -60.969 -1.727
C 41.88 -61.033 -0.15
C 42.746 -62.158 -2.299
C 42.057 -63.713 2.343
C 40.461 -61.176 1.965
C 41.908 -61.168 2.484
C 42.756 -62.348 1.902
C 42.074 -63.421 -4.438
C 40.44 -60.98 -3.848
C 42.752 -62.096 -3.885
C 41.882 -60.885 -4.361
C 44.266 -61.994 -1.778
C 44.268 -62.066 -0.204
C 42.418 -59.625 -2.235
C 42.439 -59.74 0.47
C 44.813 -60.634 0.386
C 43.826 -59.4 -1.675
C 43.839 -59.47 -0.087
C 44.794 -60.514 -2.256
C 44.274 -62.193 2.396
C 42.463 -59.823 2.024
C 43.878 -59.611 2.535
C 44.833 -60.719 1.962
C 44.262 -61.887 -4.38
C 42.418 -59.575 -3.79
C 44.795 -60.457 -3.834
C 43.824 -59.311 -4.298
C 46.2 -60.056 -1.7
C 46.214 -60.124 -0.154
C 44.228 -57.972 -2.179
C 44.249 -58.091 0.531
C 46.634 -58.744 0.464
C 45.611 -57.589 -1.612
C 45.622 -57.656 -0.023
C 46.613 -58.632 -2.199
C 46.246 -60.265 2.532
C 44.272 -58.176 2.087
C 45.656 -57.788 2.613
C 46.657 -58.826 2.054
C 46.187 -59.956 -4.396
C 44.228 -57.92 -3.737
C 46.614 -58.58 -3.791
C 45.61 -57.498 -4.252
C 48.022 -58.272 -1.634
C 48.034 -58.329 -0.077
C 46.008 -56.162 -2.122
C 46.018 -56.272 0.591
C 48.059 -58.444 2.62
C 46.036 -56.35 2.148
C 48.016 -58.179 -4.335
C 46.014 -56.112 -3.681
C 43.277 -67.414 0.087
C 42.492 -66.138 -2.006
C 42.466 -66.214 -0.452
C 43.306 -67.279 -2.636
C 42.455 -66.32 2.258
C 43.273 -67.474 1.648
C 43.324 -67.198 -4.198
C 42.58 -65.977 -4.766
C 44.741 -67.245 -2.042
C 44.727 -67.32 -0.463
C 42.976 -64.731 -2.452
C 42.949 -64.853 0.188
C 45.333 -65.987 0.128
C 44.473 -64.624 -1.912
C 44.46 -64.697 -0.326
C 45.353 -65.863 -2.489
C 44.721 -67.427 2.158
C 42.944 -64.92 1.76
C 44.444 -64.819 2.247
C 45.322 -66.058 1.706
C 44.777 -67.11 -4.66
C 42.987 -64.649 -4.026
C 45.359 -65.781 -4.066
C 44.487 -64.486 -4.483
C 46.838 -65.808 -1.959
C 46.827 -65.882 -0.381
C 45.122 -63.237 -2.366
C 45.112 -63.364 0.269
C 47.398 -64.581 0.257
C 46.595 -63.298 -1.82
C 46.588 -63.372 -0.267
C 47.412 -64.451 -2.459
C 46.798 -66.017 2.236
C 45.103 -63.441 1.841
C 46.548 -63.532 2.455
C 47.382 -64.662 1.817
C 46.833 -65.689 -4.578
C 45.124 -63.159 -3.936
C 47.407 -64.38 -4.02
C 46.579 -63.185 -4.538
C 45.779 -71.132 -0.057
C 44.978 -69.836 -2.143
C 44.972 -69.909 -0.586
C 45.785 -71.007 -2.776
C 44.972 -70.01 2.116
C 45.774 -71.189 1.506
C 45.788 -70.922 -4.337
C 44.994 -69.688 -4.842
C 47.242 -70.961 -2.205
C 47.238 -71.034 -0.613
C 45.572 -68.457 -2.623
C 45.557 -68.579 0.019
C 47.877 -69.711 -0.031
C 47.047 -68.376 -2.082
C 47.039 -68.449 -0.502
C 47.886 -69.592 -2.662
C 47.232 -71.124 2.015
C 45.548 -68.642 1.596
C 47.024 -68.559 2.096
C 47.865 -69.772 1.55
C 47.248 -70.814 -4.831
C 45.578 -68.377 -4.198
C 47.883 -69.51 -4.242
C 47.051 -68.249 -4.679
C 49.372 -69.521 -2.135
C 49.367 -69.592 -0.543
C 47.689 -67.012 -2.548
C 47.677 -67.135 0.093
C 49.971 -68.289 0.082
C 49.165 -66.995 -2.002
C 49.158 -67.066 -0.445
C 49.98 -68.167 -2.636
C 49.334 -69.7 2.084
C 47.664 -67.204 1.669
C 49.125 -67.189 2.254
C 49.954 -68.354 1.645
C 49.352 -69.392 -4.762
C 47.688 -66.934 -4.125
C 49.971 -68.091 -4.199
C 49.149 -66.872 -4.703
C 48.084 -72.136 -2.824
C 48.08 -72.259 -0.097
C 49.53 -72.055 -2.239
C 49.528 -72.125 -0.668
C 48.071 -72.316 1.471
C 49.508 -72.226 2.055
C 48.081 -72.052 -4.392
C 49.52 -71.913 -4.96
C 50.172 -70.727 -2.757
C 50.166 -70.848 -0.029
C 50.152 -70.908 1.539
C 50.164 -70.647 -4.325
C 48.443 -56.95 0.535
C 47.415 -55.799 -1.556
C 47.42 -55.856 0.039
C 48.432 -56.857 -2.132
C 47.444 -55.969 2.665
C 48.462 -57.019 2.123
C 48.44 -56.812 -3.723
C 47.426 -55.721 -4.185
H 47.13 -53.706 0.366
H 47.137 -53.632 -1.744
H 47.152 -53.818 2.599
H 49.814 -56.657 3.783
H 49.253 -54.187 3.808
H 47.171 -53.583 -3.982
H 49.802 -56.352 -5.345
H 49.279 -53.939 -5.221
H 50.562 -57.211 -4.066
H 50.592 -57.398 2.442
H 50.553 -57.313 0.286
H 50.539 -57.255 -1.9
H 49.1 -51.952 0.409
H 49.103 -51.895 -1.704
H 49.146 -52.036 2.636
H 51.533 -54.729 3.892
H 49.118 -51.862 -3.933
H 51.74 -54.77 -5.253
H 52.254 -55.608 -3.799
H 52.243 -55.793 2.823
H 52.188 -55.696 0.466
H 52.199 -55.707 -1.769
H 39.716 -62.429 3.507
H 39.767 -62.178 -5.484
H 42.085 -63.777 3.422
H 41.912 -61.213 3.565
H 42.058 -63.37 -5.518
H 41.88 -60.836 -5.442
H 44.291 -62.244 3.476
H 43.877 -59.658 3.616
H 44.265 -61.848 -5.461
H 43.805 -59.265 -5.379
H 43.517 -57.337 0.274
H 43.501 -57.242 -1.846
H 43.559 -57.472 2.496
H 46.244 -60.32 3.612
H 45.65 -57.823 3.695
H 43.512 -57.182 -4.074
H 46.151 -59.902 -5.476
H 45.587 -57.444 -5.332
H 47.024 -60.601 -4.166
H 47.073 -60.882 2.207
H 47.034 -60.77 0.129
H 47.009 -60.672 -2.067
H 45.283 -55.524 0.324
H 45.28 -55.434 -1.789
H 45.318 -55.651 2.556
H 48.032 -58.457 3.702
H 45.305 -55.371 -4.026
H 47.98 -58.099 -5.413
H 48.755 -58.943 -4.135
H 48.809 -59.177 2.352
H 48.767 -59.074 0.203
H 48.747 -58.995 -1.981
H 42.466 -66.369 3.339
H 42.797 -65.877 -5.821
H 44.717 -67.477 3.239
H 44.437 -64.872 3.328
H 44.805 -67.063 -5.741
H 44.499 -64.418 -5.563
H 46.794 -66.078 3.316
H 46.489 -63.672 3.527
H 46.836 -65.641 -5.659
H 46.539 -63.193 -5.62
H 42.843 -68.073 -4.614
H 41.53 -66.235 -4.776
H 48.431 -64.436 -0.031
H 47.169 -62.427 -2.108
H 47.154 -62.536 0.121
H 48.443 -64.336 -2.152
H 47.145 -62.638 2.326
H 48.39 -64.558 2.195
H 48.418 -64.241 -4.379
H 47.184 -62.326 -4.278
H 42.79 -68.316 -0.258
H 41.515 -66.354 -2.418
H 41.454 -66.475 -0.175
H 42.808 -68.206 -2.385
H 41.443 -66.54 1.945
H 42.796 -68.389 1.973
H 45.032 -70.046 3.196
H 45.056 -69.629 -5.92
H 47.225 -71.169 3.097
H 47.021 -68.608 3.177
H 47.245 -70.762 -5.911
H 47.054 -68.2 -5.76
H 49.329 -69.745 3.165
H 49.092 -67.29 3.331
H 49.351 -69.339 -5.843
H 49.117 -66.877 -5.784
H 45.339 -71.815 -4.751
H 43.944 -69.837 -4.627
H 51.008 -68.19 -0.211
H 49.665 -66.076 -2.275
H 49.656 -66.174 -0.088
H 51.015 -68.097 -2.331
H 49.643 -66.255 2.075
H 50.967 -68.293 2.021
H 50.986 -67.999 -4.564
H 49.667 -65.959 -4.441
H 45.317 -72.048 -0.4
H 43.952 -69.951 -2.467
H 43.945 -70.056 -0.28
H 45.32 -71.949 -2.519
H 43.923 -70.143 1.888
H 45.327 -72.118 1.835
H 49.47 -72.222 3.136
H 49.484 -71.813 -6.037
H 47.435 -55.992 3.747
H 47.408 -55.67 -5.266
H 47.64 -73.088 -2.564
H 47.637 -73.184 -0.443
H 47.624 -73.245 1.799
H 47.632 -72.947 -4.803
H 50.106 -72.996 -0.389
H 50.109 -72.898 -2.593
H 50.101 -73.091 1.791
H 50.11 -72.8 -4.772
H 51.208 -70.682 -2.45
H 51.203 -70.775 -0.328
H 51.165 -70.851 1.914
H 51.179 -70.56 -4.69
H 39.891 -60.111 -4.186
H 39.883 -60.147 -1.964
H 39.901 -60.207 0.153
H 39.945 -60.315 2.37
H 41.78 -58.767 -4.123
H 41.772 -58.824 -1.901
H 41.794 -58.909 0.218
H 41.841 -59.039 2.435
C 37.419 -65.919 -1.86
C 37.358 -65.924 -0.302
C 35.935 -63.432 -2.486
C 35.866 -63.418 0.224
C 38.098 -64.704 0.281
C 37.409 -63.421 -1.858
C 37.376 -63.428 -0.266
C 38.17 -64.677 -2.385
C 37.257 -65.937 2.404
C 35.834 -63.426 1.782
C 37.328 -63.477 2.364
C 38.071 -64.74 1.872
C 37.526 -65.913 -4.57
C 35.984 -63.449 -4.043
C 38.222 -64.669 -3.975
C 37.487 -63.408 -4.489
C 39.609 -64.717 -1.793
C 39.571 -64.746 -0.248
C 38.246 -62.216 -2.364
C 38.223 -62.257 0.342
C 39.533 -64.808 2.465
C 38.225 -62.304 1.902
C 39.69 -64.679 -4.475
C 38.267 -62.199 -3.921
C 27.174 -71.348 0.048
C 26.62 -69.924 -2.046
C 26.603 -69.962 -0.455
C 27.183 -71.293 -2.609
C 26.634 -70.043 2.174
C 27.188 -71.404 1.632
C 27.194 -71.259 -4.187
C 26.626 -69.882 -4.673
C 28.7 -71.527 -2.121
C 28.691 -71.567 -0.544
C 27.499 -68.794 -2.601
C 27.479 -68.858 0.106
C 29.575 -70.346 0.005
C 28.921 -68.962 -2.067
C 28.902 -68.997 -0.491
C 29.585 -70.286 -2.613
C 28.709 -71.648 2.063
C 27.489 -68.908 1.662
C 28.919 -69.065 2.148
C 29.571 -70.388 1.592
C 28.711 -71.444 -4.73
C 27.513 -68.771 -4.156
C 29.605 -70.256 -4.197
C 28.941 -68.937 -4.702
C 31.101 -70.36 -2.093
C 31.092 -70.386 -0.517
C 29.65 -67.724 -2.639
C 29.595 -67.754 0.061
C 31.791 -68.983 0.043
C 31.054 -67.664 -2.092
C 31.013 -67.666 -0.52
C 31.842 -68.979 -2.592
C 31.069 -70.441 2.083
C 29.568 -67.779 1.614
C 30.966 -67.649 2.108
C 31.754 -68.994 1.626
C 31.127 -70.316 -4.693
C 29.691 -67.722 -4.191
C 31.888 -68.984 -4.175
C 31.124 -67.698 -4.721
C 33.29 -68.776 -1.993
C 33.253 -68.768 -0.447
C 31.714 -66.322 -2.678
C 31.601 -66.281 -0.04
C 33.849 -67.445 0.116
C 33.133 -66.267 -2.075
C 33.072 -66.246 -0.49
C 33.958 -67.482 -2.545
C 33.165 -68.753 2.24
C 31.527 -66.248 1.527
C 32.942 -66.183 2.104
C 33.779 -67.422 1.69
C 33.378 -68.815 -4.672
C 31.788 -66.365 -4.246
C 34.03 -67.521 -4.115
C 33.261 -66.34 -4.677
C 35.363 -67.29 -1.928
C 35.298 -67.276 -0.372
C 33.706 -64.933 -2.629
C 33.591 -64.881 0.046
C 35.169 -67.239 2.327
C 33.51 -64.84 1.588
C 35.482 -67.337 -4.621
C 33.79 -64.982 -4.175
C 29.188 -75.534 -0.19
C 28.661 -74.151 -2.291
C 28.631 -74.213 -0.743
C 29.223 -75.422 -2.914
C 28.597 -74.288 1.956
C 29.176 -75.577 1.37
C 29.241 -75.356 -4.477
C 28.759 -74.024 -5.063
C 30.633 -75.65 -2.32
C 30.617 -75.709 -0.741
C 29.384 -72.861 -2.74
C 29.351 -72.949 -0.097
C 31.464 -74.498 -0.153
C 30.869 -73.013 -2.2
C 30.854 -73.058 -0.612
C 31.493 -74.406 -2.771
C 30.598 -75.795 1.882
C 29.345 -72.998 1.474
C 30.828 -73.148 1.959
C 31.445 -74.551 1.426
C 30.68 -75.541 -4.939
C 29.398 -72.797 -4.315
C 31.506 -74.341 -4.349
C 30.896 -72.908 -4.772
C 32.957 -74.63 -2.243
C 32.943 -74.684 -0.664
C 31.745 -71.76 -2.666
C 31.724 -71.826 -0.031
C 33.743 -73.487 -0.036
C 33.188 -72.091 -2.127
C 33.179 -72.13 -0.572
C 33.769 -73.401 -2.751
C 32.897 -74.788 1.951
C 31.701 -71.869 1.544
C 33.118 -72.229 2.142
C 33.712 -73.543 1.525
C 32.965 -74.536 -4.864
C 31.762 -71.712 -4.236
C 33.777 -73.352 -4.313
C 33.184 -72.027 -4.851
C 30.866 -79.658 -0.333
C 30.337 -78.235 -2.416
C 30.324 -78.299 -0.859
C 30.887 -79.546 -3.05
C 30.31 -78.389 1.841
C 30.854 -79.71 1.229
C 30.9 -79.468 -4.611
C 30.368 -78.104 -5.114
C 32.325 -79.786 -2.486
C 32.312 -79.852 -0.894
C 31.195 -77.003 -2.9
C 31.169 -77.107 -0.258
C 33.205 -78.679 -0.314
C 32.655 -77.208 -2.363
C 32.64 -77.269 -0.781
C 33.228 -78.571 -2.946
C 32.295 -79.937 1.732
C 31.152 -77.159 1.32
C 32.61 -77.367 1.814
C 33.184 -78.733 1.267
C 32.348 -79.648 -5.112
C 31.209 -76.934 -4.475
C 33.234 -78.495 -4.526
C 32.673 -77.094 -4.961
C 34.698 -78.797 -2.425
C 34.684 -78.862 -0.832
C 33.55 -75.992 -2.832
C 33.525 -76.093 -0.19
C 35.534 -77.7 -0.208
C 34.999 -76.272 -2.293
C 34.984 -76.334 -0.734
C 35.558 -77.589 -2.929
C 34.636 -78.96 1.795
C 33.502 -76.15 1.387
C 34.933 -76.443 1.967
C 35.507 -77.758 1.355
C 34.693 -78.671 -5.053
C 33.557 -75.925 -4.41
C 35.56 -77.517 -4.492
C 34.996 -76.157 -4.995
C 32.911 -81.108 -3.109
C 32.89 -81.223 -0.383
C 34.346 -81.315 -2.529
C 34.333 -81.381 -0.959
C 32.874 -81.276 1.184
C 34.301 -81.477 1.762
C 32.918 -81.027 -4.677
C 34.353 -81.175 -5.252
C 35.236 -80.141 -3.051
C 35.215 -80.255 -0.322
C 35.192 -80.31 1.246
C 35.239 -80.063 -4.619
C 35.887 -65.948 0.191
C 35.154 -64.693 -1.978
C 35.099 -64.676 -0.398
C 35.998 -65.967 -2.468
C 34.978 -64.654 2.236
C 35.823 -65.938 1.792
C 36.069 -65.994 -4.067
C 35.275 -64.737 -4.616
H 35.384 -62.5 -0.086
H 35.412 -62.532 -2.192
H 35.359 -62.526 2.149
H 37.197 -65.889 3.484
H 37.284 -63.475 3.445
H 35.487 -62.569 -4.428
H 37.533 -65.851 -5.65
H 37.526 -63.371 -5.57
H 38.071 -66.817 -4.333
H 37.771 -66.866 2.199
H 37.858 -66.825 0.028
H 37.958 -66.81 -2.154
H 37.768 -61.314 0.069
H 37.764 -61.3 -2.049
H 37.794 -61.393 2.294
H 39.499 -64.724 3.543
H 37.791 -61.294 -4.275
H 39.735 -64.699 -5.556
H 40.046 -65.634 -4.112
H 39.871 -65.823 2.302
H 39.903 -65.711 0.112
H 39.957 -65.699 -2.083
H 26.662 -70.033 3.256
H 26.617 -69.849 -5.755
H 28.746 -71.707 3.143
H 28.945 -69.073 3.229
H 28.692 -71.4 -5.81
H 28.926 -68.921 -5.783
H 31.078 -70.479 3.164
H 30.953 -67.609 3.189
H 31.135 -70.295 -5.774
H 31.11 -67.717 -5.803
H 33.095 -68.722 3.319
H 32.886 -66.143 3.184
H 33.418 -68.839 -5.753
H 33.325 -66.364 -5.757
H 34.048 -69.588 -4.32
H 33.86 -69.555 2.03
H 33.909 -69.548 -0.084
H 33.975 -69.565 -2.275
H 35.079 -67.188 3.404
H 35.496 -67.319 -5.702
H 36.099 -68.183 -4.348
H 35.793 -68.104 2.143
H 35.887 -68.113 -0.021
H 35.985 -68.132 -2.203
H 28.537 -74.337 3.035
H 29.023 -73.973 -6.111
H 30.58 -75.844 2.963
H 30.809 -73.197 3.039
H 30.716 -75.507 -6.02
H 30.918 -72.848 -5.852
H 32.88 -74.844 3.031
H 33.042 -72.34 3.216
H 32.972 -74.494 -5.945
H 33.121 -72.057 -5.931
H 28.596 -76.122 -4.885
H 27.68 -74.075 -5.13
H 34.785 -73.552 -0.319
H 33.909 -71.348 -2.442
H 33.891 -71.396 -0.218
H 34.803 -73.486 -2.444
H 33.853 -71.45 1.989
H 34.722 -73.639 1.901
H 34.796 -73.413 -4.67
H 33.952 -71.294 -4.644
H 28.536 -76.329 -0.527
H 27.67 -74.199 -2.723
H 27.585 -74.328 -0.493
H 28.555 -76.231 -2.651
H 27.593 -74.344 1.554
H 28.533 -76.38 1.705
H 30.361 -78.442 2.92
H 30.432 -78.059 -6.193
H 32.281 -79.985 2.813
H 32.597 -77.418 2.895
H 32.35 -79.597 -6.193
H 32.679 -77.048 -6.042
H 34.624 -79.006 2.876
H 34.877 -76.542 3.043
H 34.696 -78.618 -6.134
H 34.956 -76.158 -6.076
H 30.28 -80.254 -5.021
H 29.31 -78.046 -4.893
H 36.569 -77.812 -0.503
H 35.668 -75.469 -2.571
H 35.65 -75.557 -0.381
H 36.588 -77.728 -2.627
H 35.624 -75.629 1.793
H 36.512 -77.904 1.728
H 36.571 -77.629 -4.861
H 35.685 -75.363 -4.738
H 30.228 -80.463 -0.673
H 29.307 -78.148 -2.736
H 29.288 -78.244 -0.55
H 30.244 -80.376 -2.789
H 29.255 -78.315 1.613
H 30.229 -80.529 1.56
H 34.267 -81.472 2.843
H 34.331 -81.069 -6.329
H 34.886 -64.634 3.314
H 35.313 -64.709 -5.697
H 32.286 -81.951 -2.847
H 32.27 -82.039 -0.728
H 32.25 -82.097 1.512
H 32.298 -81.814 -5.085
H 34.726 -82.35 -0.681
H 34.742 -82.257 -2.885
H 34.707 -82.443 1.491
H 34.754 -82.163 -5.069
H 36.262 -80.306 -2.749
H 36.245 -80.392 -0.624
H 36.198 -80.459 1.617
H 36.249 -80.18 -4.989
H 27.115 -67.826 -4.502
H 27.096 -67.843 -2.278
H 27.054 -67.901 -0.164
H 27.08 -67.989 2.06
H 29.173 -66.847 -4.561
H 29.118 -66.835 -2.328
H 29.039 -66.872 -0.232
H 29.018 -66.927 1.993
C 23.795 -73.193 -2.1
C 23.798 -73.239 -0.542
C 22.774 -70.457 -2.596
C 22.753 -70.55 0.119
C 24.71 -72.128 0.063
C 24.205 -70.706 -2.039
C 24.194 -70.75 -0.448
C 24.717 -72.062 -2.611
C 23.798 -73.342 2.163
C 22.75 -70.622 1.677
C 24.193 -70.845 2.193
C 24.714 -72.194 1.66
C 23.813 -73.113 -4.809
C 22.792 -70.417 -4.155
C 24.737 -72.03 -4.204
C 24.23 -70.651 -4.683
C 26.128 -72.325 -2.037
C 26.125 -72.346 -0.488
C 25.184 -69.632 -2.582
C 25.166 -69.701 0.132
C 26.129 -72.386 2.27
C 25.176 -69.763 1.693
C 26.165 -72.292 -4.728
C 25.195 -69.6 -4.14
C 12.574 -76.246 -0.152
C 12.324 -74.712 -2.225
C 12.312 -74.763 -0.634
C 12.591 -76.164 -2.807
C 12.326 -74.872 1.986
C 12.578 -76.32 1.431
C 12.605 -76.114 -4.385
C 12.334 -74.642 -4.85
C 14.023 -76.725 -2.327
C 14.005 -76.788 -0.751
C 13.428 -73.786 -2.751
C 13.426 -73.889 -0.05
C 15.14 -75.817 -0.179
C 14.788 -74.272 -2.208
C 14.784 -74.342 -0.632
C 15.154 -75.696 -2.795
C 14.005 -76.915 1.855
C 13.435 -73.962 1.502
C 14.786 -74.487 2
C 15.134 -75.897 1.406
C 14.049 -76.6 -4.935
C 13.433 -73.741 -4.307
C 15.169 -75.63 -4.381
C 14.803 -74.18 -4.843
C 16.622 -76.119 -2.288
C 16.611 -76.195 -0.714
C 15.783 -73.221 -2.721
C 15.781 -73.349 -0.018
C 17.641 -75.073 -0.123
C 17.174 -73.547 -2.173
C 17.172 -73.625 -0.586
C 17.649 -74.94 -2.767
C 16.589 -76.327 1.888
C 15.785 -73.439 1.535
C 17.175 -73.781 2.036
C 17.639 -75.166 1.453
C 16.639 -76.002 -4.89
C 15.789 -73.166 -4.275
C 17.658 -74.879 -4.344
C 17.186 -73.449 -4.797
C 19.118 -75.056 -2.219
C 19.117 -75.133 -0.673
C 18.077 -72.374 -2.678
C 18.071 -72.506 0.032
C 20.024 -74.021 -0.054
C 19.502 -72.554 -2.121
C 19.498 -72.628 -0.532
C 20.028 -73.897 -2.719
C 19.111 -75.287 2.015
C 18.071 -72.6 1.588
C 19.497 -72.775 2.106
C 20.025 -74.113 1.536
C 19.123 -74.942 -4.918
C 18.086 -72.317 -4.236
C 20.036 -73.839 -4.311
C 19.516 -72.455 -4.762
C 21.464 -74.113 -2.162
C 21.466 -74.178 -0.605
C 20.404 -71.386 -2.632
C 20.39 -71.506 0.083
C 21.464 -74.305 2.095
C 20.388 -71.592 1.64
C 21.474 -74.011 -4.866
C 20.418 -71.334 -4.19
C 13.669 -80.771 -0.447
C 13.437 -79.285 -2.537
C 13.389 -79.359 -0.988
C 13.734 -80.637 -3.171
C 13.329 -79.455 1.708
C 13.645 -80.828 1.114
C 13.767 -80.556 -4.733
C 13.565 -79.145 -5.306
C 15.069 -81.153 -2.576
C 15.036 -81.226 -0.998
C 14.411 -78.164 -2.97
C 14.354 -78.285 -0.327
C 16.108 -80.229 -0.402
C 15.831 -78.633 -2.435
C 15.8 -78.704 -0.849
C 16.162 -80.108 -3.022
C 14.996 -81.33 1.628
C 14.335 -78.355 1.243
C 15.751 -78.828 1.727
C 16.078 -80.298 1.176
C 15.139 -81.029 -5.195
C 14.439 -78.079 -4.545
C 16.188 -80.025 -4.599
C 15.883 -78.492 -5.007
C 17.552 -80.627 -2.497
C 17.521 -80.699 -0.919
C 16.949 -77.59 -2.887
C 16.908 -77.719 -0.251
C 18.55 -79.719 -0.28
C 18.292 -78.213 -2.349
C 18.266 -78.287 -0.797
C 18.599 -79.59 -2.998
C 17.453 -80.824 1.699
C 16.879 -77.796 1.322
C 18.181 -78.433 1.927
C 18.512 -79.795 1.28
C 17.578 -80.502 -5.118
C 16.972 -77.508 -4.456
C 18.613 -79.513 -4.558
C 18.305 -78.085 -5.066
C 14.516 -85.136 -0.594
C 14.27 -83.622 -2.674
C 14.246 -83.696 -1.117
C 14.553 -85.011 -3.312
C 14.219 -83.798 1.585
C 14.497 -85.192 0.969
C 14.578 -84.926 -4.873
C 14.323 -83.481 -5.37
C 15.918 -85.532 -2.751
C 15.896 -85.605 -1.159
C 15.354 -82.584 -3.159
C 15.308 -82.703 -0.516
C 17.002 -84.636 -0.58
C 16.746 -83.077 -2.626
C 16.719 -83.149 -1.045
C 17.041 -84.518 -3.212
C 15.869 -85.695 1.47
C 15.282 -82.763 1.062
C 16.674 -83.254 1.555
C 16.975 -84.693 1.002
C 15.963 -85.387 -5.377
C 15.38 -82.504 -4.734
C 17.059 -84.434 -4.792
C 16.783 -82.95 -5.223
C 18.441 -85.029 -2.694
C 18.418 -85.099 -1.101
C 17.864 -82.064 -3.094
C 17.819 -82.184 -0.452
C 19.483 -84.133 -0.478
C 19.232 -82.62 -2.556
C 19.206 -82.689 -0.999
C 19.523 -84.013 -3.198
C 18.359 -85.195 1.527
C 17.787 -82.25 1.125
C 19.141 -82.8 1.702
C 19.45 -84.192 1.085
C 18.455 -84.891 -5.322
C 17.882 -81.984 -4.671
C 19.534 -83.933 -4.761
C 19.248 -82.488 -5.258
C 16.234 -86.938 -3.378
C 16.199 -87.061 -0.65
C 17.602 -87.424 -2.802
C 17.582 -87.494 -1.231
C 16.177 -87.116 0.919
C 17.54 -87.589 1.494
C 16.252 -86.852 -4.945
C 17.629 -87.277 -5.524
C 18.705 -86.447 -3.324
C 18.669 -86.567 -0.594
C 18.641 -86.622 0.974
C 18.718 -86.363 -4.892
C 22.368 -73.066 0.007
C 21.841 -71.602 -2.077
C 21.834 -71.663 -0.481
C 22.373 -72.964 -2.663
C 21.832 -71.788 2.147
C 22.371 -73.143 1.595
C 22.386 -72.919 -4.253
C 21.862 -71.521 -4.708
H 22.382 -69.57 -0.151
H 22.409 -69.496 -2.26
H 22.376 -69.692 2.085
H 23.767 -73.337 3.245
H 24.181 -70.843 3.275
H 22.444 -69.453 -4.501
H 23.803 -73.022 -5.887
H 24.229 -70.603 -5.764
H 24.181 -74.111 -4.611
H 24.193 -74.314 1.896
H 24.171 -74.214 -0.257
H 24.161 -74.15 -2.447
H 24.826 -68.71 -0.136
H 24.858 -68.654 -2.252
H 24.853 -68.812 2.096
H 26.092 -72.212 3.337
H 24.873 -68.626 -4.483
H 26.19 -72.324 -5.809
H 26.353 -73.29 -4.352
H 26.329 -73.449 2.243
H 26.299 -73.336 -0.089
H 26.282 -73.356 -2.326
H 12.346 -74.874 3.068
H 12.339 -74.593 -5.931
H 14.025 -76.994 2.934
H 14.786 -74.533 3.081
H 14.04 -76.532 -6.014
H 14.807 -74.123 -5.923
H 16.59 -76.384 2.969
H 17.162 -73.827 3.117
H 16.649 -75.959 -5.971
H 17.178 -73.391 -5.878
H 17.679 -71.529 -0.219
H 17.685 -71.425 -2.336
H 17.682 -71.68 2.004
H 19.092 -75.341 3.096
H 19.484 -72.807 3.187
H 17.702 -71.361 -4.565
H 19.102 -74.87 -5.998
H 19.509 -72.388 -5.842
H 19.652 -75.86 -4.698
H 19.638 -76.172 1.683
H 19.63 -76.044 -0.397
H 19.627 -75.932 -2.598
H 19.998 -70.532 -0.178
H 20.016 -70.436 -2.289
H 19.997 -70.673 2.056
H 21.439 -74.309 3.176
H 20.048 -70.375 -4.528
H 21.465 -73.916 -5.944
H 21.864 -75.002 -4.673
H 21.873 -75.268 1.82
H 21.858 -75.148 -0.331
H 21.854 -75.058 -2.518
H 13.26 -79.497 2.787
H 13.838 -79.138 -6.353
H 14.969 -81.374 2.709
H 15.722 -78.881 2.807
H 15.182 -80.997 -6.276
H 15.92 -78.424 -6.086
H 17.428 -80.882 2.779
H 18.076 -78.544 2.998
H 17.594 -80.453 -6.199
H 18.262 -78.068 -6.147
H 12.981 -81.172 -5.149
H 12.499 -78.975 -5.378
H 19.558 -79.98 -0.574
H 19.156 -77.629 -2.638
H 19.111 -77.735 -0.409
H 19.597 -79.881 -2.697
H 19.075 -77.837 1.797
H 19.484 -80.088 1.653
H 19.598 -79.771 -4.924
H 19.196 -77.53 -4.803
H 12.87 -81.414 -0.793
H 12.459 -79.126 -2.971
H 12.34 -79.258 -0.742
H 12.915 -81.297 -2.917
H 12.338 -79.292 1.307
H 12.851 -81.486 1.442
H 14.264 -83.857 2.665
H 14.389 -83.445 -6.45
H 15.85 -85.737 2.551
H 16.656 -83.3 2.635
H 15.972 -85.333 -6.457
H 16.797 -82.902 -6.304
H 18.342 -85.237 2.608
H 19.075 -82.883 2.779
H 18.467 -84.835 -6.402
H 19.208 -82.475 -6.339
H 13.814 -85.573 -5.285
H 13.3 -83.211 -5.142
H 20.475 -84.442 -0.778
H 20.046 -81.963 -2.831
H 20.011 -82.059 -0.642
H 20.506 -84.351 -2.9
H 19.977 -82.137 1.521
H 20.409 -84.529 1.456
H 20.502 -84.24 -5.134
H 20.079 -81.846 -4.998
H 13.732 -85.799 -0.935
H 13.277 -83.331 -2.989
H 13.244 -83.437 -0.802
H 13.759 -85.698 -3.052
H 13.199 -83.516 1.362
H 13.726 -85.875 1.3
H 17.511 -87.572 2.575
H 17.627 -87.163 -6.6
H 21.823 -71.808 3.229
H 21.857 -71.46 -5.789
H 15.456 -87.643 -3.115
H 15.43 -87.741 -0.994
H 15.406 -87.8 1.249
H 15.488 -87.501 -5.353
H 17.78 -88.522 -0.956
H 17.806 -88.424 -3.162
H 17.751 -88.616 1.226
H 17.83 -88.324 -5.344
H 19.68 -86.808 -3.024
H 19.652 -86.9 -0.9
H 19.6 -86.962 1.343
H 19.685 -86.674 -5.265
H 13.238 -72.73 -4.64
H 13.235 -72.776 -2.416
H 13.238 -72.855 -0.308
H 13.264 -72.975 1.912
H 15.498 -72.177 -4.603
H 15.486 -72.238 -2.38
H 15.489 -72.338 -0.266
H 15.503 -72.482 1.952
C 8.889 -77.358 -2.303
C 8.886 -77.41 -0.745
C 8.418 -74.478 -2.787
C 8.391 -74.573 -0.074
C 10 -76.501 -0.138
C 9.784 -74.997 -2.232
C 9.773 -75.044 -0.64
C 10.015 -76.424 -2.811
C 8.87 -77.52 1.959
C 8.378 -74.646 1.482
C 9.756 -75.147 1.995
C 9.995 -76.573 1.457
C 8.918 -77.274 -5.011
C 8.439 -74.439 -4.346
C 10.038 -76.39 -4.404
C 9.813 -74.935 -4.873
C 11.348 -76.963 -2.243
C 11.341 -76.996 -0.694
C 10.965 -74.134 -2.763
C 10.95 -74.216 -0.054
C 11.339 -77.052 2.068
C 10.952 -74.285 1.504
C 11.389 -76.916 -4.934
C 10.976 -74.095 -4.322
C -2.734 -78.202 -0.319
C -2.687 -76.645 -2.389
C -2.702 -76.696 -0.798
C -2.71 -78.12 -2.973
C -2.701 -76.81 1.821
C -2.739 -78.278 1.264
C -2.693 -78.07 -4.552
C -2.673 -76.573 -5.013
C -1.412 -78.95 -2.501
C -1.437 -79.011 -0.925
C -1.424 -75.952 -2.918
C -1.436 -76.058 -0.217
C -0.13 -78.282 -0.356
C -0.18 -76.694 -2.381
C -0.192 -76.765 -0.805
C -0.101 -78.16 -2.971
C -1.452 -79.141 1.681
C -1.436 -76.134 1.334
C -0.209 -76.913 1.826
C -0.146 -78.363 1.229
C -1.372 -78.827 -5.107
C -1.415 -75.906 -4.474
C -0.08 -78.096 -4.557
C -0.157 -76.601 -5.015
C 1.259 -78.862 -2.47
C 1.239 -78.938 -0.896
C 1.001 -75.857 -2.896
C 0.984 -75.988 -0.194
C 2.476 -78.039 -0.308
C 2.307 -76.447 -2.355
C 2.295 -76.527 -0.767
C 2.5 -77.906 -2.951
C 1.201 -79.069 1.705
C 0.976 -76.08 1.359
C 2.276 -76.686 1.853
C 2.461 -78.134 1.267
C 1.29 -78.746 -5.072
C 1.013 -75.802 -4.451
C 2.516 -77.845 -4.528
C 2.329 -76.349 -4.977
C 3.925 -78.303 -2.409
C 3.914 -78.381 -0.863
C 3.421 -75.47 -2.86
C 3.398 -75.604 -0.152
C 5.025 -77.464 -0.247
C 4.789 -75.919 -2.309
C 4.777 -75.995 -0.721
C 5.045 -77.338 -2.91
C 3.887 -78.537 1.824
C 3.386 -75.698 1.404
C 4.755 -76.143 1.916
C 5.013 -77.557 1.343
C 3.944 -78.188 -5.106
C 3.435 -75.414 -4.419
C 5.06 -77.281 -4.502
C 4.814 -75.821 -4.948
C 6.419 -77.821 -2.359
C 6.412 -77.888 -0.803
C 5.901 -74.944 -2.82
C 5.873 -75.063 -0.108
C 6.393 -78.018 1.895
C 5.859 -75.15 1.449
C 6.442 -77.718 -5.061
C 5.92 -74.893 -4.379
C -2.547 -82.852 -0.624
C -2.489 -81.344 -2.711
C -2.546 -81.411 -1.163
C -2.466 -82.728 -3.348
C -2.614 -81.499 1.534
C -2.576 -82.906 0.936
C -2.424 -82.652 -4.91
C -2.347 -81.227 -5.48
C -1.256 -83.496 -2.759
C -1.297 -83.564 -1.181
C -1.316 -80.436 -3.146
C -1.386 -80.548 -0.504
C -0.048 -82.798 -0.589
C -0.013 -81.174 -2.618
C -0.052 -81.24 -1.032
C 0.019 -82.684 -3.208
C -1.347 -83.664 1.445
C -1.413 -80.616 1.066
C -0.116 -81.358 1.544
C -0.086 -82.863 0.989
C -1.173 -83.383 -5.378
C -1.278 -80.354 -4.722
C 0.055 -82.605 -4.785
C 0.055 -81.04 -5.19
C 1.282 -83.466 -2.689
C 1.244 -83.534 -1.111
C 1.287 -80.369 -3.073
C 1.231 -80.492 -0.437
C 2.448 -82.775 -0.475
C 2.483 -81.242 -2.542
C 2.449 -81.313 -0.989
C 2.511 -82.652 -3.193
C 1.162 -83.649 1.507
C 1.192 -80.565 1.136
C 2.347 -81.445 1.734
C 2.4 -82.845 1.085
C 1.323 -83.343 -5.31
C 1.319 -80.289 -4.642
C 2.533 -82.577 -4.754
C 2.51 -81.115 -5.258
C -2.573 -87.298 -0.78
C -2.524 -85.762 -2.857
C -2.557 -85.832 -1.301
C -2.521 -87.177 -3.498
C -2.594 -85.932 1.402
C -2.596 -87.353 0.783
C -2.486 -87.096 -5.059
C -2.455 -85.628 -5.553
C -1.283 -87.957 -2.943
C -1.313 -88.027 -1.351
C -1.26 -84.954 -3.346
C -1.319 -85.067 -0.702
C -0.037 -87.295 -0.775
C 0.011 -85.711 -2.818
C -0.024 -85.779 -1.237
C 0.015 -87.181 -3.407
C -1.348 -88.116 1.277
C -1.35 -85.124 0.876
C -0.079 -85.879 1.362
C -0.068 -87.349 0.807
C -1.22 -87.818 -5.569
C -1.224 -84.878 -4.92
C 0.044 -87.099 -4.987
C 0.062 -85.589 -5.415
C 1.29 -87.957 -2.896
C 1.259 -88.024 -1.303
C 1.304 -84.935 -3.289
C 1.245 -85.05 -0.647
C 2.495 -87.287 -0.682
C 2.538 -85.75 -2.758
C 2.505 -85.816 -1.2
C 2.548 -87.171 -3.402
C 1.192 -88.112 1.326
C 1.207 -85.111 0.93
C 2.429 -85.917 1.501
C 2.457 -87.342 0.881
C 1.321 -87.819 -5.523
C 1.331 -84.857 -4.867
C 2.569 -87.092 -4.965
C 2.57 -85.618 -5.459
C -1.25 -89.396 -3.573
C -1.299 -89.516 -0.846
C -0.001 -90.142 -3.003
C -0.029 -90.21 -1.432
C -1.325 -89.569 0.723
C -0.079 -90.301 1.293
C -1.221 -89.313 -5.14
C 0.044 -89.997 -5.725
C 1.269 -89.398 -3.528
C 1.22 -89.515 -0.799
C 1.188 -89.567 0.77
C 1.293 -89.316 -5.096
C 7.516 -76.969 -0.192
C 7.278 -75.425 -2.27
C 7.264 -75.488 -0.675
C 7.534 -76.864 -2.861
C 7.245 -75.615 1.951
C 7.507 -77.049 1.396
C 7.552 -76.818 -4.451
C 7.306 -75.345 -4.9
H 8.215 -73.54 -0.341
H 8.243 -73.465 -2.45
H 8.191 -73.663 1.893
H 8.843 -77.511 3.041
H 9.743 -75.145 3.077
H 8.278 -73.425 -4.689
H 8.922 -77.179 -6.089
H 9.821 -74.882 -5.954
H 9.089 -78.325 -4.819
H 9.069 -78.548 1.689
H 9.064 -78.44 -0.466
H 9.064 -78.367 -2.653
H 10.824 -73.174 -0.319
H 10.839 -73.112 -2.431
H 10.836 -73.288 1.909
H 11.338 -76.863 3.133
H 10.849 -73.075 -4.661
H 11.405 -76.941 -6.016
H 11.38 -77.934 -4.568
H 11.327 -78.134 2.054
H 11.316 -78.004 -0.302
H 11.298 -78.003 -2.538
H -2.679 -76.819 2.903
H -2.662 -76.523 -6.094
H -1.445 -79.225 2.76
H -0.215 -76.96 2.907
H -1.371 -78.757 -6.187
H -0.146 -76.545 -6.096
H 1.195 -79.127 2.785
H 2.258 -76.73 2.934
H 1.303 -78.704 -6.153
H 2.328 -76.29 -6.058
H 3.2 -74.569 -0.4
H 3.219 -74.464 -2.517
H 3.181 -74.722 1.822
H 3.862 -78.586 2.904
H 4.739 -76.176 2.997
H 3.241 -74.401 -4.745
H 3.933 -78.113 -6.185
H 4.816 -75.754 -6.028
H 4.284 -79.192 -4.889
H 4.231 -79.508 1.492
H 4.241 -79.376 -0.59
H 4.253 -79.262 -2.789
H 5.672 -74.032 -0.366
H 5.7 -73.938 -2.477
H 5.65 -74.174 1.867
H 6.371 -78.02 2.977
H 5.736 -73.881 -4.714
H 6.446 -77.623 -6.139
H 6.636 -78.765 -4.871
H 6.611 -79.041 1.618
H 6.613 -78.916 -0.532
H 6.621 -78.822 -2.717
H -2.687 -81.528 2.613
H -2.082 -81.272 -6.528
H -1.379 -83.704 2.526
H -0.151 -81.406 2.624
H -1.129 -83.358 -6.459
H 0.1 -80.979 -6.269
H 1.129 -83.703 2.587
H 2.225 -81.535 2.806
H 1.343 -83.296 -6.391
H 2.466 -81.088 -6.339
H -3.317 -83.101 -5.324
H -3.36 -80.852 -5.549
H 3.384 -83.228 -0.773
H 3.442 -80.834 -2.833
H 3.386 -80.934 -0.605
H 3.433 -83.134 -2.897
H 3.337 -81.032 1.601
H 3.298 -83.324 1.454
H 3.447 -83.022 -5.124
H 3.492 -80.74 -5
H -3.457 -83.325 -0.968
H -3.419 -80.997 -3.142
H -3.554 -81.108 -0.913
H -3.398 -83.215 -3.091
H -3.555 -81.144 1.135
H -3.482 -83.396 1.266
H -2.558 -86.002 2.481
H -2.387 -85.604 -6.633
H -1.371 -88.156 2.358
H -0.103 -85.923 2.443
H -1.204 -87.765 -6.649
H 0.081 -85.542 -6.496
H 1.171 -88.152 2.407
H 2.351 -85.988 2.578
H 1.34 -87.765 -6.603
H 2.529 -85.595 -6.54
H -3.363 -87.58 -5.468
H -3.404 -85.164 -5.321
H 3.407 -87.784 -0.986
H 3.464 -85.265 -3.035
H 3.418 -85.356 -0.846
H 3.447 -87.696 -3.109
H 3.378 -85.43 1.318
H 3.333 -87.86 1.248
H 3.457 -87.581 -5.342
H 3.511 -85.152 -5.202
H -3.472 -87.795 -1.119
H -3.442 -85.281 -3.168
H -3.488 -85.383 -0.982
H -3.433 -87.697 -3.236
H -3.54 -85.456 1.183
H -3.485 -87.873 1.116
H -0.1 -90.281 2.374
H 0.06 -89.883 -6.801
H 7.234 -75.637 3.033
H 7.31 -75.283 -5.98
H -2.15 -89.936 -3.308
H -2.187 -90.031 -1.187
H -2.214 -90.089 1.055
H -2.098 -89.799 -5.546
H -0.035 -91.257 -1.16
H 0.002 -91.162 -3.365
H -0.074 -91.348 1.022
H 0.037 -91.064 -5.547
H 2.156 -89.943 -3.233
H 2.118 -90.032 -1.108
H 2.063 -90.088 1.135
H 2.179 -89.808 -5.473
H -1.411 -74.875 -4.804
H -1.414 -74.924 -2.581
H -1.419 -75.006 -0.473
H -1.41 -75.134 1.746
H 0.918 -74.774 -4.776
H 0.902 -74.836 -2.553
H 0.893 -74.938 -0.439
H 0.886 -75.087 1.778
C -6.575 -78.571 -2.457
C -6.584 -78.624 -0.899
C -6.478 -75.654 -2.936
C -6.514 -75.747 -0.223
C -5.31 -77.951 -0.296
C -5.236 -76.429 -2.386
C -5.251 -76.477 -0.795
C -5.29 -77.873 -2.969
C -6.611 -78.734 1.804
C -6.536 -75.82 1.333
C -5.278 -76.58 1.84
C -5.324 -78.024 1.299
C -6.541 -78.488 -5.165
C -6.456 -75.616 -4.495
C -5.266 -77.841 -4.561
C -5.205 -76.369 -5.028
C -4.085 -78.662 -2.406
C -4.093 -78.696 -0.857
C -3.91 -75.812 -2.922
C -3.932 -75.895 -0.213
C -4.096 -78.756 1.904
C -3.938 -75.966 1.345
C -4.045 -78.619 -5.097
C -3.898 -75.774 -4.48
C -18.136 -77.137 -0.429
C -17.794 -75.615 -2.498
C -17.813 -75.664 -0.907
C -18.106 -77.055 -3.084
C -17.824 -75.783 1.712
C -18.15 -77.214 1.153
C -18.085 -77.007 -4.662
C -17.775 -75.542 -5.122
C -16.993 -78.123 -2.618
C -17.024 -78.182 -1.042
C -16.421 -75.18 -3.031
C -16.445 -75.287 -0.33
C -15.598 -77.723 -0.477
C -15.344 -76.152 -2.5
C -15.365 -76.223 -0.924
C -15.556 -77.604 -3.093
C -17.056 -78.312 1.564
C -16.454 -75.365 1.221
C -15.401 -76.369 1.707
C -15.624 -77.802 1.108
C -16.939 -78.006 -5.224
C -16.409 -75.133 -4.587
C -15.528 -77.542 -4.678
C -15.313 -76.06 -5.134
C -14.356 -78.559 -2.597
C -14.385 -78.632 -1.024
C -14.025 -75.561 -3.019
C -14.057 -75.691 -0.316
C -12.995 -77.994 -0.439
C -12.857 -76.395 -2.483
C -12.878 -76.474 -0.896
C -12.954 -77.862 -3.082
C -14.439 -78.759 1.578
C -14.078 -75.783 1.236
C -12.919 -76.632 1.725
C -13.022 -78.087 1.136
C -14.313 -78.445 -5.199
C -14.008 -75.505 -4.573
C -12.932 -77.802 -4.659
C -12.826 -76.298 -5.106
C -11.632 -78.531 -2.546
C -11.652 -78.608 -1
C -11.575 -75.653 -2.992
C -11.614 -75.785 -0.283
C -10.381 -77.927 -0.387
C -10.318 -76.361 -2.446
C -10.34 -76.436 -0.858
C -10.346 -77.802 -3.05
C -11.7 -78.761 1.686
C -11.64 -75.879 1.272
C -10.381 -76.583 1.778
C -10.406 -78.019 1.203
C -11.601 -78.416 -5.243
C -11.556 -75.598 -4.55
C -10.327 -77.745 -4.642
C -10.284 -76.264 -5.085
C -9.09 -78.544 -2.505
C -9.105 -78.611 -0.949
C -9.039 -75.62 -2.96
C -9.08 -75.737 -0.248
C -9.139 -78.741 1.749
C -9.106 -75.823 1.309
C -9.058 -78.442 -5.207
C -9.016 -75.571 -4.519
C -18.863 -81.733 -0.742
C -18.519 -80.261 -2.827
C -18.582 -80.319 -1.279
C -18.769 -81.621 -3.466
C -18.656 -80.397 1.418
C -18.896 -81.783 0.818
C -18.718 -81.552 -5.028
C -18.366 -80.168 -5.597
C -17.73 -82.612 -2.883
C -17.778 -82.674 -1.304
C -17.193 -79.598 -3.266
C -17.274 -79.7 -0.623
C -16.401 -82.167 -0.716
C -16.057 -80.577 -2.744
C -16.102 -80.638 -1.157
C -16.322 -82.064 -3.335
C -17.838 -82.767 1.321
C -17.308 -79.765 0.947
C -16.179 -80.746 1.419
C -16.446 -82.227 0.862
C -17.636 -82.513 -5.502
C -17.145 -79.522 -4.841
C -16.277 -81.99 -4.912
C -15.973 -80.454 -5.315
C -15.234 -83.078 -2.823
C -15.28 -83.14 -1.245
C -14.626 -80.041 -3.202
C -14.696 -80.156 -0.566
C -13.948 -82.632 -0.612
C -13.622 -81.132 -2.677
C -13.664 -81.198 -1.124
C -13.872 -82.519 -3.33
C -15.373 -83.242 1.374
C -14.742 -80.223 1.007
C -13.78 -81.313 1.6
C -14.003 -82.695 0.948
C -15.18 -82.96 -5.443
C -14.585 -79.966 -4.771
C -13.841 -82.446 -4.891
C -13.58 -81.006 -5.393
C -19.756 -86.088 -0.904
C -19.416 -84.587 -2.979
C -19.456 -84.653 -1.422
C -19.692 -85.974 -3.622
C -19.503 -84.749 1.28
C -19.785 -86.141 0.66
C -19.646 -85.899 -5.183
C -19.331 -84.463 -5.675
C -18.627 -86.982 -3.073
C -18.665 -87.048 -1.481
C -18.02 -84.04 -3.471
C -18.091 -84.145 -0.828
C -17.268 -86.58 -0.908
C -16.92 -85.032 -2.949
C -16.962 -85.095 -1.368
C -17.204 -86.473 -3.54
C -18.708 -87.134 1.148
C -18.127 -84.198 0.75
C -17.027 -85.187 1.231
C -17.304 -86.63 0.673
C -18.548 -86.853 -5.698
C -17.976 -83.97 -5.045
C -17.166 -86.396 -5.12
C -16.855 -84.917 -5.547
C -16.104 -87.484 -3.035
C -16.142 -87.547 -1.442
C -15.502 -84.522 -3.425
C -15.572 -84.628 -0.782
C -14.783 -87.066 -0.825
C -14.449 -85.563 -2.899
C -14.489 -85.624 -1.341
C -14.719 -86.958 -3.545
C -16.215 -87.626 1.187
C -15.616 -84.684 0.795
C -14.573 -85.714 1.36
C -14.826 -87.116 0.738
C -16.055 -87.349 -5.662
C -15.466 -84.448 -5.002
C -14.688 -86.881 -5.108
C -14.402 -85.434 -5.6
C -18.878 -88.399 -3.704
C -18.94 -88.512 -0.977
C -17.797 -89.375 -3.14
C -17.832 -89.44 -1.569
C -18.97 -88.562 0.592
C -17.889 -89.524 1.156
C -18.839 -88.32 -5.271
C -17.734 -89.236 -5.862
C -16.408 -88.892 -3.669
C -16.469 -89.002 -0.94
C -16.505 -89.05 0.629
C -16.374 -88.813 -5.237
C -7.841 -77.926 -0.341
C -7.78 -76.362 -2.416
C -7.8 -76.424 -0.821
C -7.811 -77.821 -3.009
C -7.834 -76.55 1.805
C -7.859 -78.007 1.247
C -7.791 -77.777 -4.599
C -7.746 -76.283 -5.045
H -6.487 -74.699 -0.488
H -6.452 -74.627 -2.597
H -6.526 -74.819 1.745
H -6.632 -78.723 2.886
H -5.287 -76.578 2.922
H -6.418 -74.59 -4.836
H -6.522 -78.394 -6.243
H -5.191 -76.317 -6.109
H -6.577 -79.553 -4.976
H -6.618 -79.782 1.532
H -6.609 -79.67 -0.623
H -6.602 -79.594 -2.809
H -3.854 -74.849 -0.475
H -3.835 -74.786 -2.588
H -3.857 -74.967 1.752
H -4.057 -78.572 2.97
H -3.825 -74.748 -4.817
H -4.039 -78.645 -6.179
H -4.252 -79.616 -4.732
H -4.319 -79.815 1.891
H -4.313 -79.68 -0.466
H -4.339 -79.671 -2.702
H -17.801 -75.798 2.794
H -17.759 -75.493 -6.203
H -17.061 -78.398 2.643
H -15.412 -76.417 2.788
H -16.929 -77.935 -6.304
H -15.296 -76.004 -6.214
H -14.453 -78.817 2.658
H -12.941 -76.674 2.806
H -14.296 -78.405 -6.28
H -12.819 -76.237 -6.186
H -11.608 -74.731 -0.529
H -11.576 -74.628 -2.646
H -11.648 -74.882 1.692
H -11.73 -78.807 2.767
H -10.399 -76.614 2.86
H -11.55 -74.566 -4.874
H -11.6 -78.338 -6.322
H -10.274 -76.197 -6.165
H -11.462 -79.468 -5.029
H -11.554 -79.78 1.352
H -11.525 -79.648 -0.73
H -11.499 -79.535 -2.928
H -9.078 -74.686 -0.504
H -9.04 -74.595 -2.615
H -9.119 -74.826 1.728
H -9.158 -78.741 2.831
H -9.001 -74.541 -4.852
H -9.039 -78.347 -6.284
H -9.07 -79.508 -5.019
H -9.127 -79.786 1.47
H -9.107 -79.659 -0.68
H -9.089 -79.564 -2.865
H -18.731 -80.414 2.497
H -18.119 -80.263 -6.646
H -17.873 -82.803 2.402
H -16.219 -80.789 2.499
H -17.591 -82.494 -6.583
H -15.921 -80.401 -6.394
H -15.412 -83.291 2.454
H -13.913 -81.379 2.671
H -15.154 -82.916 -6.524
H -13.622 -80.969 -6.474
H -19.683 -81.817 -5.439
H -19.287 -79.603 -5.662
H -13.12 -83.259 -0.914
H -12.603 -80.918 -2.971
H -12.669 -81.009 -0.743
H -13.06 -83.172 -3.038
H -12.728 -81.1 1.463
H -13.215 -83.34 1.313
H -13.033 -83.06 -5.265
H -12.543 -80.831 -5.139
H -19.849 -82.019 -1.083
H -19.365 -79.739 -3.255
H -19.511 -79.825 -1.025
H -19.776 -81.918 -3.207
H -19.512 -79.865 1.023
H -19.879 -82.088 1.151
H -19.477 -84.826 2.359
H -19.264 -84.451 -6.755
H -18.734 -87.17 2.229
H -17.055 -85.228 2.312
H -18.526 -86.802 -6.779
H -16.831 -84.873 -6.628
H -16.24 -87.663 2.268
H -14.66 -85.77 2.437
H -16.031 -87.298 -6.742
H -14.441 -85.402 -6.681
H -20.602 -86.202 -5.589
H -20.172 -83.824 -5.439
H -13.987 -87.731 -1.133
H -13.447 -85.267 -3.179
H -13.502 -85.353 -0.99
H -13.938 -87.648 -3.256
H -13.548 -85.421 1.174
H -14.067 -87.796 1.101
H -13.913 -87.534 -5.489
H -13.386 -85.161 -5.346
H -20.737 -86.399 -1.24
H -20.224 -83.935 -3.285
H -20.281 -84.031 -1.099
H -20.687 -86.307 -3.357
H -20.339 -84.097 1.066
H -20.757 -86.478 0.995
H -17.902 -89.502 2.237
H -17.699 -89.125 -6.938
H -7.846 -76.572 2.886
H -7.734 -76.221 -6.126
H -19.865 -88.753 -3.436
H -19.912 -88.844 -1.316
H -19.942 -88.9 0.927
H -19.795 -88.624 -5.675
H -18.041 -90.466 -1.298
H -17.994 -90.375 -3.503
H -18.09 -90.552 0.884
H -17.948 -90.282 -5.685
H -15.643 -89.6 -3.378
H -15.69 -89.684 -1.253
H -15.747 -89.733 0.99
H -15.602 -89.468 -5.618
H -16.205 -74.123 -4.916
H -16.21 -74.174 -2.693
H -16.224 -74.258 -0.585
H -16.231 -74.39 1.634
H -13.902 -74.478 -4.896
H -13.922 -74.54 -2.674
H -13.943 -74.643 -0.56
H -13.971 -74.792 1.657
C -21.981 -76.746 -2.553
C -21.994 -76.8 -0.995
C -21.319 -73.903 -3.028
C -21.363 -73.993 -0.316
C -20.613 -76.389 -0.396
C -20.251 -74.906 -2.485
C -20.269 -74.953 -0.894
C -20.587 -76.311 -3.069
C -22.033 -76.908 1.708
C -21.394 -74.063 1.241
C -20.306 -75.054 1.741
C -20.635 -76.461 1.199
C -21.941 -76.667 -5.261
C -21.296 -73.867 -4.588
C -20.563 -76.281 -4.661
C -20.218 -74.848 -5.127
C -19.557 -77.321 -2.512
C -19.566 -77.355 -0.963
C -18.833 -74.558 -3.025
C -18.86 -74.641 -0.316
C -19.572 -77.419 1.799
C -18.875 -74.713 1.242
C -19.52 -77.28 -5.203
C -18.819 -74.52 -4.583
C -33.026 -73.099 -0.479
C -32.397 -71.674 -2.551
C -32.424 -71.718 -0.96
C -32.981 -73.027 -3.135
C -32.456 -71.832 1.66
C -33.055 -73.172 1.104
C -32.95 -72.983 -4.713
C -32.367 -71.606 -5.177
C -32.101 -74.288 -2.673
C -32.142 -74.339 -1.097
C -30.97 -71.509 -3.086
C -31.009 -71.612 -0.385
C -30.654 -74.166 -0.536
C -30.103 -72.672 -2.558
C -30.134 -72.739 -0.982
C -30.593 -74.055 -3.152
C -32.194 -74.462 1.51
C -31.031 -71.689 1.167
C -30.192 -72.88 1.649
C -30.692 -74.241 1.049
C -32.028 -74.179 -5.281
C -30.951 -71.463 -4.642
C -30.556 -73.997 -4.738
C -30.06 -72.583 -5.193
C -29.605 -75.225 -2.662
C -29.644 -75.293 -1.088
C -28.696 -72.346 -3.08
C -28.748 -72.472 -0.378
C -28.155 -74.937 -0.508
C -27.714 -73.393 -2.55
C -27.746 -73.469 -0.963
C -28.097 -74.812 -3.151
C -29.715 -75.41 1.513
C -28.782 -72.561 1.175
C -27.809 -73.62 1.658
C -28.196 -75.026 1.067
C -29.546 -75.118 -5.264
C -28.673 -72.291 -4.635
C -28.068 -74.754 -4.728
C -27.672 -73.298 -5.173
C -26.93 -75.726 -2.621
C -26.96 -75.8 -1.075
C -26.315 -72.912 -3.063
C -26.371 -73.039 -0.355
C -25.58 -75.379 -0.466
C -25.22 -73.852 -2.524
C -25.251 -73.924 -0.935
C -25.53 -75.258 -3.129
C -27.028 -75.946 1.612
C -26.41 -73.129 1.201
C -25.311 -74.065 1.701
C -25.617 -75.468 1.124
C -26.885 -75.614 -5.318
C -26.29 -72.858 -4.621
C -25.504 -75.204 -4.721
C -25.176 -73.758 -5.163
C -24.441 -76.231 -2.591
C -24.463 -76.298 -1.034
C -23.824 -73.372 -3.042
C -23.878 -73.484 -0.33
C -24.514 -76.423 1.664
C -23.914 -73.566 1.227
C -24.399 -76.132 -5.293
C -23.797 -73.325 -4.601
C -34.642 -77.458 -0.798
C -34.02 -76.083 -2.884
C -34.091 -76.128 -1.336
C -34.534 -77.365 -3.523
C -34.173 -76.191 1.362
C -34.681 -77.502 0.762
C -34.476 -77.303 -5.086
C -33.857 -76.019 -5.659
C -33.709 -78.539 -2.943
C -33.764 -78.593 -1.364
C -32.59 -75.691 -3.325
C -32.685 -75.777 -0.681
C -32.313 -78.366 -0.779
C -31.668 -76.873 -2.806
C -31.72 -76.925 -1.219
C -32.222 -78.277 -3.399
C -33.834 -78.675 1.262
C -32.727 -75.836 0.89
C -31.811 -77.02 1.357
C -32.364 -78.418 0.799
C -33.605 -78.456 -5.562
C -32.532 -75.624 -4.901
C -32.167 -78.21 -4.976
C -31.567 -76.765 -5.378
C -31.353 -79.484 -2.891
C -31.405 -79.538 -1.313
C -30.161 -76.624 -3.268
C -30.246 -76.728 -0.632
C -29.998 -79.301 -0.684
C -29.389 -77.892 -2.747
C -29.439 -77.95 -1.194
C -29.909 -79.201 -3.402
C -31.509 -79.624 1.306
C -30.301 -76.787 0.941
C -29.568 -78.044 1.529
C -30.06 -79.354 0.877
C -31.284 -79.374 -5.512
C -30.11 -76.557 -4.837
C -29.868 -79.134 -4.963
C -29.33 -77.772 -5.464
C -36.372 -81.552 -0.96
C -35.751 -80.142 -3.034
C -35.799 -80.202 -1.478
C -36.296 -81.448 -3.678
C -35.855 -80.292 1.225
C -36.406 -81.601 0.603
C -36.242 -81.379 -5.239
C -35.653 -80.033 -5.73
C -35.448 -82.645 -3.134
C -35.492 -82.706 -1.542
C -34.276 -79.88 -3.531
C -34.359 -79.973 -0.888
C -34.029 -82.521 -0.974
C -33.39 -81.069 -3.014
C -33.439 -81.125 -1.433
C -33.954 -82.425 -3.606
C -35.542 -82.786 1.087
C -34.4 -80.02 0.691
C -33.512 -81.207 1.166
C -34.069 -82.566 0.608
C -35.354 -82.529 -5.759
C -34.225 -79.817 -5.105
C -33.906 -82.353 -5.186
C -33.313 -80.964 -5.612
C -33.071 -83.632 -3.106
C -33.115 -83.689 -1.513
C -31.901 -80.846 -3.494
C -31.983 -80.94 -0.852
C -31.687 -83.485 -0.9
C -31.071 -82.073 -2.974
C -31.117 -82.128 -1.416
C -31.612 -83.386 -3.621
C -33.194 -83.756 1.116
C -32.032 -80.989 0.725
C -31.209 -82.204 1.286
C -31.734 -83.527 0.663
C -33.007 -83.504 -5.733
C -31.856 -80.777 -5.072
C -31.572 -83.314 -5.184
C -31.009 -81.951 -5.676
C -35.974 -83.984 -3.766
C -36.047 -84.088 -1.039
C -35.102 -85.154 -3.207
C -35.144 -85.214 -1.636
C -36.081 -84.134 0.53
C -35.207 -85.29 1.089
C -35.925 -83.911 -5.333
C -35.023 -85.025 -5.93
C -33.647 -84.952 -3.741
C -33.719 -85.053 -1.011
C -33.759 -85.095 0.558
C -33.604 -84.877 -5.309
C -23.089 -75.872 -0.431
C -22.732 -74.345 -2.504
C -22.758 -74.405 -0.909
C -23.049 -75.77 -3.099
C -22.807 -74.528 1.717
C -23.117 -75.95 1.157
C -23.026 -75.727 -4.689
C -22.692 -74.269 -5.134
H -21.134 -72.969 -0.58
H -21.093 -72.901 -2.688
H -21.188 -73.084 1.654
H -22.048 -76.895 2.79
H -20.311 -75.052 2.823
H -21.06 -72.867 -4.927
H -21.909 -76.575 -6.339
H -20.198 -74.797 -6.207
H -22.183 -77.704 -5.073
H -22.245 -77.934 1.435
H -22.222 -77.821 -0.72
H -22.208 -77.744 -2.907
H -18.581 -73.629 -0.577
H -18.557 -73.567 -2.689
H -18.599 -73.749 1.65
H -19.494 -77.248 2.864
H -18.548 -73.527 -4.919
H -19.523 -77.305 -6.285
H -19.915 -78.219 -4.838
H -19.996 -78.414 1.785
H -19.973 -78.279 -0.572
H -20.005 -78.26 -2.808
H -32.434 -71.849 2.741
H -32.343 -71.562 -6.258
H -32.213 -74.548 2.588
H -30.21 -72.925 2.73
H -32.008 -74.108 -6.361
H -30.035 -72.53 -6.273
H -29.737 -75.467 2.593
H -27.836 -73.659 2.739
H -29.525 -75.078 -6.345
H -27.657 -73.237 -6.253
H -26.161 -72.006 -0.599
H -26.116 -71.907 -2.716
H -26.223 -72.15 1.622
H -27.064 -75.986 2.692
H -25.331 -74.094 2.782
H -26.085 -71.846 -4.944
H -26.874 -75.534 -6.397
H -25.157 -73.691 -6.243
H -26.954 -76.673 -5.106
H -27.086 -76.972 1.276
H -27.038 -76.846 -0.807
H -26.997 -76.735 -3.005
H -23.673 -72.453 -0.584
H -23.624 -72.367 -2.695
H -23.732 -72.586 1.648
H -24.528 -76.422 2.746
H -23.583 -72.317 -4.933
H -24.366 -76.04 -6.37
H -24.618 -77.175 -5.106
H -24.706 -77.45 1.383
H -24.669 -77.326 -0.767
H -24.64 -77.232 -2.952
H -34.247 -76.194 2.441
H -33.627 -76.168 -6.706
H -33.872 -78.704 2.343
H -31.855 -77.055 2.437
H -33.561 -78.447 -6.643
H -31.508 -76.721 -6.457
H -31.555 -79.666 2.386
H -29.708 -78.085 2.601
H -31.254 -79.333 -6.593
H -29.369 -77.725 -6.544
H -35.476 -77.372 -5.493
H -34.65 -75.289 -5.744
H -29.309 -80.078 -0.989
H -28.348 -77.881 -3.045
H -28.425 -77.96 -0.816
H -29.24 -80.002 -3.113
H -28.496 -78.04 1.389
H -29.412 -80.142 1.238
H -29.197 -79.894 -5.34
H -28.278 -77.804 -5.213
H -35.666 -77.545 -1.136
H -34.75 -75.412 -3.316
H -34.908 -75.465 -1.083
H -35.579 -77.458 -3.26
H -34.906 -75.5 0.969
H -35.704 -77.609 1.098
H -35.841 -80.375 2.303
H -35.589 -80.031 -6.81
H -35.571 -82.819 2.168
H -33.544 -81.244 2.247
H -35.326 -82.481 -6.84
H -33.285 -80.923 -6.693
H -33.222 -83.79 2.197
H -31.301 -82.244 2.363
H -32.976 -83.456 -6.814
H -31.045 -81.909 -6.756
H -37.241 -81.488 -5.642
H -36.351 -79.241 -5.489
H -31.037 -84.292 -1.212
H -30.032 -81.979 -3.258
H -30.095 -82.055 -1.068
H -30.98 -84.217 -3.335
H -30.147 -82.117 1.096
H -31.121 -84.344 1.022
H -30.942 -84.105 -5.569
H -29.958 -81.883 -5.425
H -37.396 -81.664 -1.293
H -36.417 -79.345 -3.337
H -36.485 -79.432 -1.151
H -37.336 -81.579 -3.409
H -36.547 -79.488 1.014
H -37.424 -81.742 0.942
H -35.212 -85.268 2.17
H -34.971 -84.92 -7.006
H -22.82 -74.549 2.799
H -22.673 -74.208 -6.214
H -37.01 -84.139 -3.495
H -37.067 -84.222 -1.375
H -37.099 -84.276 0.868
H -36.924 -84.021 -5.734
H -35.549 -86.18 -1.366
H -35.493 -86.095 -3.571
H -35.606 -86.258 0.817
H -35.438 -86.008 -5.754
H -33.035 -85.797 -3.454
H -33.09 -85.874 -1.329
H -33.148 -85.914 0.914
H -32.977 -85.671 -5.694
H -30.558 -70.51 -4.971
H -30.569 -70.563 -2.746
H -30.594 -70.645 -0.638
H -30.622 -70.776 1.58
H -28.37 -71.304 -4.957
H -28.396 -71.366 -2.734
H -28.433 -71.466 -0.621
H -28.483 -71.61 1.596
C -36.72 -72.006 -2.601
C -36.747 -72.038 -1.043
C -35.529 -69.342 -3.105
C -35.577 -69.401 -0.39
C -35.312 -71.892 -0.445
C -34.671 -70.52 -2.545
C -34.694 -70.554 -0.954
C -35.27 -71.837 -3.12
C -36.811 -72.109 1.663
C -35.617 -69.453 1.168
C -34.75 -70.634 1.683
C -35.349 -71.951 1.151
C -36.66 -71.964 -5.312
C -35.502 -69.322 -4.664
C -35.239 -71.82 -4.712
C -34.627 -70.483 -5.188
C -34.452 -73.014 -2.556
C -34.469 -73.04 -1.008
C -33.215 -70.443 -3.082
C -33.252 -70.513 -0.372
C -34.489 -73.095 1.754
C -33.279 -70.58 1.187
C -34.405 -72.993 -5.248
C -33.196 -70.408 -4.64
C -46.736 -66.12 -0.596
C -45.887 -64.875 -2.716
C -45.881 -64.879 -1.137
C -46.764 -66.105 -3.246
C -45.83 -64.922 1.489
C -46.721 -66.149 0.994
C -46.771 -66.095 -4.83
C -45.923 -64.86 -5.344
C -46.167 -67.533 -2.777
C -46.182 -67.549 -1.201
C -44.447 -65.048 -3.306
C -44.431 -65.063 -0.663
C -44.69 -67.684 -0.678
C -43.901 -66.402 -2.775
C -43.913 -66.425 -1.201
C -44.664 -67.651 -3.295
C -46.184 -67.597 1.405
C -44.413 -65.068 0.904
C -43.914 -66.434 1.404
C -44.698 -67.692 0.896
C -46.137 -67.495 -5.383
C -44.463 -65.054 -4.878
C -44.653 -67.647 -4.868
C -43.907 -66.412 -5.385
C -43.902 -68.972 -2.774
C -43.932 -68.995 -1.199
C -42.47 -66.36 -3.328
C -42.486 -66.393 -0.654
C -42.388 -68.914 -0.633
C -41.653 -67.543 -2.729
C -41.672 -67.572 -1.154
C -42.335 -68.884 -3.274
C -43.983 -69.015 1.404
C -42.49 -66.394 0.888
C -41.741 -67.59 1.485
C -42.424 -68.931 0.956
C -43.864 -68.944 -5.375
C -42.471 -66.373 -4.878
C -42.314 -68.88 -4.862
C -41.621 -67.545 -5.367
C -41.381 -70.018 -2.704
C -41.417 -70.038 -1.156
C -40.199 -67.441 -3.233
C -40.241 -67.477 -0.516
C -39.978 -69.922 -0.55
C -39.329 -68.565 -2.648
C -39.354 -68.591 -1.057
C -39.917 -69.884 -3.219
C -41.496 -70.07 1.544
C -40.281 -67.509 1.04
C -39.433 -68.65 1.586
C -40.025 -69.959 1.04
C -41.332 -70 -5.402
C -40.181 -67.431 -4.786
C -39.889 -69.872 -4.811
C -39.276 -68.542 -5.288
C -39.04 -71.038 -2.651
C -39.076 -71.064 -1.093
C -37.874 -68.366 -3.158
C -37.925 -68.418 -0.441
C -39.151 -71.119 1.608
C -37.969 -68.464 1.118
C -38.979 -71.003 -5.354
C -37.846 -68.349 -4.716
C -49.262 -70.12 -0.799
C -48.418 -68.915 -2.912
C -48.471 -68.923 -1.362
C -49.181 -70.083 -3.525
C -48.512 -68.933 1.339
C -49.281 -70.135 0.763
C -49.136 -70.055 -5.088
C -48.295 -68.919 -5.682
C -48.593 -71.392 -2.945
C -48.637 -71.416 -1.365
C -46.945 -68.823 -3.382
C -47.006 -68.843 -0.739
C -47.162 -71.471 -0.798
C -46.262 -70.16 -2.855
C -46.3 -70.177 -1.266
C -47.09 -71.434 -3.419
C -48.687 -71.457 1.261
C -47.026 -68.858 0.832
C -46.365 -70.206 1.307
C -47.199 -71.489 0.781
C -48.508 -71.358 -5.566
C -46.904 -68.798 -4.958
C -47.045 -71.402 -4.997
C -46.184 -70.115 -5.428
C -46.47 -72.785 -2.905
C -46.512 -72.81 -1.325
C -44.741 -70.236 -3.339
C -44.803 -70.27 -0.701
C -45.081 -72.847 -0.708
C -44.23 -71.621 -2.802
C -44.271 -71.643 -1.247
C -45.006 -72.807 -3.429
C -46.602 -72.842 1.295
C -44.841 -70.28 0.874
C -44.382 -71.659 1.482
C -45.132 -72.86 0.855
C -46.411 -72.722 -5.527
C -44.703 -70.212 -4.91
C -44.973 -72.774 -4.991
C -44.187 -71.561 -5.524
C -51.771 -73.818 -0.924
C -50.908 -72.571 -3.011
C -50.95 -72.607 -1.454
C -51.703 -73.75 -3.644
C -50.994 -72.666 1.249
C -51.797 -73.849 0.639
C -51.652 -73.704 -5.206
C -50.818 -72.502 -5.71
C -51.1 -75.087 -3.1
C -51.14 -75.126 -1.508
C -49.417 -72.604 -3.519
C -49.486 -72.655 -0.875
C -49.664 -75.226 -0.95
C -48.775 -73.94 -3.001
C -48.817 -73.972 -1.419
C -49.597 -75.164 -3.583
C -51.181 -75.182 1.121
C -49.517 -72.678 0.704
C -48.879 -74.018 1.179
C -49.697 -75.251 0.632
C -51.007 -75.006 -5.728
C -49.371 -72.567 -5.095
C -49.55 -75.114 -5.164
C -48.703 -73.872 -5.602
C -48.962 -76.518 -3.082
C -49.001 -76.554 -1.489
C -47.278 -74.018 -3.493
C -47.347 -74.07 -0.849
C -47.555 -76.627 -0.885
C -46.697 -75.379 -2.971
C -46.737 -75.41 -1.412
C -47.487 -76.567 -3.607
C -49.07 -76.59 1.14
C -47.388 -74.092 0.729
C -46.817 -75.446 1.29
C -47.595 -76.648 0.679
C -48.895 -76.421 -5.712
C -47.237 -73.975 -5.071
C -47.448 -76.516 -5.171
C -46.636 -75.294 -5.674
C -51.881 -76.302 -3.724
C -51.949 -76.373 -0.996
C -51.25 -77.616 -3.165
C -51.288 -77.656 -1.594
C -51.978 -76.403 0.573
C -51.344 -77.708 1.128
C -51.832 -76.248 -5.293
C -51.167 -77.517 -5.891
C -49.788 -77.704 -3.709
C -49.854 -77.772 -0.979
C -49.888 -77.798 0.59
C -49.744 -77.649 -5.278
C -37.641 -70.91 -0.492
C -36.994 -69.514 -2.587
C -37.022 -69.547 -0.991
C -37.583 -70.858 -3.163
C -37.092 -69.622 1.639
C -37.684 -70.959 1.098
C -37.552 -70.841 -4.754
C -36.942 -69.483 -5.22
H -35.153 -68.443 -0.66
H -35.123 -68.397 -2.77
H -35.222 -68.531 1.575
H -36.824 -72.082 2.744
H -34.757 -70.622 2.765
H -35.09 -68.384 -5.01
H -36.611 -71.889 -6.39
H -34.595 -70.444 -6.269
H -37.086 -72.938 -5.112
H -37.222 -73.074 1.4
H -37.167 -72.993 -0.756
H -37.128 -72.948 -2.945
H -32.784 -69.574 -0.634
H -32.759 -69.52 -2.746
H -32.821 -69.688 1.594
H -34.376 -72.935 2.818
H -32.747 -69.484 -4.978
H -34.417 -73.023 -6.33
H -34.963 -73.838 -4.868
H -35.098 -73.99 1.754
H -35.043 -73.866 -0.609
H -35.073 -73.852 -2.844
H -45.753 -64.926 2.568
H -45.944 -64.828 -6.425
H -46.183 -67.657 2.485
H -43.901 -66.443 2.486
H -46.127 -67.454 -6.464
H -43.905 -66.433 -6.467
H -44.012 -69.029 2.486
H -41.788 -67.545 2.565
H -43.851 -68.938 -6.457
H -41.582 -67.526 -6.449
H -39.741 -66.557 -0.789
H -39.736 -66.53 -2.877
H -39.83 -66.63 1.48
H -41.533 -70.052 2.625
H -39.468 -68.642 2.667
H -39.705 -66.525 -5.137
H -41.305 -69.975 -6.484
H -39.237 -68.512 -6.369
H -41.615 -71.01 -5.138
H -41.789 -71.07 1.254
H -41.723 -71.028 -0.843
H -41.658 -71.006 -3.049
H -37.512 -67.455 -0.713
H -37.489 -67.41 -2.825
H -37.585 -67.536 1.522
H -39.166 -71.093 2.69
H -37.45 -67.404 -5.063
H -38.93 -70.945 -6.434
H -39.389 -71.982 -5.142
H -39.557 -72.088 1.347
H -39.487 -72.021 -0.802
H -39.427 -71.989 -2.991
H -48.555 -68.926 2.42
H -48.127 -69.104 -6.735
H -48.718 -71.473 2.342
H -46.401 -70.215 2.388
H -48.474 -71.362 -6.647
H -46.136 -70.098 -6.509
H -46.645 -72.866 2.376
H -44.518 -71.652 2.555
H -46.383 -72.697 -6.609
H -44.233 -71.524 -6.605
H -50.137 -69.933 -5.481
H -48.928 -68.043 -5.727
H -44.563 -73.75 -1.002
H -43.215 -71.824 -3.114
H -43.276 -71.861 -0.88
H -44.507 -73.719 -3.129
H -43.335 -71.888 1.335
H -44.651 -73.755 1.225
H -44.47 -73.657 -5.36
H -43.157 -71.796 -5.289
H -50.29 -70.011 -1.118
H -49.009 -68.115 -3.336
H -49.14 -68.114 -1.104
H -50.22 -69.969 -3.246
H -49.118 -68.116 0.971
H -50.3 -70.039 1.113
H -50.988 -72.748 2.328
H -50.762 -72.518 -6.79
H -51.21 -75.207 2.202
H -48.91 -74.045 2.261
H -50.977 -74.967 -6.809
H -48.675 -73.842 -6.683
H -49.097 -76.617 2.221
H -46.909 -75.464 2.368
H -48.861 -76.383 -6.792
H -46.67 -75.251 -6.755
H -52.656 -73.619 -5.601
H -51.348 -71.59 -5.469
H -47.077 -77.547 -1.195
H -45.662 -75.493 -3.264
H -45.717 -75.538 -1.074
H -47.028 -77.503 -3.319
H -45.76 -75.567 1.095
H -47.15 -77.566 1.039
H -46.987 -77.417 -5.554
H -45.592 -75.434 -5.43
H -52.799 -73.729 -1.248
H -51.408 -71.661 -3.317
H -51.47 -71.715 -1.129
H -52.746 -73.676 -3.366
H -51.516 -71.742 1.041
H -52.82 -73.787 0.986
H -51.34 -77.689 2.21
H -51.101 -77.426 -6.967
H -37.115 -69.62 2.72
H -36.904 -69.443 -6.3
H -52.925 -76.252 -3.446
H -52.977 -76.306 -1.325
H -53.002 -76.344 0.917
H -52.836 -76.163 -5.687
H -51.871 -78.524 -1.316
H -51.818 -78.465 -3.522
H -51.924 -78.58 0.857
H -51.765 -78.401 -5.712
H -49.351 -78.651 -3.421
H -49.398 -78.701 -1.297
H -49.446 -78.719 0.946
H -49.286 -78.55 -5.663
C -50.238 -64.361 -2.614
C -50.225 -64.402 -1.055
C -48.569 -61.981 -3.14
C -48.589 -62.025 -0.429
C -48.768 -64.524 -0.498
C -47.939 -63.31 -2.624
C -47.935 -63.325 -1.032
C -48.795 -64.484 -3.173
C -50.224 -64.482 1.65
C -48.609 -62.069 1.129
C -47.927 -63.379 1.601
C -48.768 -64.566 1.098
C -50.243 -64.307 -5.321
C -48.566 -61.963 -4.699
C -48.804 -64.477 -4.764
C -47.959 -63.287 -5.262
C -48.19 -65.794 -2.624
C -48.16 -65.804 -1.075
C -46.505 -63.527 -3.223
C -46.489 -63.541 -0.518
C -48.083 -65.816 1.695
C -46.48 -63.571 1.04
C -48.226 -65.801 -5.316
C -46.517 -63.518 -4.78
C -59.074 -56.772 -0.392
C -57.965 -55.679 -2.461
C -57.992 -55.723 -0.871
C -59.031 -56.698 -3.046
C -58.042 -55.838 1.747
C -59.113 -56.842 1.191
C -59.002 -56.656 -4.624
C -57.935 -55.606 -5.086
C -58.693 -58.209 -2.595
C -58.734 -58.255 -1.019
C -56.588 -56.077 -3.011
C -56.638 -56.177 -0.311
C -57.286 -58.673 -0.472
C -56.225 -57.489 -2.495
C -56.264 -57.551 -0.92
C -57.214 -58.573 -3.087
C -58.805 -58.368 1.586
C -56.673 -56.251 1.241
C -56.347 -57.677 1.711
C -57.334 -58.739 1.113
C -58.61 -58.119 -5.202
C -56.568 -56.03 -4.567
C -57.173 -58.523 -4.673
C -56.177 -57.405 -5.13
C -56.741 -60.04 -2.61
C -56.786 -60.1 -1.036
C -54.806 -57.727 -3.032
C -54.874 -57.843 -0.33
C -55.263 -60.351 -0.472
C -54.291 -59.076 -2.517
C -54.332 -59.144 -0.93
C -55.193 -60.237 -3.114
C -56.871 -60.199 1.564
C -54.925 -57.924 1.223
C -54.419 -59.28 1.69
C -55.317 -60.43 1.104
C -56.672 -59.944 -5.211
C -54.778 -57.675 -4.586
C -55.162 -60.183 -4.691
C -54.245 -58.985 -5.139
C -54.453 -61.535 -2.599
C -54.488 -61.603 -1.053
C -52.82 -59.165 -3.049
C -52.889 -59.276 -0.341
C -53.035 -61.744 -0.466
C -52.156 -60.455 -2.532
C -52.191 -60.516 -0.942
C -52.986 -61.635 -3.128
C -54.569 -61.732 1.632
C -52.941 -59.356 1.215
C -52.26 -60.641 1.693
C -53.079 -61.823 1.125
C -54.406 -61.429 -5.295
C -52.794 -59.114 -4.607
C -52.966 -61.584 -4.72
C -52.119 -60.37 -5.17
C -52.333 -62.953 -2.605
C -52.346 -63.013 -1.049
C -50.689 -60.54 -3.081
C -50.742 -60.625 -0.368
C -52.385 -63.123 1.648
C -50.783 -60.693 1.19
C -52.31 -62.866 -5.307
C -50.67 -60.501 -4.639
C -62.234 -60.185 -0.702
C -61.151 -59.137 -2.788
C -61.219 -59.163 -1.24
C -62.121 -60.122 -3.426
C -61.297 -59.208 1.457
C -62.273 -60.221 0.859
C -62.056 -60.08 -4.989
C -61 -59.121 -5.56
C -61.803 -61.528 -2.858
C -61.861 -61.566 -1.279
C -59.684 -59.319 -3.243
C -59.78 -59.381 -0.6
C -60.428 -61.916 -0.707
C -59.279 -60.769 -2.737
C -59.333 -60.808 -1.15
C -60.332 -61.851 -3.327
C -61.937 -61.632 1.346
C -59.829 -59.43 0.971
C -59.43 -60.877 1.426
C -60.483 -61.953 0.871
C -61.695 -61.476 -5.478
C -59.619 -59.269 -4.818
C -60.269 -61.802 -4.905
C -59.168 -60.691 -5.309
C -59.987 -63.303 -2.83
C -60.043 -63.343 -1.252
C -57.796 -61.114 -3.213
C -57.889 -61.195 -0.577
C -58.646 -63.667 -0.636
C -57.562 -62.584 -2.703
C -57.616 -62.629 -1.15
C -58.548 -63.592 -3.354
C -60.151 -63.398 1.367
C -57.948 -61.238 0.996
C -57.747 -62.683 1.574
C -58.71 -63.701 0.925
C -59.902 -63.214 -5.451
C -57.737 -61.061 -4.782
C -58.498 -63.536 -4.915
C -57.486 -62.48 -5.419
C -65.401 -63.306 -0.861
C -64.303 -62.231 -2.937
C -64.358 -62.275 -1.381
C -65.31 -63.225 -3.579
C -64.425 -62.351 1.322
C -65.44 -63.346 0.703
C -65.245 -63.175 -5.14
C -64.19 -62.153 -5.634
C -64.981 -64.659 -3.045
C -65.034 -64.706 -1.452
C -62.844 -62.549 -3.445
C -62.936 -62.618 -0.802
C -63.607 -65.098 -0.896
C -62.476 -63.989 -2.939
C -62.53 -64.031 -1.358
C -63.52 -65.024 -3.529
C -65.092 -64.774 1.177
C -62.98 -62.654 0.777
C -62.611 -64.092 1.242
C -63.65 -65.132 0.686
C -64.867 -64.575 -5.671
C -62.783 -62.502 -5.02
C -63.459 -64.968 -5.109
C -62.382 -63.908 -5.537
C -63.162 -66.479 -3.038
C -63.214 -66.524 -1.445
C -61.018 -64.349 -3.431
C -61.11 -64.42 -0.788
C -61.812 -66.884 -0.844
C -60.717 -65.804 -2.92
C -60.77 -65.846 -1.362
C -61.723 -66.808 -3.565
C -63.294 -66.569 1.184
C -61.163 -64.455 0.789
C -60.865 -65.895 1.34
C -61.86 -66.914 0.72
C -63.071 -66.373 -5.666
C -60.962 -64.295 -5.008
C -61.669 -66.749 -5.128
C -60.632 -65.702 -5.621
C -65.983 -65.692 -3.675
C -66.072 -65.774 -0.948
C -65.622 -67.109 -3.126
C -65.672 -67.156 -1.555
C -66.11 -65.81 0.621
C -65.741 -67.216 1.17
C -65.921 -65.636 -5.243
C -65.517 -67.007 -5.849
C -64.203 -67.476 -3.671
C -64.29 -67.555 -0.941
C -64.332 -67.587 0.628
C -64.145 -67.416 -5.239
C -50.893 -63.135 -0.477
C -50.034 -61.854 -2.569
C -50.052 -61.895 -0.973
C -50.878 -63.053 -3.144
C -50.087 -61.993 1.653
C -50.914 -63.199 1.113
C -50.874 -63.021 -4.734
C -50.024 -61.797 -5.197
H -48.009 -61.155 -0.707
H -47.971 -61.14 -2.815
H -48.056 -61.228 1.526
H -50.203 -64.461 2.731
H -47.887 -63.369 2.682
H -47.974 -61.129 -5.052
H -50.21 -64.237 -6.4
H -47.964 -63.248 -6.343
H -50.856 -65.174 -5.112
H -50.794 -65.366 1.397
H -50.8 -65.269 -0.76
H -50.832 -65.202 -2.946
H -45.91 -62.676 -0.812
H -45.901 -62.689 -2.904
H -45.894 -62.749 1.429
H -47.892 -65.653 2.747
H -45.937 -62.682 -5.146
H -48.281 -65.833 -6.396
H -48.932 -66.517 -4.917
H -48.817 -66.609 1.751
H -48.846 -66.522 -0.644
H -48.963 -66.506 -2.882
H -58.02 -55.872 2.828
H -57.904 -55.566 -6.166
H -58.847 -58.445 2.665
H -56.372 -57.72 2.792
H -58.572 -58.056 -6.281
H -56.143 -57.359 -6.21
H -56.903 -60.25 2.645
H -54.447 -59.314 2.771
H -56.647 -59.911 -6.293
H -54.221 -58.929 -6.22
H -52.306 -58.397 -0.584
H -52.247 -58.315 -2.703
H -52.395 -58.523 1.636
H -54.602 -61.759 2.714
H -52.271 -60.667 2.775
H -52.22 -58.256 -4.93
H -54.38 -61.358 -6.374
H -52.096 -60.309 -6.25
H -54.871 -62.382 -5.077
H -55.019 -62.66 1.305
H -54.955 -62.542 -0.783
H -54.905 -62.441 -2.98
H -50.173 -59.742 -0.626
H -50.116 -59.688 -2.739
H -50.246 -59.85 1.606
H -52.378 -63.122 2.73
H -50.092 -59.65 -4.975
H -52.266 -62.791 -6.385
H -52.908 -63.746 -5.11
H -52.947 -64.008 1.377
H -52.913 -63.892 -0.773
H -52.903 -63.803 -2.957
H -61.358 -59.189 2.537
H -60.857 -59.328 -6.612
H -61.975 -61.651 2.428
H -59.477 -60.899 2.507
H -61.658 -61.476 -6.559
H -59.105 -60.667 -6.389
H -60.2 -63.425 2.448
H -57.883 -62.673 2.647
H -59.867 -63.182 -6.532
H -57.512 -62.416 -6.499
H -63.01 -59.76 -5.388
H -61.451 -58.138 -5.612
H -58.309 -64.646 -0.95
H -56.599 -62.968 -3.011
H -56.678 -63.024 -0.783
H -58.234 -64.588 -3.074
H -56.753 -63.082 1.422
H -58.412 -64.679 1.278
H -58.171 -64.492 -5.301
H -56.525 -62.914 -5.178
H -63.216 -59.871 -1.03
H -61.566 -58.228 -3.204
H -61.713 -58.238 -0.973
H -63.121 -59.811 -3.154
H -61.715 -58.287 1.073
H -63.257 -59.93 1.204
H -64.437 -62.438 2.4
H -64.137 -62.172 -6.715
H -65.125 -64.798 2.258
H -62.647 -64.119 2.323
H -64.83 -64.536 -6.751
H -62.348 -63.876 -6.618
H -63.326 -66.595 2.265
H -60.959 -65.902 2.418
H -63.032 -66.336 -6.746
H -60.656 -65.644 -6.702
H -66.212 -62.892 -5.535
H -64.531 -61.157 -5.387
H -61.523 -67.877 -1.163
H -59.722 -66.113 -3.212
H -59.795 -66.172 -1.022
H -61.455 -67.819 -3.286
H -59.852 -66.221 1.143
H -61.605 -67.905 1.072
H -61.392 -67.719 -5.519
H -59.633 -66.041 -5.379
H -66.392 -63.016 -1.185
H -64.615 -61.238 -3.233
H -64.695 -61.303 -1.046
H -66.319 -62.951 -3.302
H -64.759 -61.342 1.118
H -66.431 -63.088 1.05
H -65.731 -67.199 2.252
H -65.437 -66.926 -6.924
H -50.075 -62.013 2.734
H -50.013 -61.742 -6.278
H -66.997 -65.44 -3.396
H -67.067 -65.506 -1.276
H -67.103 -65.554 0.967
H -66.889 -65.354 -5.635
H -66.414 -67.895 -1.283
H -66.345 -67.828 -3.488
H -66.482 -67.956 0.899
H -66.275 -67.759 -5.671
H -63.959 -68.492 -3.39
H -64.025 -68.553 -1.265
H -64.079 -68.579 0.978
H -63.872 -68.387 -5.631
H -55.84 -55.301 -4.896
H -55.85 -55.361 -2.674
H -55.885 -55.442 -0.565
H -55.942 -55.567 1.652
H -54.122 -56.877 -4.909
H -54.149 -56.94 -2.687
H -54.2 -57.032 -0.572
H -54.281 -57.163 1.644
C -62.079 -54.289 -2.469
C -62.105 -54.34 -0.911
C -59.955 -52.29 -2.948
C -60.015 -52.362 -0.236
C -60.721 -54.772 -0.328
C -59.617 -53.723 -2.419
C -59.642 -53.765 -0.827
C -60.682 -54.699 -3
C -62.172 -54.43 1.792
C -60.065 -52.416 1.321
C -59.705 -53.85 1.807
C -60.765 -54.832 1.267
C -62.027 -54.224 -5.177
C -59.929 -52.26 -4.508
C -60.661 -54.674 -4.593
C -59.582 -53.671 -5.06
C -60.38 -56.116 -2.456
C -60.391 -56.153 -0.908
C -58.249 -54.218 -2.974
C -58.291 -54.295 -0.266
C -60.405 -56.226 1.853
C -58.328 -54.359 1.292
C -60.353 -56.081 -5.148
C -58.23 -54.181 -4.533
C -69.224 -45.121 -0.26
C -67.928 -44.263 -2.332
C -67.959 -44.303 -0.742
C -69.174 -45.054 -2.914
C -68.023 -44.409 1.877
C -69.271 -45.185 1.323
C -69.142 -45.017 -4.493
C -67.892 -44.195 -4.957
C -69.136 -46.603 -2.466
C -69.183 -46.64 -0.89
C -66.656 -44.921 -2.887
C -66.719 -45.011 -0.187
C -67.843 -47.331 -0.347
C -66.575 -46.376 -2.373
C -66.622 -46.429 -0.797
C -67.757 -47.246 -2.963
C -69.268 -46.74 1.716
C -66.763 -45.078 1.365
C -66.723 -46.538 1.834
C -67.9 -47.387 1.238
C -69.043 -46.528 -5.073
C -66.631 -44.878 -4.443
C -67.711 -47.204 -4.549
C -66.516 -46.302 -5.007
C -67.579 -48.776 -2.488
C -67.634 -48.825 -0.914
C -65.229 -46.885 -2.913
C -65.315 -46.985 -0.21
C -66.192 -49.364 -0.351
C -64.987 -48.307 -2.396
C -65.041 -48.367 -0.808
C -66.1 -49.269 -2.993
C -67.733 -48.907 1.688
C -65.378 -47.054 1.342
C -65.152 -48.479 1.812
C -66.26 -49.429 1.224
C -67.496 -48.696 -5.089
C -65.195 -46.84 -4.467
C -66.059 -49.224 -4.571
C -64.925 -48.23 -5.018
C -65.631 -50.684 -2.479
C -65.683 -50.742 -0.933
C -63.562 -48.684 -2.924
C -63.652 -48.781 -0.216
C -64.295 -51.166 -0.34
C -63.167 -50.079 -2.399
C -63.217 -50.135 -0.81
C -64.211 -51.071 -3.002
C -65.795 -50.847 1.754
C -63.72 -48.847 1.34
C -63.321 -50.241 1.825
C -64.361 -51.232 1.25
C -65.557 -50.594 -5.175
C -63.526 -48.64 -4.482
C -64.175 -51.027 -4.594
C -63.103 -50.005 -5.038
C -63.841 -52.491 -2.478
C -63.881 -52.547 -0.922
C -61.743 -50.454 -2.933
C -61.825 -50.54 -0.22
C -63.968 -52.645 1.776
C -61.887 -50.6 1.337
C -63.776 -52.411 -5.18
C -61.709 -50.418 -4.492
C -72.99 -47.856 -0.563
C -71.729 -47.034 -2.652
C -71.798 -47.048 -1.103
C -72.874 -47.812 -3.288
C -71.876 -47.082 1.594
C -73.032 -47.886 0.998
C -72.806 -47.78 -4.85
C -71.585 -47.044 -5.424
C -72.833 -49.253 -2.722
C -72.894 -49.282 -1.143
C -70.327 -47.497 -3.111
C -70.427 -47.543 -0.468
C -71.556 -49.904 -0.576
C -70.21 -48.999 -2.608
C -70.268 -49.029 -1.021
C -71.455 -49.856 -3.196
C -72.973 -49.336 1.483
C -70.48 -47.583 1.102
C -70.371 -49.081 1.555
C -71.612 -49.932 1.003
C -72.725 -49.219 -5.342
C -70.257 -47.459 -4.687
C -71.388 -49.817 -4.774
C -70.092 -48.941 -5.18
C -71.397 -51.348 -2.702
C -71.456 -51.378 -1.123
C -68.824 -49.625 -3.089
C -68.926 -49.688 -0.452
C -70.148 -51.967 -0.511
C -68.879 -51.113 -2.58
C -68.939 -51.148 -1.027
C -70.044 -51.91 -3.23
C -71.566 -51.415 1.497
C -68.989 -49.721 1.121
C -69.073 -51.179 1.698
C -70.214 -51.991 1.049
C -71.304 -51.273 -5.322
C -68.759 -49.584 -4.658
C -69.988 -51.862 -4.791
C -68.791 -51.023 -5.297
C -76.703 -50.303 -0.712
C -75.423 -49.457 -2.792
C -75.481 -49.493 -1.235
C -76.606 -50.236 -3.431
C -75.553 -49.56 1.468
C -76.743 -50.338 0.851
C -76.537 -50.197 -4.993
C -75.305 -49.398 -5.489
C -76.56 -51.708 -2.9
C -76.616 -51.746 -1.307
C -74.055 -50.052 -3.306
C -74.15 -50.106 -0.662
C -75.291 -52.409 -0.757
C -73.972 -51.537 -2.802
C -74.029 -51.57 -1.221
C -75.199 -52.348 -3.389
C -76.678 -51.807 1.322
C -74.196 -50.136 0.917
C -74.112 -51.62 1.379
C -75.334 -52.437 0.825
C -76.441 -51.642 -5.526
C -73.991 -50.015 -4.881
C -75.134 -52.302 -4.97
C -73.873 -51.471 -5.4
C -75.129 -53.846 -2.902
C -75.184 -53.883 -1.309
C -72.614 -52.173 -3.3
C -72.71 -52.229 -0.657
C -73.876 -54.51 -0.713
C -72.6 -53.66 -2.791
C -72.654 -53.693 -1.233
C -73.784 -54.448 -3.434
C -75.263 -53.917 1.321
C -72.764 -52.256 0.921
C -72.748 -53.728 1.469
C -73.925 -54.533 0.851
C -75.029 -53.755 -5.529
C -72.553 -52.128 -4.877
C -73.725 -54.397 -4.997
C -72.505 -53.571 -5.493
C -77.746 -52.525 -3.528
C -77.84 -52.593 -0.8
C -77.665 -53.986 -2.981
C -77.718 -54.025 -1.41
C -77.88 -52.625 0.769
C -77.789 -54.076 1.315
C -77.679 -52.478 -5.095
C -77.552 -53.901 -5.704
C -76.347 -54.621 -3.532
C -76.438 -54.687 -0.802
C -76.481 -54.713 0.767
C -76.284 -54.57 -5.1
C -62.496 -52.963 -0.334
C -61.37 -51.875 -2.408
C -61.41 -51.924 -0.813
C -62.431 -52.879 -3.001
C -61.495 -52.02 1.812
C -62.548 -53.026 1.254
C -62.403 -52.843 -4.592
C -61.32 -51.813 -5.038
H -59.258 -51.637 -0.5
H -59.206 -51.585 -2.61
H -59.347 -51.72 1.733
H -62.168 -54.419 2.873
H -59.698 -53.854 2.889
H -59.181 -51.558 -4.848
H -61.958 -54.158 -6.255
H -59.547 -53.632 -6.141
H -62.803 -54.953 -4.988
H -62.92 -55.163 1.52
H -62.859 -55.064 -0.635
H -62.825 -54.99 -2.821
H -57.499 -53.606 -0.528
H -57.466 -53.55 -2.641
H -57.56 -53.714 1.698
H -60.235 -56.134 2.917
H -57.457 -53.503 -4.87
H -60.379 -56.092 -6.23
H -61.2 -56.645 -4.78
H -61.311 -56.817 1.845
H -61.239 -56.697 -0.514
H -61.277 -56.646 -2.748
H -68.005 -44.449 2.958
H -67.857 -44.159 -6.038
H -69.321 -46.81 2.795
H -66.753 -46.576 2.915
H -68.998 -46.472 -6.153
H -66.477 -46.263 -6.088
H -67.773 -48.95 2.768
H -65.186 -48.506 2.893
H -67.467 -48.667 -6.17
H -64.889 -48.18 -6.099
H -62.906 -48.037 -0.461
H -62.834 -47.961 -2.579
H -63.017 -48.14 1.761
H -65.838 -50.87 2.835
H -63.344 -50.262 2.907
H -62.795 -47.91 -4.806
H -65.513 -50.526 -6.254
H -63.059 -49.952 -6.118
H -66.201 -51.438 -4.965
H -66.416 -51.667 1.417
H -66.326 -51.57 -0.666
H -66.251 -51.483 -2.863
H -61.083 -49.794 -0.475
H -61.015 -49.732 -2.587
H -61.187 -49.89 1.757
H -63.97 -52.645 2.858
H -60.975 -49.696 -4.824
H -63.706 -52.344 -6.257
H -64.536 -53.157 -4.993
H -64.701 -53.39 1.496
H -64.621 -53.289 -0.653
H -64.565 -53.21 -2.838
H -71.928 -47.054 2.675
H -71.488 -47.273 -6.477
H -73.011 -49.349 2.565
H -70.417 -49.095 2.636
H -72.693 -49.225 -6.423
H -70.029 -48.928 -6.26
H -71.616 -51.434 2.577
H -69.202 -51.145 2.772
H -71.266 -51.247 -6.403
H -68.806 -50.954 -6.377
H -73.68 -47.281 -5.246
H -71.837 -45.993 -5.473
H -70.009 -52.993 -0.827
H -68.011 -51.679 -2.891
H -68.098 -51.722 -0.662
H -69.929 -52.949 -2.951
H -68.18 -51.77 1.544
H -70.11 -53.009 1.401
H -69.854 -52.864 -5.178
H -67.93 -51.634 -5.059
H -73.893 -47.357 -0.888
H -71.962 -46.061 -3.066
H -72.102 -46.045 -0.834
H -73.793 -47.312 -3.012
H -72.109 -46.096 1.214
H -73.939 -47.41 1.346
H -75.577 -49.645 2.546
H -75.26 -49.425 -6.57
H -76.71 -51.827 2.403
H -74.149 -51.642 2.46
H -76.4 -51.609 -6.606
H -73.837 -51.444 -6.481
H -75.295 -53.939 2.402
H -72.838 -53.719 2.547
H -74.987 -53.724 -6.61
H -72.521 -53.508 -6.573
H -77.432 -49.73 -5.384
H -75.445 -48.355 -5.239
H -73.787 -55.54 -1.034
H -71.685 -54.156 -3.087
H -71.761 -54.202 -0.898
H -73.716 -55.492 -3.157
H -71.819 -54.243 1.267
H -73.865 -55.555 1.201
H -73.642 -55.402 -5.391
H -71.591 -54.099 -5.255
H -77.619 -49.825 -1.033
H -75.537 -48.422 -3.085
H -75.621 -48.475 -0.898
H -77.542 -49.771 -3.15
H -75.685 -48.505 1.267
H -77.665 -49.893 1.202
H -77.771 -54.064 2.397
H -77.461 -53.835 -6.78
H -61.508 -52.039 2.894
H -61.279 -51.765 -6.118
H -78.691 -52.081 -3.244
H -78.765 -52.136 -1.124
H -78.802 -52.181 1.119
H -78.575 -52.013 -5.484
H -78.589 -54.606 -1.136
H -78.515 -54.55 -3.342
H -78.66 -54.658 1.046
H -78.441 -54.491 -5.524
H -76.304 -55.665 -3.253
H -76.373 -55.716 -1.128
H -76.424 -55.736 1.115
H -76.205 -55.575 -5.494
H -65.776 -44.304 -4.775
H -65.792 -44.362 -2.552
H -65.838 -44.436 -0.443
H -65.912 -44.55 1.774
H -64.397 -46.185 -4.791
H -64.431 -46.24 -2.569
H -64.496 -46.322 -0.455
H -64.597 -46.433 1.762
C -71.691 -42.1 -2.323
C -71.721 -42.147 -0.765
C -69.218 -40.553 -2.807
C -69.283 -40.617 -0.094
C -70.447 -42.841 -0.187
C -69.165 -42.024 -2.281
C -69.194 -42.063 -0.69
C -70.403 -42.773 -2.86
C -71.796 -42.227 1.939
C -69.337 -40.663 1.462
C -69.263 -42.138 1.945
C -70.496 -42.894 1.408
C -71.635 -42.041 -5.031
C -69.193 -40.526 -4.366
C -70.382 -42.75 -4.453
C -69.13 -41.976 -4.922
C -70.382 -44.222 -2.319
C -70.396 -44.258 -0.771
C -67.922 -42.775 -2.842
C -67.971 -42.846 -0.134
C -70.415 -44.332 1.99
C -68.015 -42.904 1.424
C -70.356 -44.189 -5.011
C -67.902 -42.74 -4.401
C -76.899 -31.723 -0.072
C -75.468 -31.13 -2.148
C -75.501 -31.167 -0.558
C -76.846 -31.662 -2.727
C -75.574 -31.263 2.061
C -76.952 -31.779 1.511
C -76.812 -31.628 -4.305
C -75.428 -31.065 -4.773
C -77.11 -33.188 -2.281
C -77.157 -33.22 -0.704
C -74.35 -32.021 -2.709
C -74.42 -32.103 -0.008
C -75.976 -34.159 -0.168
C -74.553 -33.465 -2.197
C -74.605 -33.512 -0.621
C -75.885 -34.087 -2.784
C -77.251 -33.306 1.902
C -74.471 -32.163 1.543
C -74.715 -33.604 2.01
C -76.038 -34.206 1.417
C -77.013 -33.128 -4.888
C -74.323 -31.981 -4.265
C -75.837 -34.052 -4.37
C -74.491 -33.399 -4.832
C -76.007 -35.623 -2.311
C -76.065 -35.664 -0.737
C -73.334 -34.225 -2.743
C -73.429 -34.313 -0.04
C -74.754 -36.474 -0.181
C -73.373 -35.668 -2.229
C -73.432 -35.719 -0.641
C -74.654 -36.394 -2.823
C -76.169 -35.729 1.865
C -73.498 -34.37 1.513
C -73.554 -35.813 1.98
C -74.828 -36.527 1.395
C -75.919 -35.555 -4.913
C -73.298 -34.185 -4.297
C -74.61 -36.354 -4.401
C -73.306 -35.599 -4.852
C -74.469 -37.873 -2.313
C -74.526 -37.923 -0.767
C -72.05 -36.314 -2.763
C -72.149 -36.397 -0.055
C -73.246 -38.61 -0.179
C -71.934 -37.76 -2.242
C -71.989 -37.808 -0.653
C -73.154 -38.528 -2.842
C -74.647 -38.01 1.92
C -72.223 -36.451 1.501
C -72.103 -37.897 1.983
C -73.317 -38.665 1.411
C -74.388 -37.793 -5.01
C -72.012 -36.275 -4.321
C -73.115 -38.489 -4.434
C -71.866 -37.694 -4.881
C -73.066 -39.994 -2.321
C -73.112 -40.043 -0.765
C -70.613 -38.404 -2.782
C -70.701 -38.477 -0.069
C -73.207 -40.128 1.933
C -70.768 -38.528 1.489
C -72.996 -39.922 -5.023
C -70.578 -38.372 -4.34
C -81.127 -33.67 -0.364
C -79.737 -33.105 -2.457
C -79.802 -33.109 -0.908
C -81.014 -33.644 -3.09
C -79.876 -33.132 1.789
C -81.168 -33.694 1.197
C -80.947 -33.623 -4.652
C -79.608 -33.138 -5.23
C -81.254 -35.066 -2.525
C -81.313 -35.086 -0.946
C -78.454 -33.832 -2.923
C -78.552 -33.862 -0.279
C -80.12 -35.958 -0.385
C -78.631 -35.329 -2.421
C -78.688 -35.35 -0.834
C -80.021 -35.925 -3.006
C -81.392 -35.129 1.68
C -78.607 -33.894 1.292
C -78.79 -35.386 1.743
C -80.175 -35.978 1.193
C -81.15 -35.049 -5.146
C -78.384 -33.805 -4.499
C -79.953 -35.897 -4.584
C -78.513 -35.29 -4.994
C -80.254 -37.401 -2.513
C -80.312 -37.422 -0.935
C -77.395 -36.212 -2.908
C -77.499 -36.259 -0.272
C -79.142 -38.256 -0.329
C -77.738 -37.662 -2.401
C -77.798 -37.688 -0.848
C -79.038 -38.215 -3.048
C -80.417 -37.442 1.685
C -77.562 -36.283 1.302
C -77.926 -37.697 1.877
C -79.206 -38.27 1.232
C -80.157 -37.34 -5.134
C -77.329 -36.181 -4.478
C -78.979 -38.176 -4.609
C -77.643 -37.585 -5.118
C -85.246 -35.345 -0.503
C -83.833 -34.761 -2.586
C -83.892 -34.788 -1.029
C -85.148 -35.293 -3.221
C -83.966 -34.845 1.674
C -85.287 -35.375 1.061
C -85.079 -35.265 -4.783
C -83.716 -34.721 -5.283
C -85.388 -36.746 -2.692
C -85.445 -36.777 -1.099
C -82.609 -35.61 -3.106
C -82.705 -35.65 -0.462
C -84.272 -37.686 -0.555
C -82.816 -37.084 -2.604
C -82.873 -37.109 -1.023
C -84.18 -37.639 -3.188
C -85.508 -36.829 1.53
C -82.75 -35.674 1.117
C -82.955 -37.146 1.577
C -84.315 -37.708 1.027
C -85.267 -36.7 -5.319
C -82.545 -35.583 -4.681
C -84.112 -37.604 -4.768
C -82.715 -37.034 -5.203
C -84.402 -39.123 -2.702
C -84.457 -39.152 -1.109
C -81.61 -37.972 -3.108
C -81.706 -38.013 -0.465
C -83.295 -40.023 -0.519
C -81.884 -39.433 -2.601
C -81.939 -39.459 -1.043
C -83.201 -39.974 -3.241
C -84.532 -39.175 1.521
C -81.758 -38.032 1.113
C -82.028 -39.48 1.659
C -83.341 -40.039 1.045
C -84.295 -39.048 -5.33
C -81.547 -37.936 -4.686
C -83.139 -39.933 -4.804
C -81.783 -39.36 -5.304
C -86.712 -37.315 -3.317
C -86.808 -37.369 -0.588
C -86.916 -38.765 -2.772
C -86.971 -38.797 -1.201
C -86.848 -37.396 0.981
C -87.04 -38.838 1.525
C -86.643 -37.28 -4.884
C -86.798 -38.699 -5.495
C -85.749 -39.644 -3.329
C -85.842 -39.696 -0.599
C -85.883 -39.717 0.971
C -85.683 -39.604 -4.897
C -71.833 -40.723 -0.183
C -70.523 -39.871 -2.26
C -70.567 -39.914 -0.665
C -71.761 -40.647 -2.851
C -70.66 -39.996 1.96
C -71.891 -40.776 1.405
C -71.732 -40.615 -4.441
C -70.47 -39.815 -4.89
H -68.399 -40.052 -0.361
H -68.345 -40.009 -2.47
H -68.495 -40.121 1.873
H -71.785 -42.22 3.021
H -69.254 -42.146 3.027
H -68.322 -39.982 -4.709
H -71.559 -41.987 -6.109
H -69.091 -41.942 -6.003
H -72.538 -42.606 -4.839
H -72.673 -42.799 1.669
H -72.601 -42.711 -0.486
H -72.56 -42.641 -2.673
H -67.06 -42.324 -0.399
H -67.023 -42.273 -2.511
H -67.134 -42.423 1.828
H -70.228 -44.278 3.054
H -67.012 -42.226 -4.741
H -70.387 -44.192 -6.092
H -71.296 -44.577 -4.641
H -71.419 -44.735 1.982
H -71.332 -44.628 -0.374
H -71.366 -44.567 -2.609
H -75.561 -31.308 3.142
H -75.391 -31.035 -5.854
H -77.313 -33.366 2.98
H -74.748 -33.637 3.091
H -76.961 -33.079 -5.968
H -74.448 -33.366 -5.912
H -76.212 -35.767 2.945
H -73.589 -35.835 3.061
H -75.888 -35.531 -5.994
H -73.265 -35.555 -5.932
H -71.272 -35.812 -0.302
H -71.194 -35.748 -2.419
H -71.394 -35.897 1.92
H -74.689 -38.026 3.001
H -72.125 -37.916 3.065
H -71.155 -35.701 -4.647
H -74.335 -37.733 -6.089
H -71.816 -37.649 -5.961
H -75.183 -38.496 -4.797
H -75.417 -38.692 1.585
H -75.317 -38.61 -0.498
H -75.234 -38.536 -2.696
H -69.829 -37.891 -0.326
H -69.757 -37.839 -2.437
H -69.941 -37.969 1.907
H -73.204 -40.13 3.015
H -69.718 -37.807 -4.675
H -72.919 -39.868 -6.101
H -73.887 -40.507 -4.834
H -74.072 -40.715 1.655
H -73.981 -40.628 -0.495
H -73.918 -40.556 -2.68
H -79.918 -33.097 2.87
H -79.562 -33.379 -6.283
H -81.428 -35.136 2.762
H -78.834 -35.393 2.824
H -81.123 -35.059 -6.227
H -78.452 -35.287 -6.074
H -80.467 -37.453 2.766
H -78.042 -37.64 2.952
H -80.119 -37.32 -6.216
H -77.648 -37.512 -6.198
H -81.709 -32.962 -5.044
H -79.65 -32.057 -5.277
H -79.206 -39.289 -0.646
H -76.998 -38.386 -2.716
H -77.084 -38.416 -0.486
H -79.127 -39.257 -2.771
H -77.166 -38.451 1.72
H -79.301 -39.289 1.582
H -79.045 -39.183 -4.998
H -76.918 -38.354 -4.884
H -81.917 -33.003 -0.685
H -79.778 -32.105 -2.869
H -79.904 -32.066 -0.637
H -81.818 -32.975 -2.81
H -79.913 -32.119 1.411
H -81.964 -33.051 1.549
H -84.003 -34.926 2.752
H -83.681 -34.754 -6.364
H -85.54 -36.844 2.611
H -82.992 -37.163 2.659
H -85.225 -36.673 -6.399
H -82.678 -37.012 -6.284
H -84.564 -39.192 2.602
H -82.11 -39.456 2.738
H -84.251 -39.023 -6.411
H -81.791 -39.293 -6.384
H -85.866 -34.632 -5.17
H -83.648 -33.671 -5.031
H -83.409 -41.05 -0.842
H -81.085 -40.098 -2.902
H -81.161 -40.133 -0.712
H -83.338 -41.012 -2.966
H -81.218 -40.167 1.453
H -83.48 -41.054 1.393
H -83.256 -40.934 -5.199
H -80.989 -40.056 -5.069
H -86.053 -34.698 -0.819
H -83.744 -33.723 -2.877
H -83.83 -33.763 -0.69
H -85.974 -34.655 -2.937
H -83.89 -33.784 1.475
H -86.103 -34.759 1.416
H -87.016 -38.832 2.606
H -86.7 -38.649 -6.572
H -70.672 -40.015 3.042
H -70.425 -39.774 -5.971
H -87.552 -36.696 -3.029
H -87.628 -36.74 -0.908
H -87.665 -36.781 1.335
H -87.433 -36.648 -5.269
H -87.937 -39.197 -0.924
H -87.862 -39.152 -3.13
H -88.009 -39.238 1.258
H -87.785 -39.104 -5.313
H -85.91 -40.677 -3.052
H -85.981 -40.718 -0.927
H -86.026 -40.732 1.317
H -85.804 -40.604 -5.293
H -73.374 -31.584 -4.599
H -73.393 -31.643 -2.377
H -73.445 -31.711 -0.268
H -73.532 -31.812 1.95
H -72.388 -33.697 -4.624
H -72.425 -33.749 -2.401
H -72.497 -33.822 -0.287
H -72.61 -33.915 1.93
C -78.736 -28.276 -2.122
C -78.769 -28.32 -0.564
C -76.01 -27.239 -2.613
C -76.077 -27.295 0.1
C -77.653 -29.249 0.008
C -76.244 -28.694 -2.089
C -76.274 -28.729 -0.498
C -77.606 -29.186 -2.665
C -78.848 -28.389 2.14
C -76.133 -27.333 1.656
C -76.347 -28.795 2.137
C -77.706 -29.295 1.604
C -78.68 -28.224 -4.83
C -75.986 -27.215 -4.173
C -77.586 -29.164 -4.257
C -76.209 -28.648 -4.731
C -77.866 -30.612 -2.126
C -77.881 -30.647 -0.578
C -75.173 -29.671 -2.657
C -75.225 -29.736 0.052
C -77.905 -30.721 2.184
C -75.274 -29.788 1.61
C -77.844 -30.579 -4.818
C -75.152 -29.637 -4.215
C -81.816 -17.102 0.161
C -80.306 -16.795 -1.92
C -80.339 -16.83 -0.33
C -81.764 -17.042 -2.494
C -80.419 -16.92 2.291
C -81.872 -17.153 1.745
C -81.731 -17.009 -4.073
C -80.265 -16.729 -4.546
C -82.316 -18.487 -2.049
C -82.363 -18.514 -0.473
C -79.384 -17.881 -2.488
C -79.457 -17.957 0.214
C -81.385 -19.665 0.058
C -79.862 -19.257 -1.977
C -79.916 -19.298 -0.4
C -81.291 -19.606 -2.559
C -82.462 -18.588 2.135
C -79.512 -18.011 1.765
C -80.032 -19.374 2.232
C -81.449 -19.704 1.643
C -82.22 -18.439 -4.657
C -79.357 -17.842 -4.044
C -81.243 -19.576 -4.145
C -79.798 -19.198 -4.612
C -81.708 -21.088 -2.087
C -81.768 -21.121 -0.513
C -78.816 -20.237 -2.527
C -78.915 -20.311 0.176
C -80.637 -22.171 0.038
C -79.133 -21.645 -2.014
C -79.195 -21.687 -0.427
C -80.533 -22.105 -2.605
C -81.873 -21.171 2.09
C -78.989 -20.358 1.729
C -79.323 -21.762 2.195
C -80.714 -22.212 1.614
C -81.618 -21.033 -4.689
C -78.777 -20.2 -4.082
C -80.488 -22.071 -4.183
C -79.063 -21.584 -4.638
C -80.637 -23.593 -2.097
C -80.698 -23.634 -0.551
C -77.963 -22.533 -2.554
C -78.066 -22.601 0.154
C -79.573 -24.557 0.032
C -78.128 -23.975 -2.035
C -78.186 -24.015 -0.446
C -79.477 -24.489 -2.632
C -80.824 -23.701 2.137
C -78.143 -22.644 1.711
C -78.305 -24.085 2.191
C -79.649 -24.601 1.622
C -80.552 -23.524 -4.794
C -77.923 -22.499 -4.113
C -79.437 -24.455 -4.224
C -78.058 -23.918 -4.674
C -79.675 -25.944 -2.113
C -79.723 -25.987 -0.556
C -76.96 -24.861 -2.58
C -77.051 -24.922 0.133
C -79.823 -26.057 2.143
C -77.12 -24.961 1.69
C -79.601 -25.882 -4.815
C -76.924 -24.833 -4.139
C -86.341 -18.175 -0.117
C -84.876 -17.89 -2.216
C -84.935 -17.884 -0.666
C -86.236 -18.166 -2.843
C -85.001 -17.897 2.031
C -86.381 -18.194 1.443
C -86.171 -18.155 -4.406
C -84.766 -17.941 -4.989
C -86.746 -19.515 -2.279
C -86.803 -19.526 -0.7
C -83.762 -18.854 -2.687
C -83.854 -18.87 -0.043
C -85.801 -20.616 -0.145
C -84.225 -20.287 -2.186
C -84.279 -20.3 -0.599
C -85.707 -20.597 -2.766
C -86.879 -19.558 1.927
C -83.908 -18.894 1.528
C -84.377 -20.321 1.978
C -85.853 -20.628 1.434
C -86.651 -19.513 -4.9
C -83.693 -18.837 -4.263
C -85.64 -20.58 -4.344
C -84.111 -20.266 -4.76
C -86.221 -22 -2.274
C -86.277 -22.013 -0.695
C -83.187 -21.393 -2.679
C -83.289 -21.425 -0.042
C -85.29 -23.061 -0.095
C -83.805 -22.749 -2.173
C -83.863 -22.766 -0.619
C -85.19 -23.035 -2.814
C -86.375 -22.017 1.925
C -83.349 -21.439 1.532
C -83.98 -22.756 2.107
C -85.35 -23.065 1.466
C -86.123 -21.954 -4.896
C -83.122 -21.372 -4.249
C -85.13 -23.005 -4.376
C -83.706 -22.686 -4.89
C -90.707 -19.01 -0.24
C -89.216 -18.71 -2.328
C -89.273 -18.729 -0.771
C -90.611 -18.973 -2.959
C -89.346 -18.775 1.932
C -90.748 -19.035 1.323
C -90.543 -18.955 -4.521
C -89.102 -18.688 -5.026
C -91.128 -20.353 -2.431
C -91.184 -20.374 -0.838
C -88.184 -19.781 -2.855
C -88.275 -19.808 -0.21
C -90.21 -21.497 -0.3
C -88.672 -21.187 -2.354
C -88.727 -21.204 -0.773
C -90.12 -21.464 -2.933
C -91.247 -20.419 1.791
C -88.318 -19.825 1.369
C -88.805 -21.229 1.828
C -90.251 -21.513 1.283
C -91.01 -20.325 -5.058
C -88.121 -19.764 -4.43
C -90.053 -21.438 -4.514
C -88.573 -21.152 -4.953
C -90.626 -22.876 -2.449
C -90.68 -22.897 -0.855
C -87.665 -22.292 -2.864
C -87.758 -22.32 -0.22
C -89.709 -23.98 -0.271
C -88.218 -23.673 -2.358
C -88.27 -23.691 -0.8
C -89.617 -23.945 -2.993
C -90.748 -22.91 1.775
C -87.807 -22.331 1.358
C -88.352 -23.699 1.903
C -89.751 -23.99 1.293
C -90.516 -22.818 -5.077
C -87.602 -22.267 -4.442
C -89.554 -23.913 -4.556
C -88.114 -23.615 -5.061
C -92.541 -20.65 -3.051
C -92.636 -20.69 -0.323
C -93.022 -22.034 -2.508
C -93.076 -22.057 -0.936
C -92.674 -20.712 1.247
C -93.142 -22.09 1.789
C -92.472 -20.626 -4.619
C -92.903 -21.985 -5.232
C -92.051 -23.122 -3.071
C -92.143 -23.161 -0.34
C -92.182 -23.177 1.23
C -91.984 -23.092 -4.639
C -78.599 -26.903 0.02
C -77.156 -26.318 -2.061
C -77.201 -26.355 -0.466
C -78.524 -26.837 -2.648
C -77.299 -26.423 2.16
C -78.661 -26.947 1.608
C -78.494 -26.808 -4.239
C -77.102 -26.269 -4.691
H -75.101 -26.913 -0.17
H -75.047 -26.876 -2.279
H -75.2 -26.967 2.064
H -78.833 -28.386 3.222
H -76.336 -28.807 3.219
H -75.027 -26.85 -4.518
H -78.598 -28.183 -5.908
H -76.168 -28.62 -5.812
H -79.675 -28.602 -4.636
H -79.822 -28.779 1.873
H -79.741 -28.702 -0.282
H -79.695 -28.637 -2.469
H -74.231 -29.402 -0.216
H -74.192 -29.355 -2.328
H -74.315 -29.488 2.012
H -77.707 -30.708 3.247
H -74.18 -29.306 -4.558
H -77.879 -30.574 -5.899
H -78.84 -30.777 -4.444
H -78.968 -30.921 2.18
H -78.87 -30.829 -0.178
H -78.899 -30.758 -2.413
H -80.409 -16.969 3.372
H -80.227 -16.703 -5.627
H -82.53 -18.637 3.213
H -80.066 -19.402 3.313
H -82.163 -18.399 -5.737
H -79.753 -19.171 -5.692
H -81.918 -21.201 3.171
H -79.358 -21.778 3.276
H -81.587 -21.012 -5.771
H -79.017 -21.547 -5.718
H -77.093 -22.198 -0.095
H -77.012 -22.145 -2.213
H -77.221 -22.262 2.127
H -80.865 -23.711 3.219
H -78.327 -24.101 3.273
H -76.971 -22.102 -4.441
H -80.492 -23.474 -5.873
H -78.004 -23.881 -5.754
H -81.468 -24.059 -4.579
H -81.713 -24.22 1.804
H -81.607 -24.155 -0.279
H -81.518 -24.093 -2.478
H -76.082 -24.515 -0.127
H -76.009 -24.474 -2.239
H -76.199 -24.575 2.106
H -79.817 -26.061 3.225
H -75.972 -24.446 -4.476
H -79.519 -25.842 -5.893
H -80.588 -26.282 -4.623
H -80.787 -26.464 1.867
H -80.689 -26.392 -0.283
H -80.621 -26.329 -2.469
H -85.031 -17.853 3.111
H -84.772 -18.186 -6.043
H -86.911 -19.559 3.008
H -84.418 -20.32 3.06
H -86.63 -19.526 -5.982
H -84.055 -20.273 -5.84
H -86.421 -22.02 3.006
H -84.079 -22.679 3.182
H -86.086 -21.939 -5.977
H -83.701 -22.611 -5.969
H -86.79 -17.356 -4.794
H -84.595 -16.874 -5.037
H -85.556 -24.06 -0.414
H -83.221 -23.602 -2.491
H -83.303 -23.62 -0.261
H -85.48 -24.04 -2.539
H -83.383 -23.643 1.946
H -85.641 -24.047 1.816
H -85.393 -23.979 -4.766
H -83.143 -23.581 -4.66
H -86.986 -17.367 -0.435
H -84.722 -16.902 -2.627
H -84.833 -16.842 -0.396
H -86.891 -17.353 -2.559
H -84.843 -16.897 1.649
H -87.034 -17.408 1.8
H -89.394 -18.849 3.01
H -89.078 -18.724 -6.108
H -91.277 -20.43 2.873
H -88.84 -21.24 2.909
H -90.968 -20.305 -6.139
H -88.536 -21.135 -6.034
H -90.779 -22.923 2.856
H -88.424 -23.662 2.982
H -90.472 -22.8 -6.158
H -88.112 -23.545 -6.14
H -91.193 -18.18 -4.905
H -88.83 -17.672 -4.773
H -90.022 -24.964 -0.595
H -87.564 -24.48 -2.662
H -87.638 -24.505 -0.472
H -89.953 -24.936 -2.718
H -87.692 -24.531 1.693
H -90.085 -24.958 1.641
H -89.865 -24.871 -4.952
H -87.47 -24.453 -4.83
H -91.373 -18.217 -0.553
H -88.926 -17.709 -2.619
H -89.01 -17.735 -0.432
H -91.295 -18.186 -2.67
H -89.066 -17.749 1.734
H -91.426 -18.272 1.682
H -93.114 -22.09 2.871
H -92.8 -21.954 -6.308
H -77.311 -26.441 3.242
H -77.053 -26.235 -5.772
H -93.242 -19.88 -2.759
H -93.318 -19.912 -0.638
H -93.353 -19.95 1.605
H -93.123 -19.851 -5
H -94.101 -22.261 -0.657
H -94.026 -22.227 -2.863
H -94.172 -22.292 1.527
H -93.949 -22.191 -5.046
H -92.41 -24.105 -2.794
H -92.479 -24.135 -0.669
H -92.518 -24.145 1.575
H -92.299 -24.049 -5.035
H -78.35 -17.636 -4.381
H -78.371 -17.696 -2.159
H -78.427 -17.76 -0.05
H -78.522 -17.849 2.169
H -77.792 -19.898 -4.411
H -77.83 -19.947 -2.189
H -77.907 -20.01 -0.075
H -78.027 -20.085 2.143
C -82.95 -13.349 -1.871
C -82.987 -13.397 -0.313
C -80.069 -12.891 -2.369
C -80.138 -12.947 0.347
C -82.075 -14.534 0.252
C -80.591 -14.263 -1.85
C -80.622 -14.3 -0.259
C -82.026 -14.466 -2.422
C -83.074 -13.469 2.39
C -80.196 -12.981 1.904
C -80.697 -14.364 2.379
C -82.13 -14.577 1.847
C -82.896 -13.29 -4.577
C -80.048 -12.862 -3.93
C -82.01 -14.439 -4.015
C -80.559 -14.211 -4.494
C -82.559 -15.815 -1.886
C -82.574 -15.855 -0.338
C -79.734 -15.424 -2.427
C -79.787 -15.489 0.283
C -82.599 -15.936 2.427
C -79.838 -15.536 1.842
C -82.542 -15.775 -4.578
C -79.714 -15.388 -3.986
C -83.204 -1.79 0.577
C -81.547 -1.78 -1.462
C -81.62 -1.824 0.118
C -83.088 -1.727 -2.057
C -81.778 -1.909 2.74
C -83.3 -1.833 2.163
C -83.019 -1.696 -3.642
C -81.426 -1.699 -4.072
C -84.099 -2.964 -1.647
C -84.173 -2.999 -0.073
C -81.002 -3.094 -2.044
C -81.137 -3.173 0.65
C -83.52 -4.355 0.437
C -81.902 -4.294 -1.579
C -81.981 -4.335 -0.002
C -83.389 -4.286 -2.172
C -84.318 -3.074 2.521
C -81.235 -3.222 2.2
C -82.148 -4.414 2.621
C -83.611 -4.396 2.019
C -83.972 -2.909 -4.243
C -80.937 -3.049 -3.594
C -83.323 -4.247 -3.755
C -81.803 -4.208 -4.204
C -84.187 -5.631 -1.736
C -84.264 -5.672 -0.163
C -81.169 -5.513 -2.156
C -81.304 -5.589 0.549
C -83.438 -6.975 0.367
C -81.845 -6.795 -1.675
C -81.923 -6.837 -0.089
C -83.308 -6.9 -2.273
C -84.401 -5.733 2.433
C -81.404 -5.634 2.101
C -82.086 -6.916 2.535
C -83.534 -7.019 1.94
C -84.075 -5.556 -4.333
C -81.117 -5.467 -3.711
C -83.255 -6.856 -3.85
C -81.761 -6.713 -4.304
C -83.768 -8.334 -1.791
C -83.842 -8.381 -0.248
C -80.929 -7.925 -2.243
C -81.054 -7.994 0.473
C -82.969 -9.55 0.319
C -81.431 -9.285 -1.744
C -81.499 -9.325 -0.155
C -82.857 -9.474 -2.343
C -84.002 -8.456 2.43
C -81.147 -8.036 2.029
C -81.64 -9.398 2.486
C -83.059 -9.594 1.908
C -83.678 -8.252 -4.479
C -80.886 -7.883 -3.803
C -82.816 -9.431 -3.935
C -81.357 -9.214 -4.389
C -83.377 -10.858 -1.841
C -83.434 -10.907 -0.286
C -80.492 -10.392 -2.31
C -80.592 -10.453 0.409
C -83.552 -10.984 2.409
C -80.67 -10.489 1.966
C -83.302 -10.785 -4.539
C -80.458 -10.358 -3.87
C -88.136 -1.841 0.271
C -86.597 -1.794 -1.799
C -86.661 -1.811 -0.245
C -88.017 -1.811 -2.444
C -86.781 -1.875 2.458
C -88.203 -1.876 1.831
C -87.948 -1.799 -4.006
C -86.483 -1.814 -4.544
C -88.827 -3.036 -1.92
C -88.893 -3.057 -0.343
C -85.658 -2.963 -2.288
C -85.777 -3.008 0.345
C -88.125 -4.327 0.197
C -86.469 -4.28 -1.827
C -86.539 -4.309 -0.24
C -88.011 -4.288 -2.416
C -89.004 -3.111 2.274
C -85.853 -3.041 1.916
C -86.659 -4.349 2.325
C -88.193 -4.35 1.775
C -88.715 -3.021 -4.536
C -85.577 -2.938 -3.861
C -87.934 -4.265 -3.994
C -86.341 -4.239 -4.388
C -88.82 -5.571 -1.952
C -88.888 -5.595 -0.374
C -85.701 -5.581 -2.337
C -85.826 -5.634 0.297
C -88.14 -6.823 0.21
C -86.609 -6.78 -1.857
C -86.68 -6.809 -0.304
C -88.017 -6.778 -2.505
C -89.006 -5.614 2.24
C -85.901 -5.657 1.869
C -86.818 -6.811 2.428
C -88.212 -6.837 1.77
C -88.705 -5.513 -4.567
C -85.625 -5.548 -3.907
C -87.945 -6.74 -4.065
C -86.492 -6.687 -4.584
C -92.696 -1.846 0.085
C -91.156 -1.806 -1.993
C -91.22 -1.825 -0.435
C -92.586 -1.812 -2.632
C -91.32 -1.882 2.265
C -92.751 -1.874 1.648
C -92.513 -1.802 -4.195
C -91.036 -1.796 -4.694
C -93.363 -3.07 -2.114
C -93.428 -3.09 -0.523
C -90.315 -3.033 -2.515
C -90.425 -3.067 0.124
C -92.678 -4.373 0.011
C -91.085 -4.329 -2.033
C -91.15 -4.349 -0.452
C -92.57 -4.34 -2.618
C -93.514 -3.14 2.104
C -90.485 -3.093 1.702
C -91.251 -4.384 2.142
C -92.732 -4.394 1.592
C -93.239 -3.055 -4.739
C -90.243 -3.018 -4.092
C -92.495 -4.321 -4.199
C -90.97 -4.296 -4.626
C -93.34 -5.638 -2.146
C -93.406 -5.658 -0.555
C -90.301 -5.595 -2.547
C -90.413 -5.631 0.091
C -92.656 -6.904 0.021
C -91.116 -6.858 -2.056
C -91.182 -6.879 -0.499
C -92.542 -6.869 -2.694
C -93.494 -5.676 2.071
C -90.476 -5.649 1.668
C -91.286 -6.896 2.2
C -92.713 -6.918 1.583
C -93.215 -5.59 -4.769
C -90.227 -5.57 -4.123
C -92.468 -6.841 -4.255
C -90.992 -6.801 -4.753
C -94.813 -3.104 -2.739
C -94.922 -3.137 -0.015
C -95.548 -4.376 -2.205
C -95.612 -4.395 -0.636
C -94.973 -3.16 1.553
C -95.701 -4.43 2.082
C -94.739 -3.088 -4.305
C -95.422 -4.344 -4.919
C -94.79 -5.621 -2.769
C -94.901 -5.655 -0.046
C -94.952 -5.672 1.521
C -94.715 -5.6 -4.335
C -82.53 -12.049 0.279
C -81 -11.766 -1.803
C -81.049 -11.804 -0.207
C -82.448 -11.978 -2.389
C -81.157 -11.872 2.422
C -82.599 -12.093 1.867
C -82.421 -11.942 -3.979
C -80.948 -11.708 -4.436
H -79.107 -12.767 0.074
H -79.051 -12.732 -2.039
H -79.208 -12.809 2.31
H -83.061 -13.476 3.472
H -80.684 -14.382 3.461
H -79.038 -12.697 -4.279
H -82.814 -13.26 -5.656
H -80.518 -14.185 -5.575
H -83.946 -13.459 -4.379
H -84.105 -13.656 2.118
H -84.016 -13.578 -0.031
H -83.963 -13.505 -2.217
H -78.748 -15.353 0.011
H -78.709 -15.305 -2.103
H -78.837 -15.429 2.239
H -82.394 -15.964 3.489
H -78.698 -15.251 -4.332
H -82.579 -15.758 -5.659
H -83.556 -15.774 -4.201
H -83.681 -15.924 2.434
H -83.577 -15.839 0.069
H -83.601 -15.751 -2.169
H -81.801 -1.969 3.82
H -81.359 -1.68 -5.152
H -84.404 -3.123 3.598
H -82.208 -4.459 3.7
H -83.909 -2.875 -5.323
H -81.752 -4.166 -5.284
H -84.465 -5.772 3.512
H -82.137 -6.948 3.616
H -84.038 -5.523 -5.414
H -81.714 -6.663 -5.384
H -80.014 -7.829 0.227
H -79.912 -7.785 -1.901
H -80.162 -7.887 2.451
H -84.072 -8.478 3.509
H -81.671 -9.426 3.567
H -79.868 -7.725 -4.132
H -83.634 -8.205 -5.559
H -81.304 -9.173 -5.469
H -84.683 -8.575 -4.241
H -84.974 -8.758 2.064
H -84.844 -8.696 0.011
H -84.737 -8.622 -2.176
H -79.56 -10.261 0.148
H -79.478 -10.226 -1.971
H -79.688 -10.311 2.384
H -83.558 -11.003 3.49
H -79.446 -10.186 -4.211
H -83.223 -10.755 -5.618
H -84.352 -10.96 -4.343
H -84.578 -11.172 2.122
H -84.465 -11.096 -0.016
H -84.385 -11.021 -2.198
H -86.846 -1.918 3.537
H -86.503 -1.98 -5.613
H -89.056 -3.128 3.355
H -86.712 -4.364 3.406
H -88.681 -3.019 -5.618
H -86.285 -4.232 -5.469
H -89.064 -5.626 3.321
H -86.92 -6.717 3.501
H -88.669 -5.495 -5.648
H -86.484 -6.577 -5.66
H -88.417 -0.898 -4.378
H -86.146 -0.788 -4.471
H -88.601 -7.742 -0.125
H -86.23 -7.735 -2.196
H -86.328 -7.771 0.045
H -88.505 -7.708 -2.246
H -86.428 -7.81 2.28
H -88.7 -7.745 2.1
H -88.396 -7.637 -4.468
H -86.139 -7.694 -4.402
H -88.615 -0.919 -0.033
H -86.25 -0.828 -2.141
H -86.335 -0.831 0.079
H -88.521 -0.896 -2.161
H -86.428 -0.884 2.208
H -88.704 -0.985 2.185
H -91.395 -1.958 3.342
H -91.026 -1.85 -5.775
H -93.556 -3.154 3.185
H -91.299 -4.401 3.223
H -93.198 -3.043 -5.82
H -90.931 -4.285 -5.707
H -93.536 -5.694 3.152
H -91.362 -6.854 3.278
H -93.175 -5.578 -5.851
H -90.983 -6.728 -5.833
H -93.013 -0.921 -4.574
H -90.58 -0.844 -4.455
H -93.148 -7.809 -0.311
H -90.629 -7.774 -2.363
H -90.722 -7.804 -0.177
H -93.058 -7.782 -2.428
H -90.801 -7.84 1.989
H -93.227 -7.809 1.92
H -92.95 -7.724 -4.656
H -90.521 -7.75 -4.533
H -93.206 -0.943 -0.223
H -90.684 -0.875 -2.279
H -90.774 -0.902 -0.091
H -93.12 -0.916 -2.344
H -90.847 -0.926 2.081
H -93.28 -1.001 2.008
H -95.689 -4.444 3.164
H -95.332 -4.332 -5.997
H -81.172 -11.898 3.504
H -80.899 -11.674 -5.517
H -95.366 -2.221 -2.447
H -95.452 -2.247 -0.327
H -95.505 -2.289 1.912
H -95.242 -2.208 -4.683
H -96.658 -4.409 -0.362
H -96.57 -4.382 -2.56
H -96.748 -4.436 1.809
H -96.487 -4.357 -4.724
H -95.325 -6.522 -2.498
H -95.413 -6.547 -0.381
H -95.467 -6.562 1.858
H -95.201 -6.481 -4.733
H -79.911 -3.159 -3.919
H -79.986 -3.228 -1.699
H -80.089 -3.283 0.405
H -80.248 -3.362 2.621
H -80.085 -5.439 -4.037
H -80.142 -5.507 -1.815
H -80.25 -5.558 0.309
H -80.408 -5.627 2.524
C -83.595 2.033 -1.38
C -83.605 2.022 0.168
C -80.55 2.029 -1.915
C -80.602 1.928 0.805
C -82.929 0.759 0.703
C -81.396 0.79 -1.397
C -81.448 0.744 0.209
C -82.858 0.806 -1.967
C -83.688 1.984 2.854
C -80.692 1.895 2.378
C -81.586 0.678 2.812
C -83.014 0.726 2.273
C -83.648 2.048 -4.065
C -80.831 2.135 -3.551
C -82.864 0.815 -3.546
C -81.395 0.814 -4.033
C -83.635 -0.406 -1.459
C -83.685 -0.431 0.082
C -80.645 -0.467 -1.925
C -80.787 -0.549 0.76
C -83.794 -0.503 2.794
C -80.889 -0.596 2.311
C -83.587 -0.381 -4.15
C -80.557 -0.414 -3.485
C -82.708 13.627 0.754
C -81.202 13.345 -1.337
C -81.238 13.332 0.254
C -82.65 13.653 -1.901
C -81.331 13.29 2.876
C -82.771 13.606 2.337
C -82.617 13.666 -3.48
C -81.157 13.379 -3.964
C -83.698 12.509 -1.445
C -83.742 12.506 0.132
C -80.76 11.99 -1.903
C -80.839 11.963 0.802
C -83.258 11.072 0.668
C -81.708 10.892 -1.376
C -81.761 10.883 0.2
C -83.167 11.083 -1.948
C -83.848 12.481 2.739
C -80.9 11.943 2.354
C -81.879 10.871 2.837
C -83.321 11.065 2.255
C -83.607 12.511 -4.053
C -80.733 12.006 -3.461
C -83.127 11.087 -3.535
C -81.652 10.907 -4.016
C -84.094 9.849 -1.458
C -84.145 9.841 0.115
C -81.096 9.601 -1.924
C -81.181 9.59 0.784
C -83.437 8.442 0.692
C -81.879 8.404 -1.382
C -81.921 8.391 0.206
C -83.367 8.457 -1.945
C -84.245 9.842 2.714
C -81.25 9.586 2.338
C -82.033 8.39 2.83
C -83.505 8.439 2.267
C -84.016 9.856 -4.058
C -81.073 9.604 -3.481
C -83.346 8.465 -3.523
C -81.851 8.41 -4.009
C -83.955 7.08 -1.387
C -83.979 7.061 0.158
C -81.081 7.175 -1.923
C -81.128 7.166 0.794
C -83.16 5.814 0.741
C -81.67 5.868 -1.363
C -81.678 5.85 0.23
C -83.144 5.836 -1.911
C -84.072 7.056 2.829
C -81.191 7.166 2.352
C -81.761 5.843 2.863
C -83.217 5.804 2.327
C -83.947 7.107 -4.066
C -81.086 7.172 -3.483
C -83.178 5.852 -3.498
C -81.717 5.886 -4.004
C -83.728 4.508 -1.346
C -83.721 4.488 0.199
C -80.831 4.656 -1.925
C -80.824 4.624 0.81
C -83.786 4.468 2.876
C -80.882 4.61 2.373
C -83.833 4.55 -4.022
C -80.92 4.662 -3.486
C -87.291 14.308 0.502
C -85.839 14.017 -1.602
C -85.885 14.043 -0.053
C -87.201 14.284 -2.224
C -85.942 14.052 2.646
C -87.33 14.301 2.062
C -87.145 14.275 -3.786
C -85.771 13.932 -4.378
C -88.183 13.229 -1.658
C -88.231 13.234 -0.079
C -85.177 12.705 -2.076
C -85.255 12.723 0.568
C -87.713 11.838 0.47
C -86.14 11.548 -1.572
C -86.183 11.552 0.015
C -87.635 11.83 -2.149
C -88.303 13.225 2.546
C -85.308 12.719 2.139
C -86.273 11.563 2.59
C -87.76 11.842 2.049
C -88.108 13.205 -4.278
C -85.116 12.697 -3.653
C -87.575 11.826 -3.727
C -86.039 11.53 -4.145
C -88.641 10.726 -1.659
C -88.687 10.727 -0.08
C -85.591 10.128 -2.063
C -85.676 10.128 0.57
C -88.157 9.372 0.511
C -86.667 9.1 -1.571
C -86.713 9.096 -0.016
C -88.073 9.373 -2.204
C -88.765 10.75 2.537
C -85.729 10.136 2.144
C -86.801 9.132 2.695
C -88.204 9.386 2.072
C -88.549 10.743 -4.278
C -85.535 10.126 -3.634
C -88.019 9.385 -3.767
C -86.576 9.14 -4.29
C -91.636 15.222 0.402
C -90.154 14.93 -1.693
C -90.206 14.928 -0.136
C -91.546 15.231 -2.315
C -90.28 14.903 2.566
C -91.675 15.209 1.966
C -91.485 15.229 -3.877
C -90.055 14.919 -4.391
C -92.552 14.156 -1.787
C -92.604 14.15 -0.194
C -89.616 13.543 -2.226
C -89.697 13.543 0.417
C -92.133 12.735 0.336
C -90.604 12.432 -1.726
C -90.652 12.43 -0.144
C -92.052 12.744 -2.297
C -92.666 14.123 2.434
C -89.736 13.538 1.996
C -90.721 12.426 2.455
C -92.169 12.729 1.918
C -92.448 14.15 -4.413
C -89.559 13.543 -3.801
C -91.989 12.749 -3.878
C -90.513 12.439 -4.324
C -93.063 11.636 -1.813
C -93.111 11.63 -0.219
C -90.097 11.023 -2.243
C -90.178 11.02 0.4
C -92.627 10.253 0.357
C -91.143 9.966 -1.739
C -91.189 9.962 -0.18
C -92.545 10.263 -2.366
C -93.166 11.633 2.411
C -90.219 11.023 1.978
C -91.254 9.975 2.523
C -92.662 10.254 1.921
C -92.954 11.661 -4.441
C -90.038 11.031 -3.821
C -92.483 10.277 -3.93
C -91.04 9.995 -4.443
C -93.974 14.433 -2.397
C -94.062 14.42 0.33
C -94.95 13.341 -1.854
C -95 13.333 -0.283
C -94.098 14.408 1.899
C -95.06 13.317 2.442
C -93.91 14.438 -3.965
C -94.838 13.354 -4.577
C -94.477 11.965 -2.426
C -94.561 11.951 0.305
C -94.595 11.945 1.874
C -94.413 11.975 -3.995
C -82.897 3.262 0.747
C -81.369 3.303 -1.349
C -81.365 3.273 0.238
C -82.916 3.296 -1.893
C -81.457 3.24 2.881
C -82.955 3.242 2.341
C -83.038 3.326 -3.47
C -81.618 3.385 -3.988
H -83.654 1.956 3.935
H -81.626 0.637 3.892
H -80.1 2.34 -4.322
H -83.601 2.081 -5.146
H -81.376 0.784 -5.115
H -84.704 1.984 -3.837
H -84.742 2.012 2.61
H -84.644 2.027 0.47
H -84.63 2.027 -1.698
H -83.724 -0.57 3.872
H -83.583 -0.354 -5.232
H -84.611 -0.274 -3.82
H -84.841 -0.299 2.611
H -84.701 -0.276 0.419
H -84.652 -0.229 -1.783
H -81.335 13.244 3.957
H -81.122 13.386 -5.045
H -83.927 12.466 3.818
H -81.917 10.863 3.918
H -83.547 12.521 -5.133
H -81.613 10.907 -5.097
H -84.307 9.846 3.794
H -82.061 8.401 3.911
H -83.98 9.845 -5.14
H -81.822 8.415 -5.091
H -80.083 7.237 0.525
H -80.046 7.24 -1.616
H -80.188 7.25 2.749
H -84.086 7.083 3.911
H -81.773 5.857 3.945
H -80.067 7.206 -3.846
H -83.926 7.105 -5.148
H -81.7 5.892 -5.086
H -84.983 6.956 -3.795
H -85.1 6.87 2.549
H -85.005 6.898 0.458
H -84.972 6.914 -1.715
H -79.785 4.735 0.528
H -79.789 4.767 -1.656
H -79.882 4.719 2.772
H -83.76 4.479 3.958
H -79.921 4.699 -3.9
H -83.814 4.545 -5.103
H -84.882 4.495 -3.765
H -84.836 4.372 2.634
H -84.754 4.395 0.505
H -84.764 4.421 -1.649
H -85.95 14.104 3.726
H -85.879 13.706 -5.43
H -88.331 13.235 3.628
H -86.311 11.578 3.671
H -88.101 13.189 -5.36
H -85.993 11.505 -5.225
H -88.804 10.761 3.618
H -86.86 9.211 3.773
H -88.515 10.749 -5.36
H -86.554 9.245 -5.367
H -87.413 15.25 -4.171
H -85.206 14.853 -4.436
H -88.789 8.553 0.193
H -86.415 8.101 -1.905
H -86.481 8.091 0.312
H -88.726 8.556 -1.93
H -86.547 8.1 2.495
H -88.85 8.591 2.42
H -88.639 8.588 -4.156
H -86.365 8.093 -4.114
H -87.581 15.302 0.187
H -85.319 14.871 -2.015
H -85.391 14.966 0.219
H -87.495 15.285 -1.936
H -85.415 14.916 2.264
H -87.634 15.275 2.422
H -90.348 14.852 3.644
H -90.054 14.882 -5.472
H -92.694 14.122 3.516
H -90.753 12.428 3.536
H -92.409 14.159 -5.495
H -90.479 12.447 -5.405
H -93.194 11.63 3.493
H -91.302 10.037 3.602
H -92.913 11.668 -5.523
H -91.019 10.07 -5.522
H -91.787 16.197 -4.254
H -89.412 15.752 -4.139
H -93.299 9.469 0.033
H -90.853 8.971 -2.051
H -90.917 8.965 0.141
H -93.238 9.479 -2.093
H -90.966 8.955 2.31
H -93.343 9.489 2.268
H -93.144 9.517 -4.326
H -90.769 8.971 -4.225
H -91.946 16.212 0.095
H -89.504 15.744 -1.983
H -89.581 15.744 0.203
H -91.872 16.22 -2.02
H -89.629 15.745 2.367
H -92.005 16.173 2.33
H -95.031 13.302 3.523
H -94.741 13.351 -5.654
H -81.463 3.245 3.963
H -81.656 3.428 -5.068
H -94.322 15.414 -2.099
H -94.393 15.403 0.021
H -94.429 15.372 2.262
H -94.214 15.406 -4.338
H -96.023 13.54 0.003
H -95.953 13.553 -2.202
H -96.089 13.529 2.184
H -95.881 13.569 -4.382
H -95.188 11.197 -2.15
H -95.251 11.185 -0.023
H -95.279 11.181 2.22
H -95.077 11.218 -4.391
H -79.725 11.818 -3.806
H -79.746 11.787 -1.583
H -79.81 11.764 0.531
H -79.916 11.731 2.751
H -80.051 9.52 -3.826
H -80.066 9.526 -1.602
H -80.134 9.516 0.523
H -80.249 9.515 2.741
C -82.348 17.53 -1.286
C -82.387 17.506 0.273
C -79.51 16.885 -1.806
C -79.572 16.863 0.908
C -81.97 16.11 0.834
C -80.505 15.802 -1.278
C -80.538 15.785 0.313
C -81.917 16.146 -1.839
C -82.468 17.48 2.977
C -79.625 16.855 2.465
C -80.613 15.761 2.951
C -82.026 16.095 2.43
C -82.296 17.554 -3.993
C -79.491 16.9 -3.366
C -81.904 16.159 -3.432
C -80.475 15.831 -3.92
C -82.918 15.096 -1.296
C -82.939 15.071 0.253
C -80.158 14.4 -1.854
C -80.215 14.368 0.857
C -82.98 15.016 3.012
C -80.271 14.349 2.416
C -82.904 15.118 -3.986
C -80.136 14.42 -3.413
C -78.664 28.53 1.051
C -77.256 27.961 -1.047
C -77.287 27.941 0.544
C -78.612 28.567 -1.604
C -77.379 27.895 3.163
C -78.724 28.51 2.635
C -78.582 28.585 -3.183
C -77.209 28.01 -3.672
C -79.873 27.668 -1.155
C -79.912 27.662 0.422
C -77.102 26.547 -1.626
C -77.179 26.508 1.075
C -79.735 26.156 0.939
C -78.26 25.663 -1.112
C -78.313 25.649 0.464
C -79.648 26.172 -1.678
C -80.011 27.637 3.03
C -77.241 26.484 2.627
C -78.428 25.632 3.097
C -79.794 26.148 2.525
C -79.79 27.673 -3.763
C -77.072 26.574 -3.182
C -79.607 26.181 -3.265
C -78.199 25.696 -3.747
C -80.815 25.167 -1.204
C -80.868 25.161 0.371
C -77.943 24.27 -1.678
C -78.042 24.245 1.026
C -80.509 23.656 0.905
C -78.985 23.271 -1.164
C -79.045 23.259 0.424
C -80.41 23.67 -1.739
C -80.96 25.159 2.974
C -78.115 24.235 2.58
C -79.169 23.25 3.047
C -80.581 23.653 2.482
C -80.734 25.182 -3.807
C -77.905 24.29 -3.232
C -80.369 23.685 -3.317
C -78.918 23.302 -3.788
C -81.32 22.487 -1.233
C -81.379 22.476 0.314
C -78.513 21.884 -1.72
C -78.612 21.867 0.989
C -80.955 21.079 0.881
C -79.449 20.774 -1.202
C -79.505 20.763 0.388
C -80.861 21.099 -1.783
C -81.497 22.471 3.003
C -78.685 21.863 2.546
C -79.618 20.752 3.026
C -81.026 21.074 2.472
C -81.237 22.516 -3.93
C -78.476 21.902 -3.279
C -80.824 21.116 -3.376
C -79.383 20.8 -3.841
C -81.831 19.995 -1.264
C -81.881 19.978 0.293
C -78.977 19.39 -1.762
C -79.061 19.374 0.952
C -81.979 19.959 2.992
C -79.126 19.369 2.51
C -81.76 20.023 -3.967
C -78.947 19.404 -3.321
C -83.033 30.146 0.826
C -81.674 29.586 -1.289
C -81.706 29.612 0.261
C -82.965 30.116 -1.901
C -81.745 29.616 2.959
C -83.063 30.14 2.387
C -82.92 30.101 -3.465
C -81.636 29.504 -4.063
C -84.134 29.272 -1.334
C -84.173 29.283 0.246
C -81.286 28.17 -1.775
C -81.348 28.188 0.869
C -83.939 27.816 0.787
C -82.464 27.231 -1.272
C -82.502 27.239 0.316
C -83.875 27.799 -1.834
C -84.23 29.278 2.873
C -81.392 28.186 2.441
C -82.571 27.255 2.894
C -83.976 27.822 2.367
C -84.077 29.242 -3.956
C -81.235 28.158 -3.352
C -83.824 27.789 -3.413
C -82.381 27.205 -3.846
C -85.078 26.914 -1.339
C -85.117 26.922 0.241
C -82.22 25.739 -1.779
C -82.298 25.748 0.859
C -84.873 25.498 0.827
C -83.482 24.95 -1.267
C -83.526 24.957 0.287
C -84.799 25.486 -1.893
C -85.177 26.953 2.862
C -82.342 25.758 2.434
C -83.593 25.009 3.014
C -84.91 25.516 2.389
C -84.995 26.919 -3.961
C -82.169 25.732 -3.349
C -84.747 25.489 -3.455
C -83.39 24.968 -3.985
C -87.132 31.874 0.752
C -85.743 31.313 -1.353
C -85.787 31.317 0.204
C -87.056 31.873 -1.968
C -85.85 31.297 2.908
C -87.165 31.864 2.316
C -87.003 31.862 -3.531
C -85.661 31.289 -4.052
C -88.247 31.009 -1.436
C -88.291 31.009 0.158
C -85.484 29.853 -1.893
C -85.55 29.861 0.752
C -88.099 29.531 0.683
C -86.666 28.951 -1.389
C -86.707 28.956 0.193
C -88.03 29.529 -1.951
C -88.345 30.986 2.787
C -85.582 29.858 2.331
C -86.763 28.957 2.794
C -88.128 29.527 2.265
C -88.158 30.987 -4.064
C -85.436 29.845 -3.469
C -87.974 29.525 -3.532
C -86.588 28.945 -3.989
C -89.231 28.631 -1.463
C -89.272 28.631 0.131
C -86.447 27.477 -1.912
C -86.515 27.485 0.732
C -89.06 27.187 0.702
C -87.669 26.631 -1.402
C -87.708 26.633 0.157
C -88.989 27.186 -2.021
C -89.313 28.638 2.762
C -86.548 27.49 2.31
C -87.757 26.65 2.86
C -89.087 27.19 2.266
C -89.13 28.639 -4.092
C -86.394 27.475 -3.491
C -88.933 27.19 -3.585
C -87.574 26.642 -4.105
C -89.593 31.55 -2.04
C -89.669 31.548 0.69
C -90.756 30.662 -1.493
C -90.8 30.661 0.079
C -89.699 31.539 2.259
C -90.848 30.649 2.806
C -89.536 31.544 -3.608
C -90.655 30.658 -4.217
C -90.558 29.223 -2.068
C -90.631 29.22 0.663
C -90.658 29.216 2.233
C -90.5 29.222 -3.638
C -81.452 18.587 0.855
C -79.946 18.284 -1.242
C -79.99 18.271 0.354
C -81.377 18.614 -1.814
C -80.085 18.254 2.982
C -81.513 18.576 2.444
C -81.351 18.631 -3.404
C -79.898 18.311 -3.872
H -78.551 16.64 0.628
H -78.504 16.651 -1.483
H -78.643 16.638 2.863
H -82.445 17.467 4.059
H -80.601 15.739 4.033
H -78.494 16.674 -3.722
H -82.215 17.549 -5.072
H -80.436 15.836 -5.002
H -83.332 17.79 -3.79
H -83.496 17.698 2.718
H -83.405 17.726 0.563
H -83.349 17.763 -1.624
H -79.205 14.099 0.578
H -79.162 14.121 -1.536
H -79.302 14.067 2.807
H -82.806 14.917 4.075
H -79.146 14.161 -3.766
H -82.939 15.145 -5.067
H -83.84 15.504 -3.604
H -83.975 15.442 3.008
H -83.858 15.472 0.659
H -83.859 15.55 -1.574
H -77.39 27.84 4.244
H -77.174 28.018 -4.753
H -80.085 27.625 4.109
H -78.463 25.619 4.178
H -79.731 27.683 -4.843
H -78.157 25.702 -4.828
H -81.005 25.15 4.055
H -79.198 23.246 4.128
H -80.707 25.191 -4.889
H -78.869 23.317 -4.868
H -77.582 21.662 0.729
H -77.505 21.674 -1.39
H -77.702 21.664 2.952
H -81.527 22.477 4.085
H -79.636 20.743 4.108
H -77.468 21.705 -3.618
H -81.168 22.533 -5.01
H -79.328 20.809 -4.921
H -82.294 22.578 -3.707
H -82.527 22.537 2.678
H -82.422 22.546 0.595
H -82.334 22.564 -1.604
H -78.033 19.174 0.682
H -77.968 19.18 -1.431
H -78.142 19.174 2.916
H -81.966 19.943 4.074
H -77.943 19.198 -3.669
H -81.678 20.018 -5.046
H -82.801 20.237 -3.765
H -83.008 20.159 2.727
H -82.906 20.177 0.576
H -82.835 20.204 -1.61
H -81.738 29.659 4.04
H -81.786 29.312 -5.118
H -84.249 29.286 3.955
H -82.596 27.269 3.975
H -84.077 29.228 -5.038
H -82.348 27.177 -4.927
H -85.207 26.967 3.943
H -83.623 25.119 4.09
H -84.965 26.918 -5.043
H -83.355 25.035 -5.064
H -82.995 31.111 -3.844
H -80.902 30.298 -4.109
H -85.651 24.817 0.51
H -83.474 23.918 -1.593
H -83.532 23.933 0.638
H -85.596 24.808 -1.615
H -83.591 23.94 2.845
H -85.694 24.858 2.74
H -85.51 24.828 -3.843
H -83.418 23.909 -3.762
H -83.124 31.179 0.517
H -81 30.327 -1.7
H -81.038 30.418 0.534
H -83.057 31.153 -1.609
H -81.06 30.364 2.582
H -83.167 31.153 2.752
H -85.921 31.254 3.987
H -85.671 31.254 -5.134
H -88.366 30.986 3.869
H -86.789 28.959 3.876
H -88.121 30.988 -5.145
H -86.558 28.947 -5.07
H -89.336 28.635 3.843
H -87.786 26.713 3.94
H -89.094 28.638 -5.174
H -87.544 26.708 -5.185
H -87.117 32.871 -3.905
H -84.868 31.981 -3.801
H -89.87 26.545 0.38
H -87.576 25.599 -1.715
H -87.631 25.602 0.476
H -89.816 26.546 -1.744
H -87.671 25.594 2.641
H -89.899 26.567 2.617
H -89.727 26.569 -3.978
H -87.502 25.586 -3.884
H -87.248 32.906 0.448
H -84.949 31.987 -1.646
H -85.014 31.994 0.542
H -87.185 32.905 -1.67
H -85.049 31.997 2.709
H -87.303 32.872 2.684
H -90.816 30.624 3.887
H -90.562 30.636 -5.295
H -80.095 18.237 4.064
H -79.848 18.319 -4.953
H -89.746 32.578 -1.738
H -89.807 32.576 0.383
H -89.838 32.547 2.627
H -89.651 32.554 -3.98
H -91.763 31.057 0.371
H -91.702 31.061 -1.836
H -91.82 31.054 2.555
H -91.637 31.066 -4.019
H -91.399 28.602 -1.789
H -91.455 28.599 0.337
H -91.473 28.595 2.581
H -91.297 28.605 -4.031
H -76.123 26.188 -3.531
H -76.154 26.134 -1.309
H -76.216 26.099 0.8
H -76.325 26.064 3.02
H -76.922 23.996 -3.573
H -76.96 23.959 -1.351
H -77.038 23.936 0.764
H -77.16 23.924 2.983
C -77.548 32.291 -0.967
C -77.585 32.267 0.592
C -74.893 31.103 -1.501
C -74.95 31.08 1.213
C -77.447 30.813 1.145
C -76.081 30.233 -0.974
C -76.11 30.212 0.617
C -77.398 30.855 -1.528
C -77.661 32.242 3.296
C -74.999 31.075 2.77
C -76.18 30.186 3.253
C -77.499 30.799 2.741
C -77.5 32.32 -3.675
C -74.875 31.121 -3.061
C -77.386 30.875 -3.121
C -76.052 30.272 -3.616
C -78.584 30.024 -0.986
C -78.604 29.992 0.562
C -76.021 28.791 -1.559
C -76.074 28.751 1.15
C -78.643 29.924 3.323
C -76.129 28.731 2.709
C -78.575 30.062 -3.678
C -75.999 28.818 -3.118
C -71.787 42.352 1.372
C -70.524 41.524 -0.733
C -70.554 41.507 0.858
C -71.739 42.384 -1.284
C -70.644 41.474 3.478
C -71.845 42.341 2.955
C -71.711 42.399 -2.863
C -70.479 41.568 -3.358
C -73.149 41.748 -0.831
C -73.182 41.745 0.747
C -70.651 40.109 -1.314
C -70.725 40.08 1.388
C -73.301 40.234 1.261
C -71.957 39.467 -0.797
C -72.006 39.46 0.78
C -73.222 40.238 -1.356
C -73.275 41.735 3.354
C -70.785 40.065 2.94
C -72.113 39.46 3.413
C -73.355 40.234 2.847
C -73.076 41.741 -3.439
C -70.621 40.133 -2.87
C -73.184 40.242 -2.943
C -71.899 39.493 -3.432
C -74.56 39.478 -0.879
C -74.608 39.48 0.696
C -71.919 38.04 -1.365
C -72.012 38.029 1.34
C -74.547 37.931 1.227
C -73.134 37.263 -0.848
C -73.19 37.259 0.74
C -74.456 37.934 -1.417
C -74.689 39.489 3.299
C -72.08 38.03 2.893
C -73.305 37.267 3.363
C -74.613 37.939 2.804
C -74.487 39.483 -3.482
C -71.883 38.056 -2.919
C -74.418 37.944 -2.995
C -73.071 37.286 -3.472
C -75.577 36.949 -0.908
C -75.631 36.945 0.639
C -72.942 35.813 -1.407
C -73.033 35.807 1.302
C -75.485 35.49 1.202
C -74.074 34.904 -0.887
C -74.126 34.898 0.703
C -75.397 35.501 -1.462
C -75.739 36.956 3.328
C -73.101 35.813 2.86
C -74.231 34.903 3.341
C -75.551 35.494 2.793
C -75.498 36.968 -3.606
C -72.907 35.827 -2.966
C -75.362 35.515 -3.055
C -74.013 34.925 -3.526
C -76.561 34.605 -0.941
C -76.609 34.592 0.616
C -73.882 33.457 -1.451
C -73.959 33.447 1.263
C -76.7 34.582 3.316
C -74.019 33.45 2.821
C -76.494 34.629 -3.644
C -73.854 33.469 -3.01
C -75.758 44.79 1.165
C -74.542 43.981 -0.956
C -74.562 44.009 0.594
C -75.707 44.753 -1.563
C -74.59 44.015 3.293
C -75.783 44.787 2.726
C -75.67 44.732 -3.126
C -74.53 43.898 -3.73
C -77.016 44.152 -0.992
C -77.046 44.167 0.588
C -74.439 42.517 -1.445
C -74.487 42.541 1.2
C -77.101 42.681 1.127
C -75.775 41.825 -0.939
C -75.805 41.836 0.649
C -77.051 42.658 -1.495
C -77.094 44.168 3.216
C -74.525 42.545 2.771
C -75.861 41.861 3.228
C -77.13 42.692 2.706
C -76.975 44.117 -3.614
C -74.396 42.498 -3.023
C -77.008 42.641 -3.074
C -75.708 41.788 -3.513
C -78.401 42.024 -0.996
C -78.432 42.036 0.583
C -75.829 40.314 -1.448
C -75.894 40.333 1.19
C -78.468 40.59 1.167
C -77.219 39.786 -0.933
C -77.255 39.797 0.621
C -78.408 40.569 -1.553
C -78.476 42.072 3.205
C -75.93 40.348 2.764
C -77.301 39.856 3.349
C -78.496 40.612 2.729
C -78.328 42.017 -3.619
C -75.785 40.301 -3.019
C -78.362 40.566 -3.115
C -77.134 39.791 -3.652
C -79.441 47.285 1.109
C -78.196 46.467 -1.002
C -78.233 46.477 0.555
C -79.376 47.274 -1.611
C -78.289 46.465 3.259
C -79.47 47.278 2.673
C -79.332 47.256 -3.174
C -78.13 46.434 -3.702
C -80.711 46.657 -1.076
C -80.749 46.663 0.518
C -78.228 44.986 -1.545
C -78.283 45.002 1.1
C -80.847 45.175 1.04
C -79.562 44.331 -1.038
C -79.595 44.34 0.544
C -80.788 45.165 -1.594
C -80.797 46.646 3.148
C -78.308 45.002 2.68
C -79.641 44.347 3.146
C -80.871 45.174 2.623
C -80.637 46.624 -3.704
C -78.188 44.972 -3.121
C -80.74 45.153 -3.175
C -79.495 44.315 -3.638
C -82.14 44.518 -1.102
C -82.175 44.523 0.492
C -79.636 42.843 -1.564
C -79.692 42.859 1.081
C -82.247 43.063 1.06
C -80.998 42.251 -1.05
C -81.03 42.258 0.509
C -82.187 43.055 -1.663
C -82.204 44.531 3.123
C -79.718 42.867 2.659
C -81.065 42.278 3.213
C -82.267 43.069 2.624
C -82.049 44.511 -3.732
C -79.59 42.835 -3.142
C -82.136 43.05 -3.227
C -80.912 42.25 -3.754
C -81.928 47.452 -1.674
C -81.993 47.46 1.056
C -83.24 46.808 -1.123
C -83.277 46.811 0.449
C -82.019 47.454 2.626
C -83.318 46.803 3.175
C -81.878 47.439 -3.242
C -83.151 46.789 -3.849
C -83.328 45.358 -1.702
C -83.391 45.364 1.03
C -83.413 45.362 2.6
C -83.277 45.35 -3.271
C -76.456 33.142 1.173
C -75.045 32.559 -0.93
C -75.086 32.546 0.666
C -76.385 33.166 -1.496
C -75.175 32.537 3.293
C -76.514 33.136 2.762
C -76.361 33.184 -3.086
C -75.001 32.587 -3.561
H -73.993 30.663 0.928
H -73.952 30.675 -1.182
H -74.076 30.67 3.163
H -77.636 32.22 4.378
H -76.168 30.157 4.335
H -73.944 30.706 -3.421
H -77.426 32.304 -4.754
H -76.016 30.275 -4.697
H -78.469 32.754 -3.465
H -78.627 32.658 3.044
H -78.54 32.68 0.888
H -78.485 32.718 -1.299
H -75.138 28.288 0.867
H -75.1 28.318 -1.246
H -75.234 28.26 3.095
H -78.481 29.781 4.384
H -75.081 28.37 -3.475
H -78.607 30.103 -4.759
H -79.415 30.622 -3.289
H -79.536 30.535 3.336
H -79.427 30.558 0.977
H -79.421 30.655 -1.257
H -70.66 41.421 4.558
H -70.446 41.571 -4.44
H -73.347 41.736 4.434
H -72.146 39.452 4.495
H -73.02 41.742 -4.52
H -71.861 39.493 -4.513
H -74.731 39.488 4.38
H -73.329 37.267 4.445
H -74.462 39.488 -4.564
H -73.024 37.293 -4.553
H -72.064 35.407 1.038
H -71.992 35.41 -1.081
H -72.175 35.426 3.262
H -75.764 36.965 4.41
H -74.246 34.895 4.423
H -71.958 35.438 -3.309
H -75.432 36.975 -4.686
H -73.96 34.926 -4.607
H -76.521 37.235 -3.377
H -76.738 37.222 3.008
H -76.639 37.217 0.924
H -76.557 37.223 -1.275
H -72.99 33.052 0.988
H -72.932 33.054 -1.124
H -73.09 33.067 3.223
H -76.687 34.562 4.397
H -72.91 33.074 -3.362
H -76.42 34.611 -4.723
H -77.473 35.041 -3.437
H -77.672 34.979 3.055
H -77.575 34.985 0.904
H -77.506 35.007 -1.282
H -74.571 44.053 4.374
H -74.718 43.742 -4.784
H -77.107 44.177 4.297
H -75.879 41.877 4.309
H -76.981 44.105 -4.696
H -75.685 41.756 -4.595
H -78.499 42.09 4.286
H -77.306 39.968 4.425
H -78.303 42.013 -4.701
H -77.09 39.853 -4.731
H -75.549 45.739 -3.504
H -73.656 44.534 -3.778
H -79.366 40.075 0.852
H -77.413 38.773 -1.261
H -77.459 38.793 0.97
H -79.321 40.059 -1.273
H -77.508 38.808 3.177
H -79.392 40.119 3.083
H -79.241 40.067 -3.502
H -77.367 38.758 -3.431
H -75.647 45.821 0.858
H -73.738 44.576 -1.368
H -73.749 44.669 0.866
H -75.594 45.788 -1.268
H -73.774 44.615 2.914
H -75.687 45.8 3.093
H -78.364 46.434 4.338
H -78.15 46.403 -4.783
H -80.814 46.648 4.23
H -79.662 44.352 4.228
H -80.605 46.621 -4.786
H -79.469 44.313 -4.719
H -82.223 44.532 4.204
H -81.078 42.343 4.293
H -82.017 44.505 -4.813
H -80.873 42.31 -4.833
H -79.249 48.269 -3.547
H -77.216 46.957 -3.453
H -83.167 42.593 0.741
H -81.109 41.222 -1.365
H -81.155 41.231 0.826
H -83.122 42.587 -1.384
H -81.188 41.226 2.991
H -83.184 42.615 2.977
H -83.038 42.597 -3.618
H -81.047 41.199 -3.534
H -79.355 48.32 0.807
H -77.287 46.975 -1.297
H -77.341 46.99 0.891
H -79.301 48.311 -1.312
H -77.367 46.995 3.058
H -79.407 48.293 3.043
H -83.287 46.77 4.256
H -83.068 46.751 -4.927
H -75.184 32.52 4.375
H -74.954 32.589 -4.642
H -81.876 48.49 -1.37
H -81.929 48.496 0.752
H -81.957 48.469 2.995
H -81.796 48.452 -3.612
H -84.144 47.387 0.744
H -84.091 47.384 -1.462
H -84.192 47.391 2.928
H -84.034 47.38 -3.646
H -84.274 44.913 -1.42
H -84.321 44.916 0.706
H -84.332 44.911 2.95
H -84.18 44.9 -3.663
H -69.767 39.57 -3.223
H -69.8 39.518 -1.001
H -69.861 39.492 1.108
H -69.967 39.473 3.328
H -70.977 37.577 -3.265
H -71.014 37.544 -1.042
H -71.089 37.531 1.074
H -71.203 37.538 3.293
C -69.967 45.827 -0.646
C -70.003 45.806 0.912
C -67.596 44.145 -1.192
C -67.647 44.127 1.522
C -70.148 44.353 1.464
C -68.929 43.523 -0.662
C -68.956 43.504 0.93
C -70.101 44.39 -1.21
C -70.072 45.792 3.617
C -67.691 44.129 3.079
C -69.021 43.487 3.566
C -70.197 44.347 3.06
C -69.924 45.851 -3.355
C -67.581 44.162 -2.752
C -70.092 44.411 -2.803
C -68.903 43.56 -3.304
C -71.425 43.806 -0.665
C -71.445 43.775 0.884
C -69.154 42.098 -1.249
C -69.204 42.063 1.461
C -71.487 43.71 3.645
C -69.256 42.051 3.02
C -71.418 43.847 -3.356
C -69.132 42.123 -2.808
C -62.354 54.555 1.683
C -61.283 53.503 -0.428
C -61.31 53.488 1.163
C -62.309 54.582 -0.973
C -61.395 53.467 3.784
C -62.407 54.552 3.267
C -62.285 54.595 -2.552
C -61.239 53.543 -3.054
C -63.813 54.237 -0.515
C -63.841 54.238 1.062
C -61.684 52.141 -1.011
C -61.754 52.121 1.691
C -64.25 52.778 1.575
C -63.089 51.769 -0.489
C -63.133 51.768 1.088
C -64.18 52.772 -1.043
C -63.925 54.241 3.67
C -61.81 52.115 3.244
C -63.228 51.783 3.722
C -64.297 52.786 3.161
C -63.752 54.222 -3.125
C -61.656 52.163 -2.567
C -64.148 52.773 -2.63
C -63.036 51.788 -3.125
C -65.639 52.29 -0.562
C -65.68 52.297 1.014
C -63.331 50.364 -1.059
C -63.415 50.365 1.646
C -65.919 50.766 1.543
C -64.672 49.839 -0.538
C -64.722 49.842 1.05
C -65.839 50.756 -1.101
C -65.749 52.317 3.618
C -63.476 50.376 3.2
C -64.824 49.868 3.674
C -65.978 50.783 3.121
C -65.575 52.286 -3.165
C -63.298 50.376 -2.614
C -65.805 50.762 -2.68
C -64.615 49.854 -3.163
C -67.128 50.009 -0.59
C -67.177 50.013 0.958
C -64.767 48.381 -1.1
C -64.849 48.387 1.61
C -67.314 48.556 1.519
C -66.052 47.71 -0.576
C -66.098 47.712 1.014
C -67.236 48.555 -1.146
C -67.271 50.039 3.648
C -64.908 48.404 3.168
C -66.192 47.731 3.653
C -67.373 48.57 3.11
C -67.057 50.018 -3.288
C -64.736 48.391 -2.659
C -67.204 48.565 -2.739
C -65.997 47.724 -3.217
C -68.549 47.903 -0.622
C -68.593 47.896 0.936
C -66.147 46.255 -1.143
C -66.215 46.255 1.571
C -68.675 47.898 3.636
C -66.268 46.267 3.13
C -68.489 47.918 -3.325
C -66.122 46.265 -2.703
C -65.767 57.73 1.493
C -64.741 56.703 -0.633
C -64.75 56.731 0.917
C -65.734 57.689 -1.234
C -64.766 56.738 3.615
C -65.786 57.729 3.055
C -65.708 57.665 -2.798
C -64.756 56.625 -3.408
C -67.133 57.355 -0.659
C -67.154 57.372 0.921
C -64.928 55.248 -1.124
C -64.961 55.275 1.521
C -67.497 55.925 1.458
C -66.372 54.829 -0.613
C -66.393 54.843 0.975
C -67.461 55.898 -1.164
C -67.191 57.378 3.549
C -64.992 55.283 3.093
C -66.434 54.873 3.553
C -67.517 55.938 3.038
C -67.109 57.318 -3.281
C -64.895 55.223 -2.702
C -67.428 55.876 -2.743
C -66.322 54.785 -3.188
C -68.907 55.538 -0.66
C -68.93 55.553 0.919
C -66.722 53.359 -1.125
C -66.773 53.386 1.514
C -69.246 54.142 1.502
C -68.186 53.112 -0.604
C -68.213 53.127 0.95
C -69.201 54.114 -1.219
C -68.956 55.592 3.541
C -66.799 53.404 3.089
C -68.237 53.189 3.678
C -69.263 54.165 3.064
C -68.846 55.523 -3.283
C -66.686 53.341 -2.696
C -69.161 54.105 -2.781
C -68.112 53.107 -3.323
C -68.891 60.897 1.456
C -67.837 59.857 -0.661
C -67.866 59.87 0.897
C -68.839 60.88 -1.265
C -67.913 59.864 3.601
C -68.915 60.894 3.02
C -68.805 60.857 -2.828
C -67.788 59.816 -3.361
C -70.267 60.535 -0.725
C -70.297 60.545 0.869
C -68.16 58.411 -1.206
C -68.201 58.432 1.44
C -70.683 59.103 1.39
C -69.595 58.029 -0.694
C -69.62 58.041 0.888
C -70.636 59.087 -1.244
C -70.338 60.532 3.499
C -68.221 58.434 3.019
C -69.654 58.051 3.49
C -70.7 59.103 2.973
C -70.21 60.493 -3.353
C -68.13 58.393 -2.782
C -70.597 59.07 -2.826
C -69.541 58.006 -3.294
C -72.086 58.715 -0.748
C -72.114 58.724 0.846
C -69.96 56.585 -1.222
C -70.003 56.606 1.423
C -72.467 57.306 1.412
C -71.409 56.269 -0.704
C -71.434 56.279 0.856
C -72.42 57.291 -1.311
C -72.132 58.733 3.477
C -70.02 56.616 3.002
C -71.455 56.301 3.559
C -72.481 57.312 2.977
C -72.008 58.696 -3.379
C -69.922 56.571 -2.801
C -72.377 57.28 -2.875
C -71.335 56.257 -3.408
C -71.307 61.553 -1.317
C -71.36 61.568 1.413
C -72.718 61.176 -0.763
C -72.749 61.183 0.81
C -71.381 61.564 2.983
C -72.78 61.178 3.536
C -71.267 61.533 -2.886
C -72.644 61.146 -3.488
C -73.09 59.773 -1.342
C -73.141 59.785 1.39
C -73.156 59.785 2.96
C -73.047 59.758 -2.912
C -68.723 46.443 1.491
C -67.461 45.6 -0.619
C -67.497 45.593 0.977
C -68.659 46.458 -1.179
C -67.577 45.596 3.605
C -68.776 46.445 3.08
C -68.637 46.474 -2.769
C -67.421 45.624 -3.25
H -66.791 43.533 1.233
H -66.756 43.541 -0.877
H -66.864 43.551 3.469
H -70.048 45.764 4.699
H -69.011 43.454 4.648
H -66.749 43.573 -3.116
H -69.858 45.823 -4.435
H -68.87 43.558 -4.385
H -70.789 46.465 -3.141
H -70.94 46.388 3.369
H -70.858 46.398 1.213
H -70.804 46.429 -0.974
H -68.377 41.427 1.173
H -68.341 41.454 -0.94
H -68.469 41.414 3.402
H -71.352 43.537 4.705
H -68.321 41.506 -3.169
H -71.446 43.896 -4.437
H -72.132 44.559 -2.963
H -72.243 44.484 3.662
H -72.14 44.49 1.303
H -72.124 44.588 -0.931
H -61.418 53.416 4.864
H -61.21 53.541 -4.136
H -63.991 54.254 4.75
H -63.258 51.78 4.804
H -63.7 54.214 -4.206
H -63.002 51.782 -4.206
H -65.786 52.322 4.699
H -64.844 49.871 4.756
H -65.553 52.288 -4.247
H -64.57 49.854 -4.244
H -63.976 47.807 1.341
H -63.913 47.8 -0.778
H -64.073 47.843 3.566
H -67.289 50.051 4.729
H -66.204 47.724 4.734
H -63.881 47.825 -3.007
H -66.994 50.013 -4.368
H -65.949 47.717 -4.297
H -68.007 50.479 -3.055
H -68.2 50.496 3.332
H -68.112 50.475 1.247
H -68.038 50.47 -0.953
H -65.342 45.679 1.292
H -65.292 45.674 -0.821
H -65.43 45.709 3.527
H -68.662 47.874 4.718
H -65.275 45.694 -3.059
H -68.423 47.889 -4.405
H -69.367 48.513 -3.113
H -69.552 48.478 3.38
H -69.463 48.469 1.228
H -69.399 48.481 -0.958
H -64.735 56.77 4.696
H -64.975 56.51 -4.461
H -67.198 57.387 4.631
H -66.444 54.891 4.635
H -67.121 57.31 -4.363
H -66.31 54.752 -4.27
H -68.971 55.613 4.623
H -68.216 53.297 4.754
H -68.826 55.517 -4.365
H -68.059 53.161 -4.403
H -65.393 58.629 -3.174
H -63.775 57.079 -3.462
H -70.228 53.812 1.19
H -68.575 52.158 -0.933
H -68.609 52.182 1.298
H -70.194 53.792 -0.936
H -68.645 52.201 3.506
H -70.237 53.856 3.42
H -70.122 53.788 -3.165
H -68.541 52.138 -3.103
H -65.458 58.721 1.188
H -63.84 57.133 -1.049
H -63.823 57.222 1.185
H -65.42 58.681 -0.939
H -63.85 57.168 3.232
H -65.492 58.703 3.423
H -67.989 59.846 4.68
H -67.818 59.793 -4.442
H -70.351 60.535 4.581
H -69.67 58.058 4.572
H -70.183 60.485 -4.435
H -69.52 58.001 -4.376
H -72.147 58.735 4.559
H -71.451 56.365 4.64
H -71.981 58.687 -4.46
H -71.289 56.31 -4.487
H -68.527 61.834 -3.2
H -66.789 60.151 -3.115
H -73.463 57.024 1.096
H -71.721 55.282 -1.019
H -71.756 55.296 1.172
H -73.427 57.015 -1.029
H -71.782 55.294 3.337
H -73.467 57.045 3.333
H -73.351 57.013 -3.264
H -71.672 55.252 -3.189
H -68.606 61.897 1.155
H -66.847 60.177 -0.959
H -66.89 60.198 1.23
H -68.562 61.881 -0.964
H -66.907 60.204 3.396
H -68.654 61.876 3.391
H -72.752 61.138 4.617
H -72.574 61.095 -4.566
H -67.585 45.579 4.686
H -67.378 45.619 -4.331
H -71.053 62.56 -1.013
H -71.096 62.572 1.11
H -71.121 62.546 3.353
H -70.989 62.512 -3.255
H -73.485 61.917 1.11
H -73.441 61.908 -1.097
H -73.524 61.926 3.294
H -73.394 61.898 -3.282
H -74.103 59.52 -1.058
H -74.142 59.528 1.069
H -74.144 59.521 3.313
H -74.021 59.494 -3.301
H -60.93 51.444 -2.925
H -60.964 51.396 -0.701
H -61.022 51.377 1.408
H -61.121 51.374 3.629
H -62.504 49.729 -2.963
H -62.539 49.699 -0.74
H -62.608 49.697 1.375
H -62.71 49.722 3.595
C -59.912 57.61 -0.338
C -59.947 57.594 1.22
C -57.909 55.504 -0.895
C -57.954 55.491 1.819
C -60.363 56.195 1.771
C -59.334 55.15 -0.361
C -59.359 55.133 1.231
C -60.318 56.229 -0.904
C -60.008 57.587 3.927
C -57.991 55.498 3.377
C -59.416 55.124 3.868
C -60.406 56.195 3.368
C -59.873 57.631 -3.049
C -57.896 55.521 -2.456
C -60.31 56.25 -2.496
C -59.31 55.187 -3.003
C -61.726 55.913 -0.353
C -61.746 55.883 1.196
C -59.83 53.799 -0.949
C -59.877 53.768 1.761
C -61.789 55.821 3.96
C -59.924 53.763 3.321
C -61.72 55.958 -3.045
C -59.809 53.822 -2.508
C -50.769 64.679 1.995
C -49.95 63.445 -0.129
C -49.971 63.424 1.462
C -50.736 64.714 -0.661
C -50.049 63.405 4.087
C -50.814 64.678 3.579
C -50.717 64.732 -2.241
C -49.91 63.497 -2.758
C -52.273 64.666 -0.207
C -52.291 64.667 1.37
C -50.606 62.196 -0.719
C -50.672 62.174 1.987
C -52.98 63.317 1.88
C -52.049 62.105 -0.192
C -52.089 62.108 1.385
C -52.921 63.305 -0.74
C -52.365 64.679 3.98
C -50.725 62.172 3.54
C -52.174 62.133 4.023
C -53.021 63.33 3.466
C -52.224 64.647 -2.819
C -50.577 62.221 -2.275
C -52.895 63.304 -2.328
C -52 62.124 -2.83
C -54.442 63.116 -0.256
C -54.476 63.128 1.319
C -52.554 60.778 -0.766
C -52.632 60.787 1.941
C -55.006 61.673 1.846
C -53.967 60.524 -0.242
C -54.012 60.535 1.347
C -54.935 61.652 -0.8
C -54.533 63.156 3.924
C -52.686 60.806 3.495
C -54.102 60.572 3.973
C -55.055 61.697 3.423
C -54.387 63.105 -2.861
C -52.522 60.788 -2.321
C -54.904 61.654 -2.379
C -53.912 60.535 -2.868
C -56.34 61.169 -0.286
C -56.384 61.179 1.262
C -54.335 59.115 -0.807
C -54.408 59.131 1.904
C -56.792 59.774 1.821
C -55.721 58.705 -0.28
C -55.762 58.712 1.31
C -56.721 59.762 -0.845
C -56.464 61.217 3.953
C -54.46 59.155 3.462
C -55.843 58.742 3.951
C -56.842 59.795 3.413
C -56.274 61.168 -2.986
C -54.306 59.122 -2.366
C -56.692 59.769 -2.438
C -55.67 58.713 -2.921
C -58.131 59.373 -0.317
C -58.172 59.372 1.241
C -56.088 57.296 -0.849
C -56.147 57.304 1.866
C -58.243 59.384 3.943
C -56.192 57.322 3.425
C -58.075 59.382 -3.022
C -56.066 57.304 -2.408
C -53.473 68.466 1.801
C -52.686 67.259 -0.331
C -52.679 67.285 1.221
C -53.463 68.425 -0.928
C -52.681 67.289 3.921
C -53.485 68.465 3.362
C -53.448 68.399 -2.492
C -52.733 67.19 -3.111
C -54.897 68.375 -0.346
C -54.907 68.392 1.234
C -53.165 65.875 -0.818
C -53.179 65.902 1.829
C -55.531 67.042 1.772
C -54.659 65.749 -0.303
C -54.67 65.763 1.285
C -55.514 67.013 -0.85
C -54.931 68.401 3.862
C -53.201 65.912 3.401
C -54.695 65.797 3.864
C -55.543 67.056 3.352
C -54.893 68.338 -2.968
C -53.145 65.848 -2.397
C -55.493 66.988 -2.43
C -54.63 65.7 -2.879
C -57 66.947 -0.342
C -57.012 66.963 1.238
C -55.295 64.378 -0.815
C -55.33 64.409 1.824
C -57.602 65.642 1.82
C -56.777 64.424 -0.29
C -56.795 64.441 1.264
C -57.574 65.61 -0.901
C -57.019 67.002 3.859
C -55.347 64.43 3.399
C -56.798 64.501 3.991
C -57.608 65.666 3.382
C -56.953 66.924 -2.965
C -55.27 64.355 -2.386
C -57.543 65.595 -2.463
C -56.715 64.407 -3.009
C -55.903 72.192 1.778
C -55.087 70.966 -0.344
C -55.105 70.982 1.214
C -55.866 72.169 -0.942
C -55.142 70.98 3.918
C -55.921 72.19 3.343
C -55.843 72.144 -2.505
C -55.057 70.922 -3.043
C -57.332 72.115 -0.396
C -57.353 72.127 1.197
C -55.695 69.615 -0.888
C -55.719 69.639 1.757
C -58.017 70.791 1.719
C -57.174 69.525 -0.371
C -57.19 69.539 1.211
C -57.985 70.771 -0.916
C -57.385 72.118 3.828
C -55.731 69.642 3.337
C -57.21 69.551 3.813
C -58.027 70.791 3.301
C -57.294 72.068 -3.025
C -55.675 69.595 -2.464
C -57.956 70.749 -2.498
C -57.136 69.497 -2.972
C -59.478 70.695 -0.415
C -59.497 70.705 1.18
C -57.823 68.184 -0.899
C -57.85 68.208 1.746
C -60.124 69.385 1.746
C -59.303 68.163 -0.375
C -59.319 68.175 1.184
C -60.092 69.367 -0.978
C -59.502 70.712 3.811
C -57.858 68.219 3.325
C -59.324 68.195 3.888
C -60.13 69.391 3.311
C -59.415 70.666 -3.045
C -57.795 68.166 -2.478
C -60.058 69.351 -2.542
C -59.243 68.141 -3.08
C -58.15 73.321 -0.983
C -58.189 73.341 1.747
C -59.606 73.232 -0.423
C -59.628 73.242 1.15
C -58.204 73.337 3.317
C -59.649 73.237 3.877
C -58.12 73.297 -2.552
C -59.549 73.193 -3.149
C -60.252 71.932 -1.003
C -60.289 71.949 1.729
C -60.298 71.948 3.299
C -60.219 71.912 -2.573
C -58.57 57.97 1.795
C -57.499 56.905 -0.321
C -57.531 56.901 1.275
C -58.511 57.978 -0.875
C -57.6 56.914 3.904
C -58.615 57.979 3.385
C -58.491 57.993 -2.466
C -57.462 56.926 -2.952
H -57.228 54.744 1.525
H -57.199 54.75 -0.584
H -57.288 54.771 3.762
H -59.985 57.552 5.008
H -59.408 55.087 4.95
H -57.194 54.785 -2.824
H -59.817 57.592 -4.128
H -59.281 55.182 -4.085
H -60.603 58.4 -2.831
H -60.747 58.339 3.683
H -60.671 58.337 1.525
H -60.618 58.363 -0.663
H -59.19 52.985 1.469
H -59.157 53.008 -0.644
H -59.275 52.985 3.699
H -61.685 55.62 5.018
H -59.134 53.06 -2.874
H -61.742 56.015 -4.125
H -62.28 56.793 -2.645
H -62.382 56.725 3.985
H -62.288 56.717 1.621
H -62.26 56.817 -0.614
H -50.077 63.354 5.167
H -49.887 63.498 -3.84
H -52.43 64.704 5.059
H -52.202 62.131 5.105
H -52.173 64.631 -3.899
H -51.97 62.115 -3.912
H -54.568 63.165 5.006
H -54.118 60.575 5.055
H -54.368 63.106 -3.943
H -53.871 60.528 -3.949
H -53.664 58.395 1.631
H -53.607 58.381 -0.487
H -53.746 58.444 3.857
H -56.475 61.228 5.035
H -55.852 58.735 5.033
H -53.576 58.405 -2.717
H -56.213 61.153 -4.066
H -55.626 58.698 -4.002
H -57.117 61.805 -2.752
H -57.288 61.846 3.643
H -57.211 61.813 1.555
H -57.143 61.798 -0.647
H -55.4 56.574 1.583
H -55.358 56.563 -0.529
H -55.473 56.615 3.819
H -58.23 59.355 5.024
H -55.344 56.583 -2.768
H -58.018 59.342 -4.102
H -58.824 60.133 -2.807
H -58.995 60.119 3.69
H -58.916 60.099 1.537
H -58.856 60.103 -0.651
H -52.642 67.315 5.002
H -52.99 67.12 -4.16
H -54.932 68.41 4.944
H -54.699 65.816 4.946
H -54.913 68.336 -4.05
H -54.629 65.664 -3.961
H -57.026 67.024 4.941
H -56.753 64.6 5.067
H -56.938 66.915 -4.047
H -56.657 64.45 -4.088
H -52.947 69.281 -2.87
H -51.681 67.431 -3.193
H -58.631 65.515 1.511
H -57.347 63.564 -0.618
H -57.368 63.592 1.612
H -58.61 65.492 -0.614
H -57.392 63.614 3.816
H -58.623 65.557 3.742
H -58.549 65.477 -2.844
H -57.326 63.542 -2.786
H -52.972 69.375 1.494
H -51.719 67.493 -0.755
H -51.668 67.571 1.482
H -52.954 69.333 -0.633
H -51.695 67.517 3.539
H -53 69.36 3.729
H -55.214 70.976 4.997
H -55.093 70.907 -4.124
H -57.392 72.121 4.91
H -57.219 69.559 4.895
H -57.273 72.057 -4.107
H -57.12 69.49 -4.054
H -59.511 70.714 4.893
H -59.303 68.254 4.968
H -59.394 70.653 -4.127
H -59.191 68.187 -4.16
H -55.376 73.046 -2.877
H -54.01 71.049 -2.799
H -61.158 69.309 1.434
H -59.807 67.259 -0.691
H -59.829 67.274 1.501
H -61.133 69.297 -0.692
H -59.846 67.273 3.666
H -61.148 69.326 3.671
H -61.067 69.284 -2.927
H -59.773 67.223 -2.862
H -55.425 73.115 1.478
H -54.054 71.083 -0.645
H -54.082 71.108 1.543
H -55.393 73.095 -0.641
H -54.088 71.113 3.708
H -55.468 73.1 3.714
H -59.625 73.189 4.957
H -59.494 73.131 -4.228
H -57.607 56.896 4.986
H -57.424 56.914 -4.034
H -57.699 74.256 -0.678
H -57.731 74.273 1.444
H -57.752 74.248 3.688
H -57.655 74.201 -2.921
H -60.202 74.107 1.453
H -60.17 74.094 -0.754
H -60.23 74.118 3.639
H -60.133 74.079 -2.94
H -61.294 71.886 -0.715
H -61.322 71.897 1.412
H -61.317 71.885 3.657
H -61.228 71.849 -2.959
H -50.004 61.378 -2.639
H -50.045 61.322 -0.414
H -50.103 61.3 1.697
H -50.2 61.305 3.92
H -51.867 60.002 -2.674
H -51.905 59.972 -0.449
H -51.97 59.976 1.666
H -52.063 60.013 3.888
C -47.746 67.162 0
C -47.756 67.127 1.559
C -46.264 64.68 -0.623
C -46.276 64.624 2.097
C -48.473 65.857 2.093
C -47.717 64.65 -0.066
C -47.728 64.614 1.528
C -48.454 65.918 -0.583
C -47.773 67.087 4.268
C -46.293 64.61 3.654
C -47.761 64.582 4.165
C -48.498 65.847 3.688
C -47.743 67.22 -2.713
C -46.264 64.723 -2.181
C -48.459 65.96 -2.174
C -47.713 64.722 -2.708
C -49.891 65.898 -0.025
C -49.9 65.858 1.523
C -48.479 63.441 -0.661
C -48.516 63.388 2.053
C -49.937 65.788 4.278
C -48.557 63.377 3.613
C -49.901 65.968 -2.716
C -48.461 63.479 -2.219
C -37.321 72.227 2.244
C -36.738 70.862 0.121
C -36.752 70.852 1.712
C -37.292 72.249 -0.411
C -36.82 70.854 4.332
C -37.36 72.237 3.828
C -37.279 72.259 -1.989
C -36.706 70.895 -2.502
C -38.817 72.475 0.057
C -38.829 72.476 1.634
C -37.626 69.74 -0.463
C -37.667 69.734 2.237
C -39.747 71.257 2.146
C -39.074 69.891 0.064
C -39.095 69.895 1.643
C -39.71 71.246 -0.469
C -38.887 72.494 4.24
C -37.705 69.741 3.79
C -39.154 69.919 4.27
C -39.772 71.268 3.732
C -38.788 72.45 -2.55
C -37.608 69.757 -2.019
C -39.696 71.245 -2.055
C -39.046 69.908 -2.562
C -41.236 71.345 0.026
C -41.257 71.349 1.602
C -39.832 68.66 -0.513
C -39.865 68.661 2.184
C -42.027 69.983 2.132
C -41.27 68.638 0.022
C -41.286 68.634 1.597
C -41.997 69.988 -0.506
C -41.284 71.365 4.203
C -39.887 68.671 3.737
C -41.32 68.628 4.225
C -42.043 69.987 3.719
C -41.205 71.337 -2.575
C -39.82 68.672 -2.067
C -41.984 69.997 -2.093
C -41.251 68.661 -2.607
C -43.472 69.863 0.039
C -43.489 69.852 1.585
C -41.996 67.325 -0.545
C -42.006 67.302 2.104
C -44.203 68.589 2.133
C -43.446 67.385 -0.012
C -43.453 67.366 1.575
C -44.189 68.622 -0.535
C -43.504 69.837 4.283
C -42.011 67.289 3.674
C -43.459 67.333 4.183
C -44.211 68.577 3.709
C -43.446 69.889 -2.657
C -41.993 67.346 -2.115
C -44.184 68.649 -2.11
C -43.44 67.425 -2.622
C -45.638 68.507 0.02
C -45.647 68.48 1.578
C -44.082 66.103 -0.581
C -44.086 66.062 2.103
C -45.654 68.443 4.276
C -44.09 66.042 3.647
C -45.626 68.559 -2.679
C -44.085 66.133 -2.125
C -39.279 76.446 2.083
C -38.748 75.11 -0.054
C -38.734 75.133 1.496
C -39.281 76.408 -0.645
C -38.727 75.13 4.194
C -39.287 76.443 3.644
C -39.274 76.384 -2.209
C -38.814 75.057 -2.835
C -40.693 76.642 -0.058
C -40.697 76.657 1.522
C -39.476 73.837 -0.543
C -39.475 73.86 2.102
C -41.566 75.444 2.061
C -40.964 74.001 -0.021
C -40.968 74.009 1.569
C -41.56 75.422 -0.561
C -40.713 76.663 4.149
C -39.492 73.869 3.674
C -40.979 74.036 4.144
C -41.57 75.454 3.641
C -40.702 76.613 -2.679
C -39.466 73.81 -2.121
C -41.549 75.399 -2.141
C -40.954 73.955 -2.593
C -43.027 75.658 -0.048
C -43.033 75.668 1.532
C -41.85 72.771 -0.53
C -41.868 72.788 2.107
C -43.86 74.477 2.113
C -43.295 73.128 -0.006
C -43.306 73.135 1.549
C -43.845 74.457 -0.607
C -43.026 75.698 4.153
C -41.872 72.8 3.683
C -43.289 73.173 4.271
C -43.855 74.493 3.675
C -42.994 75.637 -2.671
C -41.838 72.751 -2.101
C -43.825 74.446 -2.17
C -43.247 73.119 -2.73
C -40.914 80.591 2.072
C -40.364 79.228 -0.053
C -40.376 79.244 1.505
C -40.889 80.567 -0.647
C -40.406 79.246 4.208
C -40.928 80.59 3.636
C -40.877 80.541 -2.21
C -40.352 79.186 -2.752
C -42.334 80.807 -0.098
C -42.349 80.82 1.495
C -41.229 78.023 -0.596
C -41.242 78.044 2.049
C -43.262 79.639 2.018
C -42.695 78.231 -0.075
C -42.704 78.243 1.508
C -43.242 79.619 -0.616
C -42.375 80.815 4.124
C -41.25 78.046 3.629
C -42.714 78.254 4.108
C -43.268 79.64 3.601
C -42.315 80.76 -2.726
C -41.217 78.003 -2.172
C -43.223 79.596 -2.198
C -42.67 78.203 -2.674
C -44.719 79.844 -0.111
C -44.731 79.855 1.484
C -43.595 77.042 -0.601
C -43.61 77.062 2.044
C -45.604 78.683 2.051
C -45.049 77.321 -0.074
C -45.059 77.332 1.486
C -45.584 78.664 -0.672
C -44.727 79.861 4.114
C -43.612 77.07 3.623
C -45.051 77.35 4.191
C -45.604 78.688 3.616
C -44.67 79.81 -2.741
C -43.576 77.024 -2.18
C -45.558 78.646 -2.237
C -45.002 77.297 -2.779
C -42.896 82.156 -0.68
C -42.922 82.178 2.047
C -44.339 82.36 -0.117
C -44.354 82.371 1.455
C -42.933 82.177 3.616
C -44.368 82.371 4.177
C -42.876 82.131 -2.249
C -44.3 82.318 -2.84
C -45.233 81.215 -0.696
C -45.258 81.234 2.035
C -45.262 81.234 3.605
C -45.209 81.193 -2.265
C -46.314 67.166 2.113
C -45.529 65.925 -0.03
C -45.534 65.895 1.549
C -46.304 67.216 -0.553
C -45.54 65.862 4.196
C -46.325 67.148 3.714
C -46.304 67.255 -2.154
C -45.523 65.988 -2.68
H -45.79 63.714 1.774
H -45.781 63.759 -0.324
H -45.822 63.71 4.028
H -47.751 67.027 5.348
H -47.754 64.535 5.246
H -45.795 63.836 -2.585
H -47.715 67.192 -3.794
H -47.702 64.727 -3.79
H -48.286 68.122 -2.467
H -48.315 67.997 4.048
H -48.289 68.009 1.889
H -48.274 68.057 -0.301
H -48.012 62.48 1.749
H -47.981 62.526 -0.367
H -48.091 62.473 3.98
H -49.884 65.57 5.336
H -47.953 62.602 -2.598
H -49.914 66.042 -3.796
H -50.286 66.891 -2.303
H -50.32 66.8 4.296
H -50.254 66.782 1.96
H -50.229 66.897 -0.268
H -36.856 70.811 5.413
H -36.688 70.891 -3.584
H -38.938 72.526 5.321
H -39.18 69.917 5.351
H -38.751 72.427 -3.631
H -39.023 69.903 -3.644
H -41.305 71.383 5.284
H -41.321 68.602 5.307
H -41.192 71.335 -3.656
H -41.22 68.66 -3.689
H -43.48 69.801 5.364
H -43.465 67.305 5.264
H -43.432 69.89 -3.739
H -43.45 67.433 -3.704
H -44.093 70.703 -2.358
H -44.159 70.661 4.036
H -44.126 70.657 1.926
H -44.108 70.675 -0.286
H -45.622 68.394 5.357
H -45.596 68.544 -3.76
H -46.205 69.438 -2.428
H -46.245 69.322 4.057
H -46.222 69.337 1.905
H -46.209 69.375 -0.282
H -38.674 75.146 5.274
H -39.093 75.042 -3.881
H -40.707 76.673 5.231
H -40.974 74.053 5.225
H -40.726 76.618 -3.761
H -40.964 73.922 -3.674
H -43.026 75.718 5.235
H -43.231 73.249 5.348
H -42.985 75.629 -3.753
H -43.168 73.171 -3.808
H -38.611 77.151 -2.586
H -37.738 75.094 -2.936
H -44.896 74.562 1.812
H -44.039 72.421 -0.347
H -44.053 72.426 1.882
H -44.883 74.549 -0.317
H -44.056 72.435 4.078
H -44.871 74.589 4.036
H -44.837 74.534 -2.542
H -44.042 72.41 -2.545
H -38.613 77.242 1.777
H -37.757 75.164 -0.485
H -37.687 75.237 1.75
H -38.604 77.199 -0.35
H -37.722 75.179 3.795
H -38.637 77.227 4.011
H -40.477 79.258 5.288
H -40.398 79.182 -3.833
H -42.379 80.822 5.206
H -42.719 78.265 5.19
H -42.3 80.749 -3.808
H -42.659 78.196 -3.756
H -44.734 79.868 5.196
H -45.014 77.408 5.27
H -44.656 79.798 -3.822
H -44.942 77.338 -3.858
H -40.24 81.333 -2.582
H -39.3 79.103 -2.515
H -46.633 78.816 1.743
H -45.724 76.537 -0.39
H -45.738 76.551 1.803
H -46.617 78.804 -0.383
H -45.748 76.55 3.975
H -46.614 78.829 3.978
H -46.562 78.784 -2.618
H -45.704 76.503 -2.564
H -40.262 81.4 1.77
H -39.33 79.139 -0.357
H -39.347 79.166 1.831
H -40.241 81.379 -0.347
H -39.348 79.168 3.998
H -40.301 81.391 4.005
H -44.354 82.326 5.258
H -44.263 82.255 -3.919
H -45.51 65.821 5.277
H -45.492 65.982 -3.762
H -42.267 82.983 -0.377
H -42.289 83.001 1.743
H -42.307 82.979 3.984
H -42.241 82.925 -2.618
H -44.742 83.334 1.76
H -44.719 83.318 -0.445
H -44.761 83.35 3.936
H -44.694 83.303 -2.623
H -46.262 81.38 -0.404
H -46.281 81.392 1.721
H -46.272 81.379 3.964
H -46.211 81.335 -2.647
H -37.2 68.824 -2.382
H -37.227 68.781 -0.162
H -37.255 68.776 1.948
H -37.324 68.801 4.166
H -39.319 67.785 -2.431
H -39.33 67.752 -0.207
H -39.348 67.756 1.894
H -39.388 67.788 4.115
C -33.919 74.197 0.206
C -33.944 74.188 1.764
C -32.849 71.505 -0.372
C -32.872 71.499 2.343
C -34.852 73.036 2.317
C -34.303 71.693 0.175
C -34.319 71.68 1.768
C -34.821 73.062 -0.355
C -33.983 74.2 4.466
C -32.892 71.516 3.901
C -34.354 71.686 4.404
C -34.88 73.05 3.914
C -33.901 74.217 -2.499
C -32.845 71.524 -1.932
C -34.821 73.087 -1.947
C -34.292 71.732 -2.465
C -36.246 73.273 0.209
C -36.264 73.243 1.756
C -35.275 70.617 -0.41
C -35.304 70.596 2.3
C -36.306 73.193 4.52
C -35.338 70.605 3.861
C -36.25 73.327 -2.48
C -35.261 70.639 -1.969
C -22.673 77.282 2.449
C -22.389 75.828 0.325
C -22.404 75.818 1.916
C -22.645 77.301 -0.206
C -22.462 75.829 4.536
C -22.704 77.297 4.034
C -22.632 77.31 -1.785
C -22.354 75.857 -2.3
C -24.089 77.842 0.269
C -24.097 77.846 1.846
C -23.489 74.924 -0.255
C -23.532 74.925 2.447
C -25.247 76.855 2.361
C -24.863 75.388 0.282
C -24.885 75.399 1.86
C -25.218 76.832 -0.256
C -24.141 77.875 4.455
C -23.567 74.939 4
C -24.931 75.444 4.494
C -25.268 76.876 3.948
C -24.071 77.816 -2.34
C -23.468 74.938 -1.812
C -25.206 76.827 -1.844
C -24.833 75.395 -2.353
C -26.699 77.236 0.241
C -26.714 77.253 1.817
C -25.855 74.36 -0.287
C -25.898 74.386 2.418
C -27.766 76.109 2.346
C -27.261 74.662 0.249
C -27.284 74.681 1.838
C -27.731 76.077 -0.298
C -26.735 77.287 4.421
C -25.928 74.418 3.973
C -27.33 74.738 4.462
C -27.789 76.143 3.924
C -26.672 77.218 -2.362
C -25.836 74.365 -1.842
C -27.715 76.076 -1.877
C -27.23 74.665 -2.375
C -29.22 76.163 0.228
C -29.243 76.181 1.776
C -28.157 73.507 -0.314
C -28.194 73.536 2.397
C -30.163 75.036 2.336
C -29.596 73.651 0.226
C -29.617 73.666 1.816
C -30.126 75.012 -0.327
C -29.28 76.235 4.465
C -28.219 73.571 3.955
C -29.658 73.715 4.455
C -30.189 75.069 3.928
C -29.182 76.152 -2.468
C -28.141 73.511 -1.873
C -30.11 75.016 -1.921
C -29.569 73.654 -2.414
C -31.583 75.177 0.212
C -31.608 75.184 1.769
C -30.482 72.49 -0.341
C -30.51 72.508 2.374
C -31.647 75.214 4.467
C -30.533 72.536 3.933
C -31.553 75.179 -2.489
C -30.473 72.498 -1.901
C -23.756 81.814 2.307
C -23.493 80.407 0.166
C -23.471 80.423 1.717
C -23.775 81.783 -0.421
C -23.456 80.416 4.415
C -23.758 81.812 3.868
C -23.781 81.762 -1.985
C -23.573 80.372 -2.607
C -25.119 82.279 0.17
C -25.113 82.292 1.751
C -24.462 79.306 -0.325
C -24.45 79.326 2.32
C -26.197 81.275 2.289
C -25.891 79.755 0.203
C -25.887 79.766 1.791
C -26.207 81.254 -0.333
C -25.117 82.297 4.378
C -24.457 79.337 3.892
C -25.88 79.793 4.37
C -26.193 81.285 3.869
C -25.144 82.255 -2.452
C -24.463 79.28 -1.902
C -26.206 81.23 -1.913
C -25.897 79.712 -2.373
C -27.604 81.755 0.187
C -27.601 81.767 1.767
C -27.005 78.732 -0.307
C -27.008 78.761 2.332
C -28.643 80.764 2.35
C -28.354 79.335 0.23
C -28.354 79.351 1.785
C -28.646 80.738 -0.37
C -27.577 81.793 4.389
C -27.005 78.779 3.907
C -28.315 79.394 4.512
C -28.63 80.781 3.913
C -27.585 81.729 -2.436
C -27 78.71 -1.878
C -28.632 80.721 -1.933
C -28.32 79.311 -2.489
C -24.592 86.185 2.311
C -24.313 84.75 0.18
C -24.316 84.765 1.738
C -24.583 86.163 -0.41
C -24.334 84.765 4.442
C -24.6 86.183 3.875
C -24.582 86.138 -1.973
C -24.32 84.711 -2.52
C -25.957 86.665 0.147
C -25.962 86.678 1.741
C -25.39 83.732 -0.363
C -25.389 83.752 2.283
C -27.079 85.69 2.264
C -26.791 84.208 0.165
C -26.791 84.22 1.748
C -27.073 85.671 -0.371
C -25.979 86.669 4.371
C -25.39 83.752 3.863
C -26.789 84.226 4.35
C -27.079 85.687 3.847
C -25.956 86.62 -2.482
C -25.389 83.713 -1.939
C -27.064 85.647 -1.953
C -26.783 84.18 -2.435
C -28.48 86.164 0.142
C -28.485 86.174 1.736
C -27.902 83.215 -0.36
C -27.902 83.235 2.285
C -29.561 85.187 2.305
C -29.277 83.754 0.175
C -29.278 83.764 1.734
C -29.555 85.17 -0.419
C -28.47 86.171 4.367
C -27.897 83.241 3.864
C -29.259 83.772 4.438
C -29.555 85.187 3.87
C -28.45 86.126 -2.489
C -27.893 83.195 -1.939
C -29.539 85.15 -1.984
C -29.247 83.724 -2.53
C -26.26 88.095 -0.431
C -26.272 88.115 2.299
C -27.638 88.561 0.139
C -27.645 88.572 1.712
C -26.277 88.11 3.869
C -27.649 88.564 4.438
C -26.252 88.069 -2
C -27.618 88.517 -2.587
C -28.732 87.606 -0.438
C -28.743 87.623 2.294
C -28.742 87.619 3.864
C -28.719 87.582 -2.008
C -32.512 74.032 2.325
C -31.936 72.652 0.2
C -31.954 72.654 1.796
C -32.478 74.029 -0.343
C -31.992 72.685 4.424
C -32.539 74.054 3.914
C -32.469 74.044 -1.933
C -31.919 72.672 -2.43
H -32.476 70.537 2.045
H -32.465 70.54 -0.07
H -32.505 70.579 4.28
H -33.967 74.162 5.547
H -34.351 71.648 5.485
H -32.469 70.582 -2.308
H -33.875 74.169 -3.58
H -34.278 71.724 -3.547
H -34.295 75.199 -2.273
H -34.394 75.172 4.226
H -34.341 75.146 2.074
H -34.301 75.159 -0.11
H -34.952 69.616 2.005
H -34.936 69.634 -0.113
H -35.013 69.643 4.234
H -36.271 72.954 5.575
H -34.914 69.684 -2.341
H -36.259 73.397 -3.56
H -36.464 74.306 -2.07
H -36.524 74.251 4.574
H -36.452 74.215 2.194
H -36.405 74.314 -0.039
H -22.5 75.791 5.617
H -22.34 75.849 -3.382
H -24.179 77.913 5.535
H -24.948 75.45 5.576
H -24.042 77.789 -3.421
H -24.817 75.381 -3.434
H -26.754 77.304 5.502
H -27.335 74.744 5.544
H -26.662 77.217 -3.444
H -27.203 74.65 -3.456
H -27.791 72.572 2.117
H -27.763 72.548 -0.004
H -27.831 72.639 4.342
H -29.279 76.246 5.547
H -29.662 73.709 5.537
H -27.745 72.569 -2.231
H -29.143 76.122 -3.549
H -29.545 73.631 -3.495
H -29.715 77.062 -2.225
H -29.802 77.133 4.163
H -29.761 77.082 2.076
H -29.725 77.054 -0.121
H -30.098 71.55 2.085
H -30.081 71.534 -0.032
H -30.133 71.608 4.319
H -31.64 75.183 5.549
H -30.08 71.559 -2.268
H -31.526 75.129 -3.569
H -31.96 76.157 -2.266
H -32.065 76.181 4.221
H -32.018 76.139 2.071
H -31.981 76.129 -0.113
H -23.403 80.417 5.496
H -23.828 80.407 -3.658
H -25.108 82.3 5.46
H -25.869 79.805 5.451
H -25.168 82.265 -3.533
H -25.915 79.686 -3.454
H -27.568 81.81 5.47
H -28.227 79.463 5.588
H -27.582 81.721 -3.518
H -28.255 79.336 -3.569
H -22.987 82.391 -2.364
H -22.506 80.203 -2.669
H -29.646 81.039 2.05
H -29.209 78.757 -0.095
H -29.203 78.778 2.135
H -29.648 81.021 -0.076
H -29.203 78.798 4.343
H -29.608 81.063 4.28
H -29.61 80.995 -2.306
H -29.211 78.739 -2.266
H -22.95 82.468 1.999
H -22.509 80.263 -0.258
H -22.427 80.311 1.976
H -22.96 82.431 -0.128
H -22.459 80.266 4.023
H -22.969 82.455 4.234
H -24.397 84.784 5.522
H -24.367 84.717 -3.601
H -25.978 86.67 5.453
H -26.789 84.232 5.432
H -25.948 86.607 -3.564
H -26.778 84.173 -3.517
H -28.472 86.172 5.449
H -29.21 83.815 5.518
H -28.443 86.112 -3.571
H -29.188 83.752 -3.61
H -23.81 86.798 -2.347
H -23.301 84.432 -2.285
H -30.548 85.51 2
H -30.088 83.109 -0.139
H -30.089 83.123 2.053
H -30.543 85.499 -0.125
H -30.092 83.118 4.219
H -30.52 85.511 4.236
H -30.501 85.472 -2.361
H -30.083 83.074 -2.309
H -23.802 86.859 2.008
H -23.315 84.469 -0.129
H -23.319 84.493 2.06
H -23.793 86.839 -0.111
H -23.31 84.49 4.226
H -23.834 86.851 4.245
H -27.639 88.506 5.519
H -27.598 88.444 -3.666
H -31.998 72.67 5.506
H -31.898 72.654 -3.512
H -25.487 88.788 -0.129
H -25.497 88.806 1.994
H -25.511 88.78 4.237
H -25.481 88.731 -2.371
H -27.846 89.589 2.021
H -27.835 89.574 -0.186
H -27.854 89.6 4.206
H -27.821 89.557 -2.37
H -29.712 87.957 -0.142
H -29.72 87.968 1.985
H -29.707 87.946 4.229
H -29.679 87.908 -2.386
H -23.267 73.94 -2.178
H -23.302 73.901 0.044
H -23.34 73.901 2.154
H -23.403 73.937 4.375
H -25.539 73.388 -2.201
H -25.563 73.365 0.021
H -25.601 73.385 2.138
H -25.651 73.445 4.357
C -18.946 78.477 0.405
C -18.968 78.47 1.964
C -18.464 75.62 -0.179
C -18.483 75.612 2.535
C -20.095 77.539 2.517
C -19.843 76.114 0.372
C -19.858 76.102 1.964
C -20.064 77.563 -0.157
C -18.998 78.478 4.669
C -18.496 75.626 4.093
C -19.887 76.105 4.6
C -20.116 77.551 4.113
C -18.928 78.496 -2.303
C -18.458 75.639 -1.739
C -20.06 77.589 -1.75
C -19.827 76.153 -2.269
C -21.409 78.078 0.409
C -21.428 78.052 1.957
C -21.017 75.272 -0.212
C -21.048 75.252 2.498
C -21.473 78.004 4.719
C -21.076 75.262 4.057
C -21.404 78.133 -2.282
C -21.001 75.293 -1.771
C -7.347 79.247 2.618
C -7.358 77.769 0.49
C -7.37 77.76 2.082
C -7.325 79.265 -0.038
C -7.416 77.776 4.702
C -7.369 79.264 4.202
C -7.316 79.275 -1.617
C -7.328 77.797 -2.135
C -8.632 80.077 0.443
C -8.634 80.079 2.021
C -8.613 77.097 -0.087
C -8.646 77.101 2.616
C -9.951 79.329 2.539
C -9.866 77.819 0.457
C -9.881 77.831 2.034
C -9.935 79.306 -0.079
C -8.663 80.11 4.63
C -8.673 77.119 4.169
C -9.909 77.879 4.669
C -9.962 79.35 4.126
C -8.628 80.053 -2.166
C -8.595 77.11 -1.643
C -9.929 79.302 -1.666
C -9.844 77.826 -2.179
C -11.305 79.99 0.425
C -11.311 80.005 2.001
C -11.039 77.003 -0.11
C -11.068 77.031 2.596
C -12.559 79.086 2.533
C -12.355 77.572 0.431
C -12.37 77.592 2.021
C -12.538 79.053 -0.112
C -11.317 80.038 4.605
C -11.086 77.065 4.151
C -12.395 77.651 4.645
C -12.571 79.121 4.111
C -11.291 79.971 -2.179
C -11.024 77.006 -1.665
C -12.527 79.051 -1.691
C -12.331 77.573 -2.193
C -13.974 79.429 0.419
C -13.989 79.449 1.967
C -13.461 76.616 -0.13
C -13.484 76.646 2.581
C -15.111 78.509 2.529
C -14.84 77.043 0.414
C -14.854 77.058 2.005
C -15.086 78.483 -0.136
C -14.008 79.502 4.658
C -13.498 76.682 4.14
C -14.878 77.107 4.644
C -15.126 78.542 4.121
C -13.946 79.416 -2.279
C -13.448 76.618 -1.689
C -15.073 78.487 -1.729
C -14.82 77.044 -2.226
C -16.471 78.944 0.409
C -16.491 78.952 1.966
C -15.944 76.087 -0.152
C -15.962 76.104 2.563
C -16.517 78.981 4.667
C -15.974 76.132 4.122
C -16.447 78.944 -2.295
C -15.936 76.095 -1.711
C -7.529 83.905 2.485
C -7.551 82.478 0.342
C -7.521 82.486 1.893
C -7.564 83.884 -0.242
C -7.499 82.471 4.591
C -7.527 83.9 4.047
C -7.579 83.867 -1.806
C -7.646 82.465 -2.431
C -8.783 84.63 0.354
C -8.77 84.639 1.935
C -8.717 81.586 -0.147
C -8.692 81.599 2.498
C -10.029 83.851 2.476
C -10.029 82.304 0.386
C -10.018 82.311 1.975
C -10.051 83.836 -0.146
C -8.764 84.639 4.563
C -8.692 81.608 4.07
C -9.997 82.331 4.553
C -10.017 83.856 4.056
C -8.822 84.616 -2.268
C -8.728 81.564 -1.725
C -10.06 83.816 -1.726
C -10.053 82.268 -2.189
C -11.323 84.598 0.38
C -11.312 84.607 1.96
C -11.321 81.518 -0.12
C -11.31 81.542 2.519
C -12.526 83.824 2.546
C -12.526 82.371 0.423
C -12.518 82.383 1.978
C -12.543 83.805 -0.175
C -11.274 84.622 4.581
C -11.298 81.555 4.094
C -12.463 82.412 4.705
C -12.505 83.835 4.108
C -11.319 84.574 -2.244
C -11.326 81.498 -1.691
C -12.539 83.788 -1.738
C -12.507 82.346 -2.297
C -7.502 88.354 2.498
C -7.515 86.897 0.364
C -7.509 86.909 1.922
C -7.507 88.336 -0.223
C -7.518 86.907 4.627
C -7.505 88.351 4.062
C -7.516 88.314 -1.787
C -7.538 86.865 -2.336
C -8.755 89.095 0.339
C -8.752 89.105 1.933
C -8.77 86.109 -0.176
C -8.756 86.123 2.47
C -10.038 88.352 2.46
C -10.05 86.846 0.358
C -10.042 86.855 1.94
C -10.045 88.338 -0.175
C -8.762 89.095 4.564
C -8.752 86.12 4.049
C -10.031 86.856 4.542
C -10.033 88.346 4.042
C -8.773 89.055 -2.29
C -8.779 86.093 -1.753
C -10.047 88.316 -1.758
C -10.057 86.822 -2.243
C -11.328 89.094 0.343
C -11.325 89.101 1.938
C -11.334 86.089 -0.165
C -11.321 86.104 2.481
C -12.571 88.341 2.509
C -12.577 86.884 0.376
C -12.571 86.891 1.936
C -12.577 88.329 -0.214
C -11.302 89.09 4.569
C -11.31 86.105 4.059
C -12.541 86.89 4.639
C -12.559 88.337 4.074
C -11.315 89.055 -2.288
C -11.335 86.071 -1.744
C -12.571 88.309 -1.779
C -12.563 86.854 -2.329
C -8.777 90.557 -0.236
C -8.775 90.574 2.495
C -10.036 91.281 0.34
C -10.035 91.29 1.913
C -8.776 90.567 4.064
C -10.031 91.277 4.64
C -8.78 90.533 -1.805
C -10.035 91.239 -2.386
C -11.297 90.558 -0.234
C -11.294 90.571 2.498
C -11.289 90.564 4.068
C -11.294 90.535 -1.804
C -17.606 78.011 2.522
C -17.331 76.546 0.393
C -17.345 76.549 1.989
C -17.578 78.007 -0.147
C -17.371 76.577 4.617
C -17.624 78.031 4.112
C -17.569 78.021 -1.738
C -17.315 76.566 -2.238
H -18.301 74.589 2.233
H -18.293 74.595 0.122
H -18.315 74.628 4.469
H -18.989 78.429 5.75
H -19.891 76.063 5.681
H -18.29 74.639 -2.116
H -18.913 78.442 -3.384
H -19.816 76.141 -3.351
H -19.103 79.539 -2.075
H -19.193 79.517 4.436
H -19.152 79.489 2.278
H -19.115 79.499 0.091
H -20.916 74.221 2.197
H -20.895 74.239 0.083
H -20.965 74.251 4.426
H -21.489 77.774 5.776
H -20.868 74.287 -2.145
H -21.401 78.2 -3.362
H -21.401 79.136 -1.877
H -21.461 79.086 4.75
H -21.409 79.044 2.388
H -21.352 79.128 0.155
H -7.457 77.744 5.783
H -7.32 77.788 -3.217
H -8.689 80.153 5.711
H -9.921 77.885 5.751
H -8.61 80.023 -3.247
H -9.836 77.81 -3.261
H -11.329 80.056 5.687
H -12.396 77.655 5.727
H -11.286 79.97 -3.261
H -12.312 77.555 -3.275
H -13.281 75.622 2.299
H -13.264 75.597 0.178
H -13.3 75.69 4.524
H -14.001 79.511 5.74
H -14.88 77.099 5.726
H -13.248 75.618 -2.05
H -13.917 79.381 -3.36
H -14.802 77.018 -3.307
H -14.29 80.412 -2.031
H -14.345 80.486 4.358
H -14.32 80.433 2.272
H -14.295 80.402 0.071
H -15.755 75.083 2.27
H -15.747 75.069 0.157
H -15.771 75.141 4.506
H -16.514 78.942 5.748
H -15.744 75.097 -2.081
H -16.433 78.889 -3.375
H -16.646 79.983 -2.069
H -16.73 80.014 4.425
H -16.697 79.969 2.272
H -16.667 79.958 0.086
H -7.444 82.46 5.672
H -7.893 82.55 -3.481
H -8.751 84.638 5.645
H -9.981 82.338 5.635
H -8.848 84.632 -3.349
H -10.079 82.248 -3.271
H -11.26 84.635 5.663
H -12.36 82.461 5.781
H -11.321 84.568 -3.326
H -12.443 82.36 -3.377
H -6.679 84.331 -2.188
H -6.633 82.092 -2.497
H -13.457 84.289 2.249
H -13.479 81.974 0.1
H -13.462 81.99 2.331
H -13.47 84.275 0.123
H -13.451 82.004 4.539
H -13.409 84.301 4.479
H -13.446 84.247 -2.106
H -13.493 81.962 -2.07
H -6.613 84.391 2.175
H -6.614 82.146 -0.086
H -6.517 82.173 2.148
H -6.637 84.361 0.048
H -6.551 82.132 4.196
H -6.627 84.377 4.411
H -7.572 86.936 5.707
H -7.588 86.882 -3.417
H -8.757 89.093 5.646
H -10.026 86.86 5.624
H -8.771 89.043 -3.372
H -10.057 86.817 -3.325
H -11.3 89.089 5.651
H -12.481 86.92 5.719
H -11.314 89.042 -3.37
H -12.504 86.872 -3.409
H -6.632 88.813 -2.162
H -6.592 86.393 -2.106
H -13.477 88.849 2.209
H -13.499 86.41 0.065
H -13.49 86.419 2.256
H -13.482 88.842 0.084
H -13.487 86.411 4.422
H -13.441 88.841 4.445
H -13.453 88.812 -2.152
H -13.509 86.379 -2.105
H -6.597 88.863 2.193
H -6.591 86.428 0.051
H -6.583 86.448 2.24
H -6.6 88.845 0.074
H -6.568 86.439 4.406
H -6.622 88.857 4.43
H -10.029 91.217 5.72
H -10.032 91.166 -3.465
H -17.377 76.559 5.699
H -17.3 76.545 -3.319
H -7.882 91.086 0.065
H -7.882 91.101 2.187
H -7.893 91.075 4.431
H -7.896 91.033 -2.178
H -10.034 92.326 2.225
H -10.033 92.314 0.017
H -10.032 92.335 4.409
H -10.031 92.299 -2.167
H -12.189 91.092 0.067
H -12.187 91.101 2.193
H -12.17 91.072 4.437
H -12.174 91.042 -2.178
H -8.593 76.093 -2.012
H -8.627 76.057 0.211
H -8.658 76.06 2.321
H -8.706 76.104 4.542
H -10.923 75.991 -2.027
H -10.945 75.969 0.196
H -10.972 75.991 2.313
H -11.003 76.056 4.533
C -78.999 -0.07 -1.761
C -79.186 -0.124 0.898
C -77.76 1.996 1.096
C -79.002 1.435 -1.236
C -79.109 1.394 0.37
C -77.474 2.017 -1.592
C -79.305 -0.17 2.472
C -79.302 1.323 3.005
C -77.881 1.953 2.645
C -78.809 -0.073 -3.321
C -77.132 1.969 -3.117
C -78.316 1.355 -3.814
C -77.738 -0.894 -1.059
C -77.858 -0.922 0.481
C -78.075 -0.98 3.161
C -77.481 -0.94 -3.698
H -79.387 1.322 4.084
H -78.253 1.441 -4.891
H -78.194 -0.938 4.235
H -77.365 -0.936 -4.774
H -77.771 -1.928 -1.375
H -77.955 -1.959 0.775
H -78.11 -2.034 2.921
H -77.6 -1.987 -3.449
H -77.444 3.06 -1.303
H -77.664 3.04 0.827
H -77.859 2.963 3.033
H -76.986 2.98 -3.475
C 66.246 -0.495 -1.598
C 66.038 -0.587 1.031
C 67.388 1.689 1.266
C 66.178 0.99 -1.025
C 66.057 0.937 0.566
C 67.592 1.771 -1.414
C 65.908 -0.67 2.621
C 65.83 0.803 3.147
C 67.26 1.611 2.814
C 66.376 -0.442 -3.186
C 67.715 1.822 -2.957
C 66.401 1.078 -3.601
C 67.595 -1.178 -0.937
C 67.487 -1.217 0.608
C 67.292 -1.298 3.301
C 67.801 -1.101 -3.615
H 65.719 0.768 4.223
H 66.503 1.129 -4.676
H 67.202 -1.241 4.378
H 67.908 -1.061 -4.691
H 67.668 -2.208 -1.259
H 67.513 -2.255 0.909
H 67.38 -2.357 3.098
H 67.816 -2.156 -3.374
H 67.523 2.797 -1.076
H 67.359 2.744 1.027
H 67.157 2.608 3.222
H 67.706 2.857 -3.274
C -53.996 1.882 -0.701
C -53.953 1.767 1.894
C -53.929 1.708 3.457
C -54.019 1.952 -2.26
C -50.16 1.078 -0.304
C -50.129 1.012 1.268
C -52.713 -0.422 -0.858
C -52.675 -0.554 1.777
C -51.397 1.774 1.84
C -52.71 1.08 -0.249
C -52.683 1.009 1.323
C -51.447 1.878 -0.755
C -50.078 0.924 3.836
C -52.654 -0.627 3.349
C -52.639 0.911 3.891
C -51.368 1.721 3.403
C -50.21 1.197 -2.872
C -52.733 -0.346 -2.426
C -51.475 1.943 -2.314
C -52.754 1.207 -2.818
C -48.879 -1.184 -0.428
C -48.852 -1.258 1.125
C -50.119 -0.551 1.728
C -51.43 -1.179 -0.377
C -51.406 -1.258 1.175
C -50.164 -0.429 -0.906
C -48.803 -1.373 3.799
C -51.364 -1.383 3.85
C -50.092 -0.619 3.299
C -48.927 -1.048 -3.107
C -50.19 -0.358 -2.475
C -51.47 -1.034 -3.058
C -48.897 1.877 -0.815
C -48.843 1.781 1.779
C -48.811 1.732 3.342
C -48.928 1.938 -2.375
C -45.054 1.08 -0.43
C -45.022 1.021 1.143
C -47.614 -0.432 -0.962
C -47.563 -0.546 1.671
C -46.289 1.787 1.714
C -47.608 1.078 -0.365
C -47.576 1.016 1.207
C -46.345 1.878 -0.88
C -44.965 0.946 3.71
C -47.534 -0.609 3.242
C -47.52 0.935 3.774
C -46.255 1.742 3.276
C -45.11 1.186 -2.997
C -47.643 -0.366 -2.531
C -46.378 1.935 -2.441
C -47.662 1.19 -2.934
C -43.772 -1.186 -0.543
C -43.742 -1.251 1.01
C -45.009 -0.541 1.611
C -46.326 -1.186 -0.484
C -46.297 -1.255 1.068
C -45.061 -0.434 -1.022
C -43.689 -1.352 3.684
C -46.245 -1.363 3.742
C -44.978 -0.6 3.182
C -43.824 -1.064 -3.22
C -45.091 -0.371 -2.591
C -46.378 -1.057 -3.163
C -43.79 1.88 -0.946
C -43.735 1.794 1.648
C -43.701 1.752 3.211
C -43.822 1.934 -2.506
C -39.94 1.085 -0.55
C -39.91 1.031 1.022
C -42.505 -0.434 -1.081
C -42.454 -0.535 1.552
C -41.18 1.799 1.586
C -42.498 1.082 -0.492
C -42.467 1.027 1.08
C -41.232 1.882 -1.008
C -39.86 0.964 3.589
C -42.424 -0.591 3.123
C -42.412 0.956 3.647
C -41.148 1.76 3.148
C -39.989 1.182 -3.117
C -42.535 -0.374 -2.651
C -41.262 1.933 -2.569
C -42.552 1.183 -3.06
C -38.656 -1.183 -0.649
C -38.63 -1.244 0.904
C -39.898 -0.531 1.497
C -41.215 -1.185 -0.598
C -41.187 -1.247 0.955
C -39.946 -0.433 -1.136
C -38.583 -1.335 3.577
C -41.136 -1.342 3.628
C -39.87 -0.584 3.067
C -38.702 -1.07 -3.326
C -39.974 -0.376 -2.706
C -41.265 -1.068 -3.276
C -38.67 1.883 -1.063
C -38.623 1.803 1.53
C -38.595 1.765 3.093
C -38.698 1.933 -2.624
C -34.814 1.086 -0.641
C -34.791 1.034 0.931
C -37.385 -0.432 -1.184
C -37.341 -0.527 1.448
C -36.065 1.805 1.484
C -37.378 1.086 -0.601
C -37.352 1.034 0.972
C -36.106 1.883 -1.109
C -34.754 0.969 3.498
C -37.315 -0.579 3.019
C -37.308 0.969 3.539
C -36.041 1.768 3.047
C -34.85 1.181 -3.208
C -37.41 -0.376 -2.754
C -36.13 1.933 -2.67
C -37.421 1.182 -3.167
C -33.53 -1.183 -0.729
C -33.509 -1.242 0.824
C -34.782 -0.527 1.408
C -36.094 -1.182 -0.693
C -36.071 -1.242 0.86
C -34.82 -0.432 -1.225
C -33.473 -1.332 3.497
C -36.029 -1.331 3.533
C -34.759 -0.578 2.978
C -33.565 -1.071 -3.406
C -34.842 -0.377 -2.795
C -36.135 -1.071 -3.37
C -33.538 1.881 -1.144
C -33.504 1.803 1.449
C -33.483 1.765 3.011
C -33.559 1.931 -2.705
C -29.678 1.075 -0.694
C -29.66 1.022 0.879
C -32.253 -0.434 -1.256
C -32.22 -0.53 1.376
C -30.939 1.795 1.423
C -32.247 1.083 -0.672
C -32.228 1.03 0.901
C -30.968 1.875 -1.169
C -29.634 0.955 3.445
C -32.2 -0.581 2.947
C -32.197 0.965 3.467
C -30.921 1.758 2.986
C -29.703 1.174 -3.26
C -32.272 -0.378 -2.826
C -30.985 1.926 -2.73
C -32.277 1.179 -3.238
C -28.393 -1.192 -0.781
C -28.375 -1.255 0.772
C -29.654 -0.538 1.351
C -30.963 -1.186 -0.758
C -30.944 -1.246 0.795
C -29.683 -0.44 -1.281
C -28.347 -1.349 3.445
C -30.913 -1.337 3.468
C -29.635 -0.59 2.922
C -28.422 -1.075 -3.458
C -29.701 -0.383 -2.85
C -30.994 -1.072 -3.434
C -28.395 1.864 -1.188
C -28.369 1.783 1.405
C -28.352 1.744 2.968
C -28.411 1.916 -2.748
C -24.53 1.044 -0.731
C -24.511 0.989 0.841
C -27.111 -0.45 -1.301
C -27.082 -0.551 1.331
C -25.794 1.764 1.388
C -27.105 1.062 -0.712
C -27.088 1.008 0.861
C -25.821 1.847 -1.204
C -24.483 0.917 3.407
C -27.064 -0.605 2.902
C -27.062 0.939 3.427
C -25.777 1.724 2.951
C -24.557 1.147 -3.297
C -27.128 -0.391 -2.871
C -25.837 1.9 -2.765
C -27.129 1.163 -3.278
C -23.245 -1.219 -0.829
C -23.225 -1.285 0.724
C -24.506 -0.568 1.309
C -25.821 -1.204 -0.803
C -25.802 -1.268 0.75
C -24.536 -0.466 -1.323
C -23.192 -1.385 3.399
C -25.773 -1.365 3.423
C -24.487 -0.624 2.881
C -23.277 -1.097 -3.506
C -24.555 -0.405 -2.892
C -25.85 -1.083 -3.48
C -23.245 1.825 -1.226
C -23.214 1.741 1.366
C -23.194 1.699 2.929
C -23.263 1.879 -2.786
C -21.96 -0.485 -1.352
C -21.926 -0.59 1.281
C -20.63 1.715 1.334
C -21.952 1.021 -0.759
C -21.931 0.966 0.814
C -20.668 1.799 -1.259
C -21.904 -0.647 2.853
C -21.897 0.892 3.38
C -20.606 1.672 2.897
C -21.981 -0.425 -2.921
C -20.689 1.853 -2.819
C -21.985 1.125 -3.325
C -20.667 -1.239 -0.862
C -20.645 -1.304 0.691
C -20.606 -1.406 3.366
C -20.704 -1.117 -3.541
C -59.101 1.897 -0.625
C -59.076 1.754 1.969
C -59.064 1.677 3.531
C -59.109 1.985 -2.183
C -55.262 1.085 -0.204
C -55.239 1.007 1.368
C -57.812 -0.393 -0.8
C -57.798 -0.552 1.836
C -56.512 1.761 1.937
C -57.816 1.093 -0.171
C -57.799 1.007 1.4
C -56.546 1.888 -0.658
C -55.204 0.898 3.936
C -57.791 -0.64 3.407
C -57.774 0.884 3.968
C -56.493 1.694 3.499
C -55.295 1.224 -2.774
C -57.817 -0.302 -2.367
C -56.563 1.966 -2.216
C -57.837 1.247 -2.741
C -53.98 -1.17 -0.337
C -53.963 -1.255 1.215
C -55.234 -0.554 1.814
C -56.532 -1.155 -0.312
C -56.522 -1.248 1.24
C -55.262 -0.41 -0.821
C -53.931 -1.391 3.891
C -56.503 -1.396 3.917
C -55.22 -0.635 3.385
C -54.009 -1.015 -3.019
C -55.275 -0.328 -2.389
C -56.547 -0.987 -2.994
C -64.239 1.919 -0.599
C -64.244 1.737 1.99
C -64.249 1.635 3.55
C -64.225 2.032 -2.154
C -60.376 1.105 -0.151
C -60.366 1.009 1.419
C -62.938 -0.341 -0.803
C -62.957 -0.536 1.831
C -61.651 1.746 1.988
C -62.949 1.12 -0.146
C -62.948 1.013 1.424
C -61.663 1.908 -0.605
C -60.354 0.868 3.986
C -62.968 -0.644 3.4
C -62.95 0.851 3.988
C -61.647 1.658 3.549
C -60.384 1.278 -2.72
C -62.919 -0.229 -2.369
C -61.662 2.008 -2.161
C -62.938 1.315 -2.713
C -59.089 -1.132 -0.303
C -59.086 -1.234 1.248
C -60.37 -0.545 1.842
C -61.654 -1.103 -0.31
C -61.662 -1.214 1.239
C -60.37 -0.37 -0.794
C -59.083 -1.398 3.926
C -61.674 -1.395 3.918
C -60.372 -0.643 3.412
C -59.088 -0.949 -2.986
C -60.364 -0.269 -2.361
C -61.634 -0.902 -2.994
C -69.467 1.953 -0.708
C -69.535 1.762 1.906
C -69.58 1.644 3.474
C -69.414 2.073 -2.272
C -65.542 1.136 -0.162
C -65.554 1.02 1.408
C -68.145 -0.287 -0.894
C -68.228 -0.501 1.743
C -66.866 1.733 1.968
C -68.169 1.154 -0.217
C -68.201 1.038 1.36
C -66.837 1.93 -0.622
C -65.576 0.836 3.968
C -68.267 -0.624 3.312
C -68.257 0.837 3.914
C -66.885 1.615 3.527
C -65.503 1.352 -2.725
C -68.085 -0.161 -2.463
C -66.805 2.055 -2.177
C -68.086 1.379 -2.778
C -64.235 -1.067 -0.335
C -64.255 -1.188 1.213
C -65.57 -0.521 1.801
C -66.841 -1.032 -0.383
C -66.879 -1.158 1.166
C -65.527 -0.311 -0.832
C -64.285 -1.384 3.892
C -66.933 -1.361 3.845
C -65.593 -0.639 3.368
C -64.19 -0.847 -3.017
C -65.49 -0.188 -2.397
C -66.759 -0.796 -3.065
C -74.815 1.894 -1.249
C -75.026 1.84 1.416
C -75.141 1.776 2.965
C -74.65 1.908 -2.793
C -70.831 1.177 -0.355
C -70.9 1.081 1.227
C -73.513 -0.287 -1.18
C -73.715 -0.375 1.447
C -72.293 1.758 1.695
C -73.532 1.173 -0.588
C -73.64 1.126 0.991
C -72.156 1.894 -0.967
C -71.022 0.909 3.797
C -73.822 -0.452 3.029
C -73.824 1.008 3.574
C -72.377 1.664 3.241
C -70.687 1.355 -2.934
C -73.383 -0.241 -2.763
C -72.061 1.973 -2.511
C -73.304 1.253 -3.183
C -69.475 -1.011 -0.461
C -69.544 -1.135 1.089
C -70.946 -0.462 1.634
C -72.201 -0.997 -0.576
C -72.313 -1.066 0.973
C -70.803 -0.287 -1.001
C -69.635 -1.324 3.788
C -72.477 -1.199 3.644
C -71.015 -0.571 3.216
C -69.347 -0.778 -3.171
C -70.713 -0.182 -2.584
C -72.005 -0.852 -3.254
C -76.24 1.232 -0.878
C -76.381 1.219 0.703
C -76.599 1.147 3.28
C -75.875 1.19 -3.462
C -74.938 -0.976 -0.776
C -75.073 -1.001 0.768
C -76.487 -0.292 1.183
C -76.253 -0.264 -1.432
C -75.284 -1.076 3.432
C -76.611 -0.341 2.772
C -74.68 -0.954 -3.435
C -76.085 -0.291 -3.012
H -34.738 0.965 4.58
H -37.288 0.964 4.621
H -34.864 1.251 -4.287
H -37.44 1.252 -4.247
H -33.459 -1.125 4.559
H -36.011 -1.124 4.595
H -33.577 -0.772 -4.446
H -36.151 -0.773 -4.41
H -29.625 0.949 4.527
H -32.185 0.961 4.549
H -29.709 1.246 -4.339
H -32.287 1.25 -4.318
H -28.338 -1.145 4.508
H -30.902 -1.132 4.53
H -28.427 -0.771 -4.496
H -31.002 -0.771 -4.474
H -24.472 0.907 4.489
H -27.054 0.931 4.508
H -24.563 1.222 -4.376
H -27.134 1.237 -4.357
H -23.178 -1.186 4.462
H -25.763 -1.164 4.487
H -23.285 -0.789 -4.543
H -25.855 -0.777 -4.518
H -21.88 0.881 4.461
H -21.994 1.2 -4.404
H -20.587 -1.209 4.43
H -62.947 0.796 5.068
H -62.933 1.437 -3.788
H -65.581 0.767 5.048
H -68.27 0.75 4.992
H -65.485 1.486 -3.798
H -68.039 1.518 -3.85
H -64.292 -1.231 4.963
H -66.949 -1.207 4.915
H -71.106 0.854 4.874
H -73.923 0.984 4.651
H -70.605 1.477 -4.006
H -73.192 1.324 -4.257
H -69.672 -1.147 4.855
H -72.54 -1.175 4.724
H -71.928 -0.73 -4.327
H -76.717 1.144 4.355
H -75.741 1.219 -4.535
H -75.375 -1.03 4.509
H -74.579 -0.893 -4.51
H -41.287 -0.768 -4.315
H -55.31 1.315 -3.852
H -54.024 -0.695 -4.052
H -42.577 1.256 -4.139
H -43.848 -0.761 -4.259
H -56.555 -0.66 -4.026
H -45.136 1.261 -4.076
H -46.403 -0.75 -4.2
H -57.846 1.347 -3.818
H -59.087 -0.614 -4.015
H -47.689 1.268 -4.012
H -60.386 1.388 -3.797
H -48.95 -0.737 -4.144
H -50.234 1.278 -3.951
H -51.49 -0.719 -4.093
H -40.011 1.253 -4.197
H -38.721 -0.772 -4.366
H -52.774 1.292 -3.897
H -47.492 0.923 4.856
H -50.051 0.908 4.918
H -38.562 -1.129 4.639
H -61.674 -1.235 4.988
H -52.616 0.892 4.973
H -41.112 -1.139 4.691
H -51.342 -1.195 4.916
H -53.914 -1.208 4.957
H -57.761 0.851 5.049
H -56.492 -1.219 4.984
H -42.385 0.948 4.729
H -44.937 0.936 4.792
H -60.345 0.825 5.067
H -46.218 -1.166 4.806
H -48.778 -1.181 4.864
H -39.836 0.958 4.671
H -55.185 0.873 5.017
H -43.663 -1.152 4.747
H -59.077 -1.229 4.995
H -72.203 -2.019 -0.932
H -72.372 -2.116 1.229
H -72.508 -2.253 3.404
H -72.029 -1.923 -3.1
H -75.128 -2.044 1.049
H -74.915 -2.009 -1.095
H -75.297 -2.136 3.215
H -74.68 -2.016 -3.229
C 7.628 1.68 -2.005
C 7.692 1.652 0.595
C 7.731 1.641 2.156
C 7.592 1.701 -3.567
C 11.486 0.908 -1.596
C 11.523 0.897 -0.022
C 8.917 -0.609 -2.08
C 8.976 -0.633 0.565
C 10.253 1.66 0.529
C 8.925 0.905 -1.532
C 8.962 0.89 0.042
C 10.191 1.682 -2.071
C 11.584 0.892 2.552
C 9.011 -0.648 2.137
C 9.025 0.88 2.616
C 10.291 1.651 2.091
C 11.428 0.941 -4.17
C 8.885 -0.593 -3.652
C 10.155 1.7 -3.633
C 8.865 0.944 -4.106
C 12.773 -1.325 -1.625
C 12.806 -1.332 -0.072
C 11.537 -0.624 0.506
C 10.212 -1.327 -1.568
C 10.245 -1.339 -0.014
C 11.48 -0.608 -2.139
C 12.864 -1.338 2.619
C 10.304 -1.352 2.676
C 11.571 -0.636 2.077
C 12.718 -1.304 -4.317
C 11.448 -0.596 -3.712
C 10.156 -1.298 -4.26
C 12.752 1.684 -2.137
C 12.813 1.667 0.463
C 12.85 1.662 2.025
C 12.717 1.699 -3.699
C 16.609 0.913 -1.724
C 16.643 0.909 -0.15
C 14.041 -0.607 -2.199
C 14.097 -0.617 0.446
C 15.373 1.674 0.397
C 14.048 0.91 -1.66
C 14.083 0.903 -0.086
C 15.314 1.686 -2.203
C 16.702 0.916 2.424
C 14.131 -0.624 2.017
C 14.144 0.904 2.488
C 15.409 1.672 1.959
C 16.553 0.936 -4.298
C 14.009 -0.599 -3.772
C 15.279 1.699 -3.765
C 13.99 0.938 -4.234
C 17.896 -1.321 -1.74
C 17.927 -1.32 -0.186
C 16.658 -0.609 0.386
C 15.335 -1.323 -1.683
C 15.366 -1.326 -0.129
C 16.603 -0.606 -2.259
C 17.982 -1.311 2.505
C 15.424 -1.324 2.562
C 16.69 -0.613 1.957
C 17.844 -1.314 -4.431
C 16.572 -0.601 -3.832
C 15.28 -1.309 -4.375
C 17.876 1.688 -2.268
C 17.933 1.681 0.332
C 17.967 1.681 1.894
C 17.843 1.699 -3.83
C 21.734 0.92 -1.844
C 21.764 0.921 -0.269
C 19.165 -0.605 -2.317
C 19.218 -0.602 0.328
C 20.492 1.688 0.27
C 19.171 0.916 -1.786
C 19.204 0.915 -0.212
C 20.439 1.691 -2.329
C 21.815 0.935 2.305
C 19.249 -0.603 1.899
C 19.259 0.926 2.362
C 20.524 1.69 1.832
C 21.686 0.934 -4.417
C 19.136 -0.603 -3.89
C 20.409 1.699 -3.892
C 19.118 0.934 -4.36
C 23.022 -1.315 -1.844
C 23.049 -1.309 -0.291
C 21.777 -0.595 0.273
C 20.459 -1.319 -1.794
C 20.488 -1.314 -0.241
C 21.729 -0.602 -2.371
C 23.096 -1.291 2.4
C 20.54 -1.3 2.45
C 21.806 -0.594 1.844
C 22.977 -1.317 -4.535
C 21.702 -0.603 -3.944
C 20.409 -1.317 -4.486
C 23.005 1.695 -2.384
C 23.051 1.694 0.215
C 23.08 1.698 1.777
C 22.977 1.701 -3.947
C 26.864 0.93 -1.935
C 26.886 0.931 -0.36
C 24.294 -0.599 -2.419
C 24.337 -0.59 0.225
C 25.611 1.7 0.169
C 24.299 0.925 -1.894
C 24.325 0.926 -0.319
C 25.571 1.699 -2.431
C 26.923 0.948 2.213
C 24.363 -0.587 1.796
C 24.369 0.943 2.254
C 25.636 1.704 1.73
C 26.83 0.941 -4.508
C 24.27 -0.601 -3.993
C 25.548 1.705 -3.994
C 24.257 0.937 -4.467
C 28.152 -1.306 -1.925
C 28.172 -1.299 -0.371
C 26.898 -0.584 0.184
C 25.586 -1.311 -1.888
C 25.61 -1.304 -0.335
C 26.861 -0.594 -2.46
C 28.208 -1.28 2.319
C 25.652 -1.284 2.356
C 26.921 -0.581 1.755
C 28.118 -1.309 -4.616
C 26.839 -0.597 -4.033
C 25.547 -1.315 -4.579
C 28.139 1.705 -2.466
C 28.171 1.705 0.133
C 28.191 1.709 1.695
C 28.12 1.711 -4.03
C 31.998 0.941 -1.985
C 32.011 0.94 -0.411
C 29.428 -0.588 -2.491
C 29.458 -0.58 0.153
C 30.732 1.709 0.109
C 29.431 0.935 -1.965
C 29.448 0.936 -0.391
C 30.708 1.711 -2.491
C 32.034 0.953 2.163
C 29.478 -0.578 1.724
C 29.478 0.952 2.183
C 30.748 1.712 1.67
C 31.978 0.958 -4.559
C 29.41 -0.589 -4.065
C 30.693 1.718 -4.054
C 29.404 0.949 -4.539
C 33.283 -1.293 -1.974
C 33.298 -1.291 -0.42
C 32.02 -0.577 0.13
C 30.717 -1.3 -1.953
C 30.735 -1.295 -0.399
C 31.995 -0.581 -2.514
C 33.323 -1.28 2.27
C 30.765 -1.278 2.291
C 32.037 -0.577 1.701
C 33.261 -1.287 -4.665
C 31.98 -0.58 -4.088
C 30.69 -1.299 -4.644
C 33.276 1.717 -2.504
C 33.294 1.712 0.095
C 33.307 1.713 1.657
C 33.265 1.727 -4.068
C 37.13 0.952 -2.004
C 37.139 0.945 -0.429
C 34.562 -0.573 -2.529
C 34.583 -0.575 0.115
C 35.858 1.714 0.088
C 34.564 0.947 -1.997
C 34.575 0.944 -0.422
C 35.843 1.723 -2.511
C 37.155 0.949 2.145
C 34.597 -0.577 1.686
C 34.593 0.952 2.152
C 35.869 1.712 1.65
C 37.117 0.978 -4.577
C 34.549 -0.57 -4.103
C 35.834 1.736 -4.074
C 34.549 0.968 -4.57
C 38.413 -1.281 -2.002
C 38.425 -1.287 -0.448
C 37.146 -0.574 0.104
C 35.848 -1.287 -1.989
C 35.861 -1.288 -0.435
C 37.127 -0.567 -2.541
C 38.447 -1.29 2.242
C 35.884 -1.284 2.256
C 37.16 -0.58 1.676
C 38.394 -1.261 -4.694
C 37.116 -0.559 -4.114
C 35.829 -1.274 -4.68
C 38.409 1.727 -2.516
C 38.423 1.713 0.084
C 38.433 1.708 1.646
C 38.401 1.743 -4.079
C 39.691 -0.561 -2.553
C 39.711 -0.576 0.092
C 40.989 1.71 0.076
C 39.695 0.954 -2.011
C 39.704 0.945 -0.437
C 40.974 1.729 -2.524
C 39.725 -0.586 1.664
C 39.721 0.943 2.138
C 40.999 1.702 1.638
C 39.68 -0.55 -4.126
C 40.965 1.748 -4.087
C 39.682 0.987 -4.585
C 40.977 -1.277 -2.019
C 40.989 -1.287 -0.465
C 41.013 -1.298 2.226
C 40.956 -1.25 -4.711
C 2.5 1.677 -1.864
C 2.568 1.637 0.735
C 2.609 1.619 2.297
C 2.461 1.706 -3.425
C 6.362 0.903 -1.467
C 6.4 0.884 0.107
C 3.789 -0.609 -1.955
C 3.851 -0.649 0.689
C 5.131 1.645 0.663
C 3.798 0.901 -1.399
C 3.837 0.877 0.175
C 5.065 1.678 -1.936
C 6.465 0.867 2.68
C 3.888 -0.673 2.26
C 3.904 0.854 2.748
C 5.171 1.63 2.224
C 6.301 0.948 -4.041
C 3.755 -0.585 -3.528
C 5.027 1.703 -3.498
C 3.734 0.952 -3.972
C 7.649 -1.329 -1.51
C 7.683 -1.345 0.043
C 6.414 -0.641 0.625
C 5.085 -1.33 -1.451
C 5.12 -1.352 0.102
C 6.354 -0.609 -2.019
C 7.743 -1.366 2.734
C 5.182 -1.382 2.792
C 6.45 -0.66 2.197
C 7.593 -1.291 -4.203
C 6.321 -0.589 -3.592
C 5.027 -1.284 -4.143
C -2.636 1.679 -1.706
C -2.566 1.626 0.891
C -2.524 1.6 2.453
C -2.675 1.715 -3.267
C 1.232 0.899 -1.326
C 1.272 0.871 0.248
C -1.346 -0.607 -1.817
C -1.282 -0.665 0.826
C 0.002 1.631 0.812
C -1.336 0.899 -1.249
C -1.295 0.867 0.324
C -0.067 1.678 -1.786
C 1.342 0.841 2.82
C -1.244 -0.699 2.397
C -1.224 0.829 2.896
C 0.045 1.609 2.374
C 1.166 0.958 -3.898
C -1.381 -0.573 -3.388
C -0.107 1.709 -3.348
C -1.402 0.965 -3.821
C 2.519 -1.332 -1.388
C 2.555 -1.359 0.165
C 1.286 -0.657 0.756
C -0.048 -1.332 -1.322
C -0.012 -1.365 0.231
C 1.222 -0.608 -1.888
C 2.619 -1.398 2.854
C 0.054 -1.414 2.919
C 1.324 -0.686 2.327
C 2.46 -1.276 -4.08
C 1.188 -0.58 -3.46
C -0.109 -1.267 -4.013
C -7.779 1.692 -1.55
C -7.714 1.625 1.045
C -7.674 1.591 2.608
C -7.815 1.735 -3.111
C -3.906 0.901 -1.172
C -3.866 0.864 0.402
C -6.49 -0.596 -1.675
C -6.429 -0.673 0.966
C -5.138 1.623 0.97
C -6.479 0.906 -1.096
C -6.44 0.864 0.477
C -5.206 1.684 -1.626
C -3.795 0.819 2.972
C -6.391 -0.717 2.538
C -6.372 0.812 3.047
C -5.097 1.593 2.532
C -3.972 0.974 -3.743
C -6.523 -0.553 -3.245
C -5.245 1.723 -3.187
C -6.542 0.986 -3.666
C -2.618 -1.331 -1.254
C -2.582 -1.37 0.299
C -3.854 -0.67 0.897
C -5.191 -1.328 -1.186
C -5.155 -1.373 0.367
C -3.917 -0.603 -1.745
C -2.516 -1.429 2.986
C -5.091 -1.442 3.052
C -3.815 -0.709 2.469
C -2.679 -1.256 -3.944
C -3.952 -0.564 -3.316
C -5.25 -1.243 -3.875
C -12.931 1.723 -1.415
C -12.875 1.645 1.179
C -12.841 1.606 2.742
C -12.963 1.772 -2.975
C -9.054 0.915 -1.025
C -9.017 0.869 0.548
C -11.643 -0.572 -1.547
C -11.589 -0.664 1.09
C -10.293 1.632 1.115
C -11.632 0.929 -0.96
C -11.597 0.88 0.613
C -10.354 1.705 -1.48
C -8.953 0.81 3.116
C -11.555 -0.716 2.662
C -11.538 0.814 3.181
C -10.256 1.595 2.678
C -9.113 1.002 -3.595
C -11.673 -0.52 -3.118
C -10.388 1.751 -3.04
C -11.686 1.021 -3.529
C -7.766 -1.322 -1.121
C -7.732 -1.372 0.431
C -9.007 -0.671 1.03
C -10.344 -1.312 -1.061
C -10.312 -1.367 0.491
C -9.065 -0.586 -1.609
C -7.67 -1.451 3.115
C -10.254 -1.455 3.173
C -8.972 -0.72 2.602
C -7.823 -1.228 -3.809
C -9.097 -0.539 -3.179
C -10.397 -1.209 -3.747
C -18.089 1.772 -1.302
C -18.045 1.688 1.29
C -18.017 1.646 2.854
C -18.114 1.825 -2.862
C -14.212 0.948 -0.899
C -14.18 0.896 0.674
C -16.802 -0.532 -1.437
C -16.757 -0.633 1.198
C -15.46 1.665 1.238
C -16.793 0.971 -0.844
C -16.764 0.917 0.728
C -15.51 1.746 -1.355
C -14.126 0.826 3.24
C -16.729 -0.69 2.77
C -16.715 0.844 3.294
C -15.428 1.623 2.801
C -14.262 1.045 -3.467
C -16.828 -0.474 -3.007
C -15.538 1.797 -2.915
C -16.837 1.072 -3.412
C -12.925 -1.298 -1.005
C -12.894 -1.357 0.548
C -14.172 -0.651 1.146
C -15.506 -1.28 -0.952
C -15.478 -1.342 0.6
C -14.222 -0.553 -1.49
C -12.84 -1.451 3.228
C -15.428 -1.441 3.279
C -14.141 -0.706 2.718
C -12.974 -1.188 -3.689
C -14.25 -0.499 -3.06
C -15.552 -1.164 -3.635
C -19.373 0.996 -0.797
C -19.348 0.941 0.776
C -19.306 0.867 3.342
C -19.412 1.099 -3.363
C -18.087 -1.26 -0.904
C -18.062 -1.324 0.649
C -19.342 -0.612 1.244
C -19.382 -0.508 -1.39
C -18.017 -1.426 3.325
C -19.317 -0.67 2.815
C -18.129 -1.14 -3.584
C -19.405 -0.449 -2.96
H 26.94 0.983 3.295
H 24.39 0.978 3.336
H 26.816 0.967 -5.59
H 24.239 0.963 -5.549
H 28.222 -1.013 3.367
H 25.67 -1.017 3.404
H 28.107 -1.069 -5.671
H 25.531 -1.075 -5.634
H 32.042 0.985 3.244
H 29.49 0.986 3.264
H 31.974 0.987 -5.64
H 29.395 0.976 -5.62
H 33.33 -1.018 3.32
H 30.775 -1.014 3.34
H 33.258 -1.042 -5.718
H 30.683 -1.057 -5.699
H 37.159 0.976 3.227
H 34.598 0.982 3.233
H 37.119 1.013 -5.659
H 34.549 1 -5.652
H 38.453 -1.036 3.294
H 35.889 -1.026 3.306
H 38.393 -1.006 -5.745
H 35.828 -1.024 -5.733
H 39.727 0.967 3.219
H 39.682 1.025 -5.666
H 41.022 -1.048 3.279
H 40.953 -0.991 -5.761
H -1.187 0.835 3.977
H -1.431 1.018 -4.902
H -3.758 0.82 4.054
H -6.336 0.809 4.128
H -3.999 1.031 -4.823
H -6.567 1.046 -4.746
H -2.481 -1.207 4.044
H -5.056 -1.226 4.112
H -2.705 -0.974 -4.988
H -5.275 -0.956 -4.918
H -8.919 0.803 4.198
H -11.507 0.804 4.262
H -9.136 1.065 -4.675
H -11.707 1.088 -4.608
H -7.638 -1.241 4.176
H -10.223 -1.249 4.235
H -7.845 -0.936 -4.85
H -10.417 -0.913 -4.787
H -14.096 0.814 4.322
H -16.689 0.831 4.376
H -14.28 1.114 -4.547
H -16.854 1.143 -4.491
H -12.811 -1.25 4.29
H -15.401 -1.243 4.342
H -12.992 -0.888 -4.728
H -15.568 -0.86 -4.673
H -19.284 0.854 4.424
H -19.425 1.173 -4.442
H -17.993 -1.228 4.389
H -18.144 -0.833 -4.622
H 20.388 -1.074 -5.54
H 6.276 0.992 -5.121
H 7.57 -1.029 -5.252
H 19.094 0.964 -5.441
H 17.821 -1.067 -5.485
H 5.004 -1.017 -5.191
H 16.527 0.968 -5.379
H 15.257 -1.059 -5.427
H 3.708 0.999 -5.053
H 2.435 -1.005 -5.127
H 13.965 0.973 -5.315
H 1.139 1.008 -4.979
H 12.695 -1.049 -5.369
H -0.135 -0.99 -5.059
H 11.403 0.979 -5.251
H 10.134 -1.039 -5.311
H 21.664 0.962 -5.498
H 22.958 -1.077 -5.59
H 8.841 0.985 -5.187
H 14.173 0.93 3.569
H 11.614 0.915 3.634
H 23.118 -1.025 3.448
H 0.088 -1.185 3.976
H 9.054 0.9 3.697
H 20.564 -1.037 3.499
H 10.331 -1.104 3.729
H 7.771 -1.123 3.787
H 3.938 0.868 3.829
H 5.212 -1.142 3.847
H 19.287 0.958 3.443
H 16.731 0.944 3.505
H 1.378 0.852 3.901
H 15.451 -1.068 3.613
H 12.891 -1.086 3.671
H 21.839 0.969 3.386
H 6.496 0.884 3.762
H 18.008 -1.051 3.555
H 2.652 -1.163 3.91
C 42.26 0.955 -2.025
C 42.27 0.942 -0.45
C 42.288 0.934 2.125
C 42.245 0.993 -4.598
C 43.542 -1.275 -2.042
C 43.555 -1.289 -0.488
C 42.277 -0.579 0.074
C 42.256 -0.558 -2.571
C 43.581 -1.307 2.204
C 42.291 -0.593 1.647
C 43.519 -1.24 -4.734
C 42.244 -0.543 -4.143
C 43.54 1.728 -2.54
C 43.555 1.703 0.06
C 43.567 1.692 1.623
C 43.531 1.749 -4.102
C 44.823 -0.557 -2.596
C 44.844 -0.585 0.05
C 46.124 1.692 0.037
C 44.828 0.952 -2.046
C 44.836 0.935 -0.471
C 46.111 1.723 -2.563
C 44.858 -0.603 1.622
C 44.856 0.922 2.104
C 46.134 1.679 1.6
C 44.811 -0.538 -4.168
C 46.102 1.747 -4.124
C 44.811 0.996 -4.619
C 46.112 -1.274 -2.072
C 46.122 -1.293 -0.519
C 46.147 -1.318 2.174
C 46.088 -1.232 -4.764
H 42.298 0.956 3.206
H 42.241 1.034 -5.679
H 43.592 -1.062 3.257
H 43.513 -0.978 -5.784
H 44.869 0.942 3.185
H 44.804 1.039 -5.7
H 46.161 -1.076 3.229
H 46.079 -0.966 -5.813
C 47.402 0.947 -2.072
C 47.406 0.926 -0.497
C 47.422 0.907 2.077
C 47.387 0.996 -4.644
C 48.689 -1.273 -2.104
C 48.695 -1.297 -0.551
C 47.413 -0.593 0.02
C 47.396 -0.558 -2.626
C 48.711 -1.331 2.142
C 47.424 -0.615 1.592
C 48.671 -1.223 -4.796
C 47.386 -0.536 -4.198
C 48.69 1.714 -2.586
C 48.695 1.678 0.013
C 48.699 1.662 1.575
C 48.685 1.74 -4.148
C 49.983 -0.56 -2.653
C 49.987 -0.604 -0.008
C 51.272 1.659 -0.002
C 49.986 0.94 -2.095
C 49.982 0.913 -0.521
C 51.284 1.701 -2.6
C 49.989 -0.629 1.563
C 49.986 0.888 2.053
C 51.265 1.641 1.559
C 49.979 -0.534 -4.226
C 51.289 1.729 -4.162
C 49.982 0.994 -4.666
C 51.28 -1.272 -2.128
C 51.276 -1.303 -0.576
C 51.273 -1.346 2.117
C 51.278 -1.213 -4.819
H 47.436 0.924 3.159
H 47.378 1.042 -5.725
H 48.724 -1.091 3.197
H 48.662 -0.954 -5.844
H 49.995 0.902 3.135
H 49.975 1.042 -5.747
H 51.279 -1.111 3.173
H 51.274 -0.938 -5.865
C 52.587 0.93 -2.099
C 52.57 0.897 -0.526
C 52.547 0.866 2.046
C 52.606 0.989 -4.667
C 53.894 -1.27 -2.125
C 53.873 -1.311 -0.574
C 52.571 -0.617 -0.02
C 52.59 -0.562 -2.662
C 53.835 -1.364 2.116
C 52.557 -0.645 1.55
C 53.921 -1.199 -4.811
C 52.599 -0.534 -4.234
C 53.902 1.685 -2.583
C 53.862 1.635 0.01
C 53.834 1.616 1.57
C 53.924 1.712 -4.145
C 55.231 -0.564 -2.629
C 55.173 -0.636 0.008
C 56.474 1.609 0.081
C 55.217 0.92 -2.061
C 55.181 0.878 -0.489
C 56.554 1.67 -2.512
C 55.133 -0.666 1.577
C 55.111 0.84 2.078
C 56.414 1.587 1.639
C 55.26 -0.533 -4.199
C 56.603 1.692 -4.074
C 55.275 0.981 -4.624
C 56.543 -1.267 -2.07
C 56.497 -1.324 -0.517
C 56.402 -1.388 2.17
C 56.615 -1.183 -4.747
H 52.544 0.875 3.128
H 52.609 1.04 -5.748
H 53.822 -1.137 3.174
H 53.934 -0.913 -5.855
H 55.082 0.841 3.16
H 55.297 1.033 -5.705
H 56.354 -1.173 3.23
H 56.657 -0.874 -5.783
C 57.893 0.916 -1.951
C 57.831 0.859 -0.371
C 57.692 0.81 2.19
C 58.009 0.974 -4.505
C 59.235 -1.274 -1.921
C 59.158 -1.355 -0.368
C 57.807 -0.662 0.114
C 57.922 -0.564 -2.522
C 58.986 -1.426 2.343
C 57.731 -0.695 1.687
C 59.374 -1.185 -4.609
C 57.983 -0.538 -4.093
C 59.256 1.681 -2.358
C 59.123 1.6 0.258
C 59.029 1.561 1.827
C 59.345 1.712 -3.927
C 60.677 -0.575 -2.281
C 60.492 -0.682 0.35
C 61.861 1.509 0.635
C 60.626 0.92 -1.702
C 60.528 0.855 -0.117
C 62.054 1.62 -2.032
C 60.374 -0.736 1.934
C 60.311 0.757 2.459
C 61.726 1.429 2.182
C 60.786 -0.536 -3.865
C 62.186 1.673 -3.577
C 60.826 1.005 -4.266
C 62.048 -1.257 -1.599
C 61.926 -1.326 -0.05
C 61.69 -1.447 2.609
C 62.272 -1.138 -4.27
H 57.612 0.797 3.269
H 58.057 1.018 -5.585
H 58.882 -1.242 3.404
H 59.471 -0.819 -5.623
H 60.17 0.727 3.531
H 60.962 1.072 -5.338
H 61.544 -1.484 3.68
H 62.4 -0.994 -5.334
H 62.113 -2.279 -1.948
H 61.912 -2.378 0.2
H 61.75 -2.491 2.329
H 62.276 -2.213 -4.149
C 63.401 0.921 -1.345
C 63.283 0.855 0.24
C 63.031 0.708 2.827
C 63.643 1.024 -3.923
C 64.828 -1.22 -1.242
C 64.703 -1.277 0.307
C 63.253 -0.653 0.698
C 63.473 -0.54 -1.93
C 64.464 -1.4 2.978
C 63.114 -0.741 2.28
C 65.059 -1.117 -3.901
C 63.607 -0.48 -3.512
C 64.815 1.655 -1.685
C 64.596 1.547 0.989
C 64.45 1.449 2.539
C 64.958 1.716 -3.23
H 62.88 0.658 3.898
H 63.778 1.089 -4.994
H 64.327 -1.377 4.051
H 65.184 -1.045 -4.973
H 64.689 -2.325 0.578
H 64.884 -2.251 -1.568
H 64.515 -2.458 2.758
H 65.046 -2.182 -3.711
H -72.206 2.918 -0.621
H -72.264 2.816 1.468
H -72.379 2.663 3.656
H -72.089 3.009 -2.822
H -74.826 2.931 -0.941
H -74.958 2.891 1.169
H -75.129 2.783 3.36
H -74.625 2.934 -3.136
H 64.746 2.679 -1.342
H 62.013 2.648 -1.698
H 61.905 2.565 0.406
H 62.223 2.71 -3.882
H 64.36 2.442 2.961
H 64.974 2.756 -3.528
H 61.696 2.427 2.599
H 64.589 2.607 0.772
H -61.626 -0.552 -4.027
H -20.716 -0.806 -4.586
C -54.029 6.459 -0.567
C -53.968 6.39 2.032
C -53.932 6.355 3.598
C -54.065 6.497 -2.132
C -50.186 5.686 -0.164
C -50.148 5.644 1.399
C -52.736 4.173 -0.649
C -52.68 4.087 1.947
C -51.416 6.405 1.964
C -52.737 5.68 -0.096
C -52.7 5.634 1.467
C -51.479 6.466 -0.634
C -50.085 5.589 3.976
C -52.648 4.043 3.512
C -52.639 5.572 4.043
C -51.378 6.373 3.53
C -50.249 5.747 -2.744
C -52.767 4.224 -2.212
C -51.516 6.501 -2.2
C -52.797 5.746 -2.678
C -48.894 3.387 -0.25
C -48.86 3.335 1.312
C -50.127 4.097 1.882
C -51.446 3.385 -0.185
C -51.412 3.328 1.377
C -50.186 4.176 -0.713
C -48.8 3.264 3.885
C -51.356 3.25 3.95
C -50.092 4.057 3.448
C -48.954 3.469 -2.826
C -50.22 4.222 -2.277
C -51.501 3.473 -2.762
C -48.928 6.473 -0.704
C -48.863 6.416 1.894
C -48.825 6.387 3.46
C -48.966 6.505 -2.269
C -45.079 5.698 -0.306
C -45.042 5.661 1.258
C -47.634 4.179 -0.781
C -47.574 4.106 1.814
C -46.31 6.426 1.822
C -47.633 5.692 -0.234
C -47.596 5.653 1.329
C -46.374 6.479 -0.776
C -44.979 5.612 3.834
C -47.537 4.068 3.379
C -47.531 5.601 3.905
C -46.272 6.398 3.388
C -45.142 5.752 -2.884
C -47.67 4.222 -2.345
C -46.413 6.509 -2.341
C -47.698 5.749 -2.814
C -43.786 3.395 -0.387
C -43.752 3.348 1.176
C -45.02 4.114 1.744
C -46.341 3.391 -0.318
C -46.306 3.342 1.244
C -45.08 4.183 -0.851
C -43.692 3.285 3.748
C -46.245 3.275 3.817
C -44.984 4.079 3.309
C -43.845 3.468 -2.961
C -45.116 4.223 -2.415
C -46.402 3.468 -2.894
C -43.818 6.485 -0.846
C -43.757 6.433 1.751
C -43.72 6.407 3.317
C -43.855 6.513 -2.411
C -39.962 5.707 -0.436
C -39.931 5.672 1.127
C -42.523 4.186 -0.918
C -42.466 4.12 1.676
C -41.202 6.439 1.685
C -42.522 5.703 -0.374
C -42.487 5.667 1.189
C -41.258 6.489 -0.912
C -39.877 5.626 3.703
C -42.431 4.087 3.242
C -42.427 5.62 3.765
C -41.168 6.414 3.251
C -40.015 5.757 -3.014
C -42.557 4.225 -2.482
C -41.292 6.517 -2.477
C -42.582 5.755 -2.952
C -38.668 3.401 -0.508
C -38.639 3.357 1.055
C -39.91 4.125 1.615
C -41.228 3.398 -0.451
C -41.196 3.353 1.112
C -39.962 4.189 -0.979
C -38.59 3.299 3.628
C -41.141 3.293 3.684
C -39.879 4.093 3.18
C -38.716 3.469 -3.081
C -39.993 4.226 -2.544
C -41.283 3.469 -3.025
C -38.694 6.491 -0.97
C -38.645 6.443 1.627
C -38.615 6.419 3.192
C -38.724 6.518 -2.535
C -34.832 5.707 -0.53
C -34.809 5.672 1.034
C -37.398 4.19 -1.031
C -37.353 4.127 1.562
C -36.086 6.443 1.58
C -37.398 5.709 -0.489
C -37.371 5.674 1.074
C -36.127 6.491 -1.017
C -34.772 5.629 3.609
C -37.326 4.097 3.128
C -37.326 5.63 3.65
C -36.061 6.419 3.145
C -34.869 5.757 -3.106
C -37.424 4.227 -2.596
C -36.152 6.518 -2.582
C -37.444 5.758 -3.066
C -33.537 3.399 -0.589
C -33.516 3.355 0.974
C -34.793 4.126 1.521
C -36.104 3.401 -0.554
C -36.079 3.358 1.009
C -34.83 4.189 -1.072
C -33.483 3.298 3.545
C -36.038 3.301 3.581
C -34.77 4.096 3.087
C -33.569 3.467 -3.162
C -34.852 4.225 -2.637
C -36.144 3.469 -3.128
C -33.557 6.487 -1.051
C -33.523 6.439 1.545
C -33.503 6.415 3.11
C -33.577 6.514 -2.617
C -29.69 5.689 -0.578
C -29.674 5.654 0.986
C -32.26 4.183 -1.101
C -32.229 4.12 1.492
C -30.956 6.429 1.521
C -32.263 5.701 -0.559
C -32.243 5.666 1.005
C -30.984 6.477 -1.074
C -29.65 5.61 3.56
C -32.21 4.09 3.057
C -32.215 5.622 3.579
C -30.94 6.405 3.087
C -29.714 5.739 -3.154
C -32.278 4.22 -2.666
C -31 6.504 -2.64
C -32.291 5.751 -3.135
C -28.395 3.378 -0.63
C -28.378 3.334 0.933
C -29.66 4.109 1.473
C -30.967 3.391 -0.613
C -30.949 3.348 0.949
C -29.687 4.172 -1.12
C -28.355 3.275 3.503
C -30.923 3.29 3.521
C -29.644 4.077 3.038
C -28.417 3.449 -3.203
C -29.702 4.21 -2.685
C -30.993 3.461 -3.187
C -28.409 6.461 -1.09
C -28.384 6.412 1.506
C -28.369 6.388 3.072
C -28.423 6.489 -2.656
C -24.539 5.645 -0.608
C -24.521 5.611 0.955
C -27.112 4.155 -1.135
C -27.086 4.091 1.458
C -25.807 6.389 1.491
C -27.116 5.67 -0.592
C -27.099 5.636 0.972
C -25.833 6.438 -1.104
C -24.494 5.564 3.528
C -27.071 4.058 3.023
C -27.076 5.59 3.545
C -25.791 6.364 3.058
C -24.564 5.697 -3.185
C -27.127 4.194 -2.699
C -25.848 6.466 -2.669
C -27.138 5.721 -3.168
C -23.243 3.335 -0.666
C -23.223 3.29 0.896
C -24.507 4.067 1.441
C -25.82 3.359 -0.645
C -25.803 3.315 0.917
C -24.536 4.132 -1.152
C -23.193 3.228 3.467
C -25.778 3.254 3.488
C -24.49 4.033 3.007
C -23.271 3.407 -3.24
C -24.552 4.171 -2.716
C -25.844 3.431 -3.219
C -23.256 6.41 -1.124
C -23.225 6.361 1.471
C -23.206 6.335 3.038
C -23.274 6.438 -2.689
C -21.959 4.104 -1.178
C -21.924 4.039 1.415
C -20.64 6.329 1.44
C -21.96 5.616 -0.633
C -21.939 5.582 0.93
C -20.678 6.378 -1.155
C -21.903 4.004 2.981
C -21.905 5.534 3.503
C -20.616 6.302 3.006
C -21.979 4.144 -2.741
C -20.701 6.406 -2.72
C -21.993 5.667 -3.21
C -20.664 3.307 -0.698
C -20.641 3.263 0.864
C -20.602 3.199 3.435
C -20.7 3.379 -3.272
C -59.132 6.438 -0.438
C -59.076 6.347 2.161
C -59.044 6.299 3.726
C -59.162 6.489 -2.003
C -55.287 5.672 -0.032
C -55.252 5.621 1.531
C -57.837 4.17 -0.538
C -57.792 4.06 2.058
C -56.521 6.371 2.097
C -57.839 5.663 0.029
C -57.806 5.604 1.592
C -56.58 6.45 -0.502
C -55.194 5.551 4.108
C -57.768 4.002 3.623
C -57.751 5.523 4.168
C -56.487 6.331 3.663
C -55.344 5.747 -2.614
C -57.86 4.234 -2.1
C -56.613 6.494 -2.067
C -57.892 5.75 -2.554
C -53.996 3.383 -0.126
C -53.966 3.321 1.436
C -55.235 4.075 2.006
C -56.548 3.382 -0.074
C -56.521 3.313 1.488
C -55.286 4.171 -0.59
C -53.915 3.234 4.009
C -56.477 3.214 4.061
C -55.206 4.025 3.571
C -54.046 3.479 -2.704
C -55.313 4.227 -2.154
C -56.59 3.491 -2.652
C -64.247 6.406 -0.321
C -64.197 6.277 2.282
C -64.166 6.204 3.846
C -64.264 6.477 -1.883
C -60.394 5.652 0.088
C -60.362 5.583 1.649
C -62.955 4.164 -0.453
C -62.926 4.018 2.14
C -61.634 6.316 2.222
C -62.954 5.637 0.141
C -62.924 5.557 1.702
C -61.688 6.423 -0.376
C -60.311 5.485 4.225
C -62.91 3.935 3.704
C -62.874 5.437 4.278
C -61.603 6.256 3.787
C -60.44 5.754 -2.496
C -62.963 4.251 -2.014
C -61.712 6.484 -1.939
C -62.99 5.758 -2.443
C -59.103 3.381 -0.029
C -59.079 3.303 1.532
C -60.355 4.041 2.104
C -61.665 3.38 0.006
C -61.646 3.292 1.566
C -60.393 4.168 -0.491
C -59.043 3.188 4.104
C -61.618 3.155 4.138
C -60.335 3.973 3.668
C -59.137 3.506 -2.608
C -60.409 4.242 -2.053
C -61.686 3.526 -2.572
C -65.52 5.622 0.18
C -65.492 5.529 1.751
C -68.1 4.168 -0.452
C -68.094 3.977 2.183
C -66.763 6.238 2.353
C -68.058 5.598 0.22
C -68.031 5.494 1.772
C -66.81 6.394 -0.29
C -65.439 5.376 4.33
C -68.094 3.864 3.763
C -67.975 5.301 4.46
C -66.735 6.149 3.934
C -65.54 5.764 -2.406
C -68.089 4.276 -2.025
C -66.823 6.478 -1.867
C -68.071 5.768 -2.456
C -64.237 3.379 0.029
C -64.224 3.278 1.587
C -65.507 3.991 2.165
C -66.821 3.379 0.025
C -66.816 3.269 1.592
C -65.526 4.161 -0.433
C -64.206 3.115 4.158
C -66.808 3.073 4.164
C -65.497 3.891 3.728
C -64.241 3.548 -2.548
C -65.523 4.26 -1.992
C -66.798 3.568 -2.555
C -69.381 3.387 -0.002
C -69.385 3.279 1.545
C -69.392 3.053 4.225
C -69.341 3.587 -2.662
H -34.757 5.619 4.69
H -37.305 5.62 4.731
H -34.882 5.781 -4.188
H -37.463 5.782 -4.147
H -33.47 3.281 4.627
H -36.02 3.283 4.663
H -33.58 3.5 -4.244
H -36.16 3.502 -4.209
H -29.643 5.6 4.642
H -32.204 5.613 4.661
H -29.718 5.763 -4.236
H -32.3 5.775 -4.217
H -28.348 3.256 4.585
H -30.914 3.272 4.603
H -28.421 3.483 -4.285
H -31 3.495 -4.268
H -24.484 5.553 4.61
H -27.069 5.58 4.627
H -24.569 5.719 -4.267
H -27.141 5.745 -4.25
H -23.18 3.206 4.548
H -25.769 3.233 4.57
H -23.278 3.441 -4.321
H -25.847 3.465 -4.3
H -21.889 5.521 4.585
H -22.002 5.688 -4.292
H -20.583 3.175 4.516
H -20.712 3.412 -4.353
H -62.847 5.394 5.359
H -63.013 5.811 -3.523
H -65.395 5.307 5.408
H -67.868 5.168 5.529
H -65.544 5.822 -3.487
H -68.053 5.837 -3.536
H -64.192 3.043 5.238
H -66.785 2.97 5.241
H -64.246 3.627 -3.627
H -66.78 3.655 -3.633
H -69.31 2.869 5.288
H -69.301 3.685 -3.739
H -41.309 3.502 -4.106
H -55.371 5.778 -3.696
H -54.07 3.523 -3.785
H -42.609 5.779 -4.033
H -43.873 3.503 -4.043
H -56.611 3.539 -3.733
H -45.172 5.776 -3.965
H -46.431 3.504 -3.975
H -57.918 5.786 -3.635
H -59.154 3.564 -3.688
H -47.728 5.774 -3.895
H -60.466 5.798 -3.577
H -48.982 3.506 -3.907
H -61.7 3.594 -3.652
H -50.278 5.772 -3.826
H -51.528 3.512 -3.843
H -40.039 5.781 -4.095
H -38.737 3.503 -4.163
H -52.825 5.773 -3.759
H -47.5 5.591 4.986
H -50.055 5.577 5.057
H -38.567 3.281 4.709
H -61.6 3.099 5.218
H -52.611 5.559 5.125
H -41.114 3.274 4.766
H -51.329 3.225 5.032
H -53.89 3.205 5.091
H -57.724 5.501 5.25
H -56.454 3.179 5.142
H -42.399 5.61 4.847
H -44.948 5.601 4.915
H -60.284 5.455 5.307
H -46.215 3.254 4.898
H -48.77 3.241 4.966
H -39.852 5.617 4.784
H -55.167 5.534 5.189
H -43.663 3.265 4.83
H -59.023 3.144 5.185
C 7.599 6.248 -1.961
C 7.67 6.222 0.639
C 7.713 6.208 2.205
C 7.557 6.263 -3.527
C 11.46 5.482 -1.557
C 11.5 5.469 0.007
C 8.897 3.966 -2.017
C 8.964 3.941 0.582
C 10.23 6.229 0.567
C 8.898 5.478 -1.486
C 8.94 5.463 0.078
C 10.16 6.252 -2.033
C 11.569 5.448 2.588
C 9.005 3.928 2.147
C 9.011 5.44 2.659
C 10.272 6.216 2.133
C 11.393 5.504 -4.137
C 8.858 3.982 -3.582
C 10.119 6.265 -3.599
C 8.83 5.502 -4.066
C 12.756 3.198 -1.609
C 12.794 3.188 -0.046
C 11.524 3.948 0.512
C 10.195 3.195 -1.54
C 10.234 3.181 0.023
C 11.458 3.969 -2.086
C 12.86 3.172 2.534
C 10.301 3.162 2.602
C 11.564 3.937 2.078
C 12.693 3.22 -4.187
C 11.42 3.983 -3.651
C 10.131 3.221 -4.119
C 12.722 6.256 -2.105
C 12.79 6.235 0.496
C 12.831 6.223 2.062
C 12.682 6.268 -3.67
C 16.582 5.491 -1.699
C 16.62 5.481 -0.135
C 14.02 3.972 -2.156
C 14.084 3.955 0.443
C 15.349 6.242 0.424
C 14.021 5.487 -1.628
C 14.06 5.475 -0.064
C 15.283 6.26 -2.176
C 16.685 5.465 2.447
C 14.123 3.946 2.008
C 14.128 5.457 2.518
C 15.389 6.231 1.99
C 16.518 5.508 -4.278
C 13.982 3.984 -3.721
C 15.244 6.271 -3.742
C 13.955 5.506 -4.208
C 17.879 3.206 -1.745
C 17.914 3.2 -0.182
C 16.643 3.962 0.373
C 15.317 3.202 -1.677
C 15.354 3.194 -0.114
C 16.582 3.975 -2.225
C 17.975 3.191 2.398
C 15.418 3.182 2.465
C 16.681 3.954 1.939
C 17.82 3.221 -4.323
C 16.545 3.986 -3.79
C 15.255 3.22 -4.256
C 17.846 6.264 -2.247
C 17.908 6.248 0.354
C 17.946 6.238 1.92
C 17.809 6.274 -3.812
C 21.708 5.501 -1.83
C 21.74 5.493 -0.266
C 19.145 3.979 -2.292
C 19.202 3.968 0.306
C 20.467 6.254 0.288
C 19.145 5.496 -1.767
C 19.18 5.487 -0.203
C 20.41 6.269 -2.313
C 21.794 5.48 2.316
C 19.238 3.962 1.871
C 19.241 5.473 2.379
C 20.501 6.245 1.853
C 21.655 5.514 -4.409
C 19.111 3.988 -3.858
C 20.376 6.278 -3.879
C 19.085 5.511 -4.347
C 23.006 3.215 -1.866
C 23.034 3.211 -0.303
C 21.761 3.974 0.245
C 20.442 3.21 -1.809
C 20.474 3.206 -0.246
C 21.709 3.983 -2.354
C 23.084 3.208 2.277
C 20.53 3.2 2.334
C 21.793 3.97 1.81
C 22.958 3.225 -4.443
C 21.679 3.991 -3.919
C 20.387 3.222 -4.387
C 22.976 6.274 -2.371
C 23.025 6.26 0.229
C 23.055 6.252 1.795
C 22.947 6.282 -3.938
C 26.84 5.511 -1.925
C 26.862 5.504 -0.361
C 24.276 3.988 -2.406
C 24.32 3.98 0.192
C 25.584 6.265 0.181
C 24.274 5.506 -1.883
C 24.3 5.499 -0.319
C 25.544 6.279 -2.419
C 26.898 5.492 2.222
C 24.347 3.976 1.757
C 24.346 5.487 2.263
C 25.609 6.258 1.747
C 26.806 5.524 -4.504
C 24.25 3.994 -3.972
C 25.52 6.287 -3.986
C 24.229 5.519 -4.462
C 28.138 3.225 -1.948
C 28.157 3.222 -0.385
C 26.88 3.985 0.151
C 25.572 3.22 -1.913
C 25.595 3.217 -0.35
C 26.844 3.993 -2.448
C 28.189 3.219 2.195
C 25.636 3.214 2.23
C 26.902 3.982 1.716
C 28.108 3.235 -4.526
C 26.823 3.999 -4.014
C 25.532 3.229 -4.49
C 28.113 6.284 -2.455
C 28.144 6.271 0.146
C 28.163 6.263 1.712
C 28.095 6.292 -4.021
C 31.975 5.522 -1.969
C 31.987 5.513 -0.405
C 29.413 3.999 -2.477
C 29.44 3.99 0.122
C 30.705 6.275 0.124
C 29.408 5.517 -1.954
C 29.424 5.509 -0.389
C 30.683 6.29 -2.477
C 32.004 5.5 2.177
C 29.457 3.986 1.687
C 29.45 5.497 2.193
C 30.718 6.267 1.69
C 31.96 5.536 -4.549
C 29.398 4.005 -4.043
C 30.671 6.298 -4.043
C 29.383 5.53 -4.533
C 33.273 3.236 -1.983
C 33.284 3.23 -0.42
C 32.002 3.994 0.105
C 30.705 3.231 -1.972
C 30.72 3.226 -0.408
C 31.982 4.004 -2.493
C 33.299 3.224 2.16
C 30.743 3.222 2.172
C 32.014 3.989 1.67
C 33.259 3.25 -4.561
C 31.972 4.012 -4.059
C 30.685 3.242 -4.549
C 33.253 6.294 -2.487
C 33.267 6.279 0.114
C 33.276 6.27 1.68
C 33.245 6.304 -4.053
C 34.551 4.009 -2.5
C 34.565 3.997 0.098
C 35.831 6.28 0.112
C 34.543 5.526 -1.975
C 34.551 5.516 -0.411
C 35.821 6.298 -2.489
C 34.574 3.99 1.664
C 34.562 5.502 2.171
C 35.837 6.27 1.678
C 34.544 4.019 -4.066
C 35.816 6.308 -4.055
C 34.534 5.542 -4.555
C 35.839 3.24 -1.988
C 35.848 3.233 -0.424
C 35.86 3.223 2.156
C 35.83 3.258 -4.566
C 2.471 6.242 -1.807
C 2.547 6.211 0.792
C 2.594 6.194 2.357
C 2.426 6.259 -3.373
C 6.336 5.475 -1.413
C 6.379 5.457 0.15
C 3.77 3.961 -1.871
C 3.842 3.927 0.727
C 5.109 6.216 0.713
C 3.773 5.471 -1.337
C 3.817 5.452 0.226
C 5.035 6.245 -1.887
C 6.452 5.431 2.731
C 3.886 3.91 2.291
C 3.894 5.423 2.806
C 5.154 6.2 2.279
C 6.266 5.501 -3.994
C 3.728 3.981 -3.436
C 4.992 6.261 -3.452
C 3.7 5.501 -3.918
C 7.633 3.192 -1.471
C 7.673 3.175 0.092
C 6.404 3.934 0.652
C 5.07 3.189 -1.4
C 5.112 3.169 0.163
C 6.334 3.963 -1.946
C 7.742 3.151 2.67
C 5.183 3.141 2.741
C 6.446 3.919 2.217
C 7.567 3.222 -4.05
C 6.294 3.981 -3.511
C 5.002 3.223 -3.978
C -2.662 6.242 -1.635
C -2.583 6.205 0.963
C -2.535 6.184 2.528
C -2.708 6.262 -3.201
C 1.208 5.469 -1.256
C 1.254 5.448 0.307
C -1.362 3.96 -1.707
C -1.287 3.917 0.889
C -0.017 6.207 0.876
C -1.358 5.469 -1.171
C -1.312 5.445 0.393
C -0.095 6.241 -1.723
C 1.333 5.416 2.886
C -1.241 3.894 2.454
C -1.231 5.41 2.971
C 0.032 6.188 2.441
C 1.132 5.501 -3.836
C -1.406 3.985 -3.272
C -0.141 6.26 -3.289
C -1.436 5.504 -3.75
C 2.505 3.187 -1.324
C 2.548 3.163 0.238
C 1.279 3.922 0.806
C -0.061 3.185 -1.244
C -0.017 3.159 0.319
C 1.205 3.96 -1.791
C 2.623 3.131 2.816
C 0.06 3.121 2.895
C 1.324 3.901 2.371
C 2.435 3.225 -3.902
C 1.162 3.982 -3.356
C -0.133 3.229 -3.821
C -7.801 6.255 -1.465
C -7.728 6.213 1.132
C -7.683 6.188 2.698
C -7.843 6.279 -3.03
C -3.926 5.471 -1.083
C -3.881 5.445 0.48
C -6.501 3.969 -1.539
C -6.43 3.917 1.056
C -5.154 6.207 1.049
C -6.497 5.477 -0.999
C -6.453 5.448 0.565
C -5.23 6.246 -1.548
C -3.801 5.406 3.057
C -6.385 3.888 2.622
C -6.376 5.407 3.141
C -5.107 6.184 2.615
C -4.003 5.509 -3.663
C -6.542 3.999 -3.103
C -5.275 6.268 -3.113
C -6.57 5.517 -3.578
C -2.629 3.186 -1.16
C -2.585 3.156 0.402
C -3.857 3.915 0.974
C -5.199 3.189 -1.077
C -5.156 3.156 0.486
C -3.931 3.962 -1.622
C -2.508 3.113 2.978
C -5.081 3.108 3.06
C -3.811 3.89 2.539
C -2.702 3.234 -3.737
C -3.974 3.99 -3.186
C -5.27 3.243 -3.654
C -12.947 6.289 -1.317
C -12.886 6.242 1.279
C -12.848 6.216 2.845
C -12.983 6.316 -2.882
C -9.07 5.487 -0.919
C -9.029 5.457 0.644
C -11.648 3.996 -1.389
C -11.586 3.936 1.205
C -10.306 6.224 1.209
C -11.645 5.504 -0.846
C -11.607 5.472 0.718
C -10.373 6.269 -1.388
C -8.956 5.413 3.219
C -11.548 3.903 2.77
C -11.541 5.425 3.292
C -10.264 6.198 2.775
C -9.138 5.531 -3.498
C -11.684 4.031 -2.953
C -10.412 6.294 -2.953
C -11.708 5.55 -3.424
C -7.772 3.197 -0.998
C -7.731 3.161 0.565
C -9.006 3.924 1.134
C -10.347 3.21 -0.924
C -10.309 3.171 0.638
C -9.074 3.98 -1.461
C -7.659 3.108 3.138
C -10.242 3.113 3.211
C -8.965 3.893 2.699
C -7.839 3.255 -3.574
C -9.112 4.012 -3.025
C -10.409 3.272 -3.5
C -18.101 6.346 -1.199
C -18.054 6.297 1.396
C -18.025 6.269 2.963
C -18.128 6.373 -2.764
C -14.223 5.526 -0.779
C -14.189 5.493 0.784
C -16.803 4.045 -1.265
C -16.754 3.98 1.328
C -15.469 6.267 1.342
C -16.802 5.554 -0.72
C -16.772 5.52 0.843
C -15.524 6.315 -1.254
C -14.129 5.445 3.357
C -16.723 3.945 2.894
C -16.719 5.471 3.416
C -15.436 6.24 2.908
C -14.279 5.574 -3.357
C -16.831 4.083 -2.829
C -15.555 6.342 -2.819
C -16.851 5.603 -3.298
C -12.925 3.228 -0.857
C -12.89 3.186 0.706
C -14.169 3.955 1.27
C -15.504 3.251 -0.796
C -15.473 3.208 0.767
C -14.225 4.018 -1.324
C -12.829 3.125 3.277
C -15.418 3.145 3.337
C -14.134 3.921 2.835
C -12.981 3.294 -3.432
C -14.257 4.055 -2.888
C -15.554 3.32 -3.37
C -19.381 5.584 -0.671
C -19.356 5.55 0.893
C -19.312 5.501 3.465
C -19.422 5.635 -3.248
C -18.084 3.278 -0.742
C -18.057 3.234 0.821
C -19.339 4.009 1.377
C -19.381 4.074 -1.215
C -18.01 3.17 3.391
C -19.313 3.974 2.943
C -18.128 3.349 -3.316
C -19.405 4.113 -2.779
H 26.914 5.486 3.303
H 24.368 5.481 3.345
H 26.792 5.532 -5.586
H 24.21 5.527 -5.544
H 28.203 3.217 3.277
H 25.656 3.212 3.312
H 28.098 3.24 -5.608
H 25.516 3.234 -5.572
H 32.01 5.494 3.259
H 29.461 5.491 3.275
H 31.958 5.545 -5.631
H 29.376 5.539 -5.614
H 33.304 3.22 3.242
H 30.752 3.22 3.254
H 33.259 3.258 -5.643
H 30.68 3.248 -5.631
H 34.565 5.496 3.253
H 34.537 5.552 -5.637
H 35.862 3.218 3.238
H 35.833 3.267 -5.648
H -1.19 5.397 4.052
H -1.468 5.517 -4.832
H -3.76 5.392 4.138
H -6.336 5.392 4.222
H -4.035 5.523 -4.744
H -6.6 5.532 -4.659
H -2.467 3.095 4.059
H -5.041 3.088 4.141
H -2.733 3.254 -4.819
H -5.299 3.264 -4.735
H -8.919 5.396 4.301
H -11.506 5.408 4.373
H -9.165 5.546 -4.579
H -11.731 5.566 -4.506
H -7.622 3.085 4.219
H -10.207 3.088 4.292
H -7.865 3.278 -4.655
H -10.433 3.297 -4.581
H -14.097 5.428 4.439
H -16.691 5.455 4.497
H -14.3 5.592 -4.439
H -16.869 5.622 -4.38
H -12.796 3.099 4.358
H -15.389 3.118 4.419
H -13.002 3.321 -4.514
H -15.573 3.349 -4.452
H -19.289 5.487 4.547
H -19.436 5.655 -4.33
H -17.984 3.144 4.472
H -18.144 3.38 -4.398
H 20.363 3.229 -5.468
H 6.238 5.513 -5.075
H 7.541 3.235 -5.131
H 19.059 5.52 -5.428
H 17.793 3.228 -5.405
H 4.975 3.238 -5.06
H 16.49 5.517 -5.36
H 15.228 3.229 -5.337
H 3.67 5.513 -4.999
H 2.405 3.242 -4.984
H 13.927 5.516 -5.289
H 1.101 5.515 -4.918
H 12.666 3.231 -5.269
H -0.164 3.247 -4.903
H 11.365 5.514 -5.218
H 10.104 3.233 -5.2
H 21.632 5.523 -5.491
H 22.938 3.23 -5.525
H 8.803 5.514 -5.148
H 14.16 5.449 3.599
H 11.602 5.44 3.67
H 23.108 3.206 3.359
H 0.099 3.105 3.976
H 9.043 5.431 3.74
H 20.558 3.197 3.416
H 10.332 3.153 3.683
H 7.774 3.141 3.752
H 3.93 5.412 3.887
H 5.217 3.129 3.822
H 19.27 5.466 3.46
H 16.717 5.458 3.528
H 1.372 5.404 3.967
H 15.45 3.176 3.547
H 12.891 3.165 3.615
H 21.82 5.474 3.398
H 6.486 5.421 3.812
H 18.005 3.187 3.479
H 2.66 3.117 3.897
C 37.11 5.528 -1.975
C 37.116 5.517 -0.411
C 37.124 5.501 2.171
C 37.104 5.546 -4.555
C 38.406 3.243 -1.99
C 38.413 3.233 -0.426
C 37.129 3.997 0.097
C 37.118 4.013 -2.502
C 38.424 3.219 2.154
C 37.136 3.989 1.663
C 38.397 3.264 -4.568
C 37.113 4.025 -4.067
C 38.388 6.299 -2.489
C 38.396 6.279 0.112
C 38.401 6.268 1.679
C 38.384 6.311 -4.054
C 39.684 4.014 -2.504
C 39.695 3.995 0.095
C 40.962 6.274 0.11
C 39.676 5.527 -1.976
C 39.681 5.515 -0.412
C 40.954 6.296 -2.491
C 39.702 3.985 1.661
C 39.69 5.496 2.17
C 40.968 6.261 1.677
C 39.679 4.028 -4.069
C 40.949 6.31 -4.057
C 39.67 5.549 -4.557
C 40.971 3.242 -1.995
C 40.978 3.23 -0.432
C 40.991 3.213 2.148
C 40.961 3.267 -4.574
H 37.126 5.495 3.253
H 37.108 5.557 -5.637
H 38.427 3.214 3.236
H 38.401 3.274 -5.65
H 39.693 5.49 3.252
H 39.673 5.559 -5.639
H 40.997 3.206 3.23
H 40.962 3.28 -5.656
C 42.242 5.523 -1.983
C 42.247 5.509 -0.418
C 42.257 5.487 2.164
C 42.233 5.547 -4.563
C 43.538 3.238 -2.008
C 43.544 3.223 -0.445
C 42.261 3.989 0.087
C 42.25 4.012 -2.512
C 43.559 3.201 2.136
C 42.269 3.976 1.653
C 43.525 3.268 -4.586
C 42.243 4.028 -4.077
C 43.52 6.289 -2.5
C 43.528 6.264 0.101
C 43.535 6.25 1.668
C 43.515 6.305 -4.066
C 44.818 4.005 -2.527
C 44.828 3.978 0.072
C 46.095 6.248 0.086
C 44.809 5.514 -1.996
C 44.813 5.497 -0.431
C 46.088 6.276 -2.515
C 44.837 3.963 1.638
C 44.825 5.472 2.151
C 46.101 6.232 1.653
C 44.811 4.024 -4.092
C 46.083 6.294 -4.081
C 44.799 5.541 -4.576
C 46.107 3.23 -2.028
C 46.112 3.212 -0.464
C 46.126 3.186 2.116
C 46.095 3.264 -4.606
H 42.264 5.481 3.246
H 42.233 5.559 -5.645
H 43.569 3.193 3.218
H 43.522 3.281 -5.668
H 44.834 5.465 3.233
H 44.796 5.555 -5.658
H 46.138 3.175 3.198
H 46.089 3.279 -5.688
C 47.378 5.499 -2.013
C 47.38 5.48 -0.449
C 47.389 5.452 2.134
C 47.37 5.53 -4.593
C 48.683 3.217 -2.048
C 48.682 3.195 -0.485
C 47.397 3.961 0.052
C 47.39 3.993 -2.547
C 48.689 3.165 2.095
C 47.402 3.945 1.618
C 48.676 3.255 -4.626
C 47.385 4.013 -4.112
C 48.661 6.257 -2.53
C 48.662 6.226 0.071
C 48.664 6.208 1.637
C 48.658 6.275 -4.096
C 49.971 3.975 -2.563
C 49.967 3.94 0.035
C 51.231 6.198 0.063
C 49.953 5.478 -2.026
C 49.95 5.457 -0.463
C 51.239 6.231 -2.536
C 49.965 3.922 1.6
C 49.948 5.425 2.119
C 51.223 6.179 1.628
C 49.971 3.996 -4.128
C 51.241 6.248 -4.102
C 49.951 5.51 -4.606
C 51.268 3.2 -2.059
C 51.259 3.174 -0.497
C 51.248 3.14 2.082
C 51.275 3.239 -4.635
H 47.399 5.442 3.216
H 47.366 5.545 -5.675
H 48.7 3.152 3.177
H 48.67 3.272 -5.708
H 49.955 5.413 3.201
H 49.95 5.527 -5.688
H 51.251 3.123 3.164
H 51.275 3.258 -5.717
C 52.533 5.452 -2.025
C 52.524 5.429 -0.462
C 52.502 5.394 2.119
C 52.543 5.482 -4.605
C 53.867 3.179 -2.043
C 53.846 3.149 -0.481
C 52.543 3.913 0.035
C 52.564 3.952 -2.561
C 53.803 3.111 2.096
C 52.526 3.894 1.599
C 53.897 3.215 -4.619
C 52.574 3.971 -4.127
C 53.822 6.201 -2.527
C 53.801 6.167 0.077
C 53.78 6.146 1.641
C 53.83 6.214 -4.093
C 55.169 3.925 -2.529
C 55.125 3.884 0.071
C 56.373 6.14 0.137
C 55.12 5.426 -2.003
C 55.103 5.401 -0.429
C 56.407 6.175 -2.51
C 55.087 3.863 1.634
C 55.049 5.36 2.154
C 56.341 6.114 1.718
C 55.194 3.94 -4.095
C 56.422 6.191 -4.093
C 55.14 5.445 -4.586
C 56.481 3.161 -1.985
C 56.446 3.125 -0.414
C 56.355 3.08 2.163
C 56.541 3.187 -4.563
H 52.498 5.379 3.201
H 52.547 5.498 -5.687
H 53.789 3.091 3.177
H 53.909 3.232 -5.701
H 55.015 5.337 3.236
H 55.136 5.446 -5.668
H 56.302 3.052 3.244
H 56.557 3.184 -5.645
C 57.675 5.394 -1.933
C 57.651 5.365 -0.376
C 57.572 5.311 2.308
C 57.706 5.413 -4.625
C 59.07 3.158 -1.848
C 59.02 3.112 -0.297
C 57.709 3.866 0.175
C 57.779 3.913 -2.465
C 58.888 3.043 2.374
C 57.653 3.835 1.753
C 59.166 3.188 -4.527
C 57.824 3.932 -4.046
H 57.49 5.276 3.386
H 57.657 5.365 -5.704
H 58.779 3.004 3.449
H 59.148 3.122 -5.606
C -54.076 11.024 -0.518
C -54.004 10.985 2.084
C -53.962 10.966 3.65
C -54.119 11.046 -2.084
C -50.227 10.273 -0.113
C -50.185 10.249 1.451
C -52.776 8.749 -0.572
C -52.708 8.701 2.029
C -51.454 11.006 2.011
C -52.778 10.259 -0.041
C -52.736 10.232 1.524
C -51.524 11.041 -0.591
C -50.116 10.219 4.031
C -52.668 8.677 3.595
C -52.666 10.2 4.104
C -51.411 10.988 3.576
C -50.297 10.306 -2.696
C -52.816 8.776 -2.138
C -51.566 11.062 -2.157
C -52.849 10.294 -2.625
C -48.929 7.986 -0.168
C -48.889 7.955 1.396
C -50.157 8.717 1.957
C -51.481 7.977 -0.097
C -51.441 7.943 1.467
C -50.224 8.76 -0.643
C -48.822 7.917 3.974
C -51.374 7.902 4.046
C -50.117 8.694 3.523
C -48.996 8.028 -2.75
C -50.265 8.785 -2.209
C -51.548 8.022 -2.679
C -48.971 11.055 -0.663
C -48.902 11.022 1.938
C -48.86 11.006 3.504
C -49.013 11.074 -2.229
C -45.119 10.294 -0.258
C -45.08 10.272 1.306
C -47.672 8.77 -0.715
C -47.605 8.729 1.884
C -46.349 11.035 1.865
C -47.674 10.285 -0.186
C -47.633 10.262 1.378
C -46.416 11.066 -0.735
C -45.014 10.245 3.886
C -47.565 8.708 3.45
C -47.565 10.234 3.958
C -46.309 11.019 3.431
C -45.185 10.324 -2.839
C -47.712 8.793 -2.281
C -46.458 11.084 -2.301
C -47.743 10.316 -2.768
C -43.819 8.001 -0.312
C -43.782 7.973 1.253
C -45.052 8.738 1.812
C -46.375 7.995 -0.241
C -46.336 7.965 1.324
C -45.116 8.778 -0.787
C -43.719 7.938 3.83
C -46.27 7.929 3.901
C -45.013 8.718 3.378
C -43.883 8.04 -2.891
C -45.155 8.8 -2.353
C -46.442 8.034 -2.821
C -43.859 11.075 -0.806
C -43.796 11.044 1.794
C -43.757 11.028 3.36
C -43.898 11.092 -2.372
C -39.999 10.306 -0.39
C -39.967 10.284 1.175
C -42.557 8.784 -0.856
C -42.497 8.745 1.743
C -41.24 11.051 1.728
C -42.561 10.301 -0.327
C -42.525 10.279 1.237
C -41.298 11.081 -0.872
C -39.913 10.258 3.754
C -42.461 8.726 3.309
C -42.463 10.253 3.817
C -41.205 11.035 3.294
C -40.055 10.336 -2.969
C -42.594 8.805 -2.422
C -41.334 11.098 -2.438
C -42.623 10.331 -2.907
C -38.697 8.01 -0.436
C -38.668 7.982 1.128
C -39.941 8.75 1.68
C -41.26 8.007 -0.378
C -41.226 7.979 1.186
C -39.995 8.788 -0.918
C -38.618 7.949 3.705
C -41.168 7.945 3.764
C -39.909 8.732 3.246
C -38.748 8.047 -3.014
C -40.028 8.809 -2.484
C -41.318 8.044 -2.957
C -38.733 11.084 -0.929
C -38.683 11.054 1.67
C -38.653 11.039 3.235
C -38.764 11.101 -2.496
C -34.867 10.305 -0.483
C -34.844 10.284 1.081
C -37.429 8.789 -0.971
C -37.383 8.752 1.627
C -36.123 11.053 1.623
C -37.435 10.308 -0.442
C -37.407 10.286 1.122
C -36.165 11.084 -0.976
C -34.807 10.258 3.659
C -37.355 8.734 3.193
C -37.361 10.261 3.701
C -36.098 11.039 3.188
C -34.904 10.335 -3.062
C -37.457 8.81 -2.537
C -36.19 11.1 -2.543
C -37.482 10.337 -3.021
C -33.563 8.005 -0.518
C -33.542 7.978 1.046
C -34.821 8.749 1.586
C -36.132 8.01 -0.483
C -36.107 7.982 1.081
C -34.859 8.787 -1.012
C -33.51 7.946 3.623
C -36.065 7.95 3.658
C -34.799 8.732 3.152
C -33.595 8.042 -3.096
C -34.882 8.807 -2.578
C -36.173 8.047 -3.061
C -33.593 11.078 -1.011
C -33.559 11.048 1.588
C -33.539 11.033 3.153
C -33.613 11.095 -2.577
C -29.722 10.282 -0.531
C -29.705 10.261 1.034
C -32.286 8.779 -1.04
C -32.256 8.742 1.557
C -30.99 11.036 1.564
C -32.296 10.297 -0.512
C -32.277 10.276 1.053
C -31.018 11.066 -1.034
C -29.682 10.236 3.61
C -32.238 8.724 3.123
C -32.248 10.25 3.63
C -30.974 11.021 3.13
C -29.746 10.312 -3.109
C -32.305 8.8 -2.607
C -31.035 11.083 -2.601
C -32.325 10.327 -3.09
C -28.417 7.977 -0.557
C -28.4 7.951 1.008
C -29.686 8.727 1.538
C -30.991 7.995 -0.541
C -30.973 7.968 1.023
C -29.712 8.764 -1.059
C -28.378 7.918 3.583
C -30.948 7.935 3.599
C -29.671 8.709 3.104
C -28.439 8.015 -3.134
C -29.727 8.785 -2.625
C -31.017 8.032 -3.119
C -28.442 11.047 -1.05
C -28.417 11.017 1.548
C -28.403 11.002 3.114
C -28.457 11.064 -2.617
C -24.569 10.232 -0.562
C -24.551 10.212 1.003
C -27.135 8.743 -1.073
C -27.11 8.706 1.524
C -25.839 10.992 1.533
C -27.146 10.26 -0.545
C -27.13 10.24 1.019
C -25.865 11.021 -1.065
C -24.525 10.186 3.578
C -27.096 8.687 3.09
C -27.108 10.214 3.595
C -25.824 10.976 3.099
C -24.595 10.261 -3.141
C -27.15 8.764 -2.639
C -25.88 11.038 -2.631
C -27.169 10.289 -3.124
C -23.262 7.924 -0.591
C -23.243 7.898 0.974
C -24.53 8.679 1.507
C -25.84 7.954 -0.571
C -25.823 7.927 0.994
C -24.558 8.715 -1.089
C -23.213 7.864 3.548
C -25.8 7.894 3.568
C -24.513 8.659 3.074
C -23.291 7.961 -3.169
C -24.574 8.737 -2.655
C -25.864 7.991 -3.149
C -23.288 10.989 -1.085
C -23.257 10.96 1.512
C -23.238 10.944 3.079
C -23.306 11.007 -2.651
C -21.981 8.683 -1.114
C -21.946 8.646 1.482
C -20.672 10.926 1.482
C -21.991 10.199 -0.587
C -21.969 10.179 0.978
C -20.711 10.955 -1.116
C -21.925 8.626 3.049
C -21.935 10.152 3.553
C -20.649 10.909 3.048
C -22.001 8.705 -2.68
C -20.734 10.972 -2.682
C -22.024 10.227 -3.166
C -20.684 7.891 -0.622
C -20.66 7.865 0.943
C -20.621 7.83 3.517
C -20.721 7.928 -3.2
C -59.181 10.972 -0.363
C -59.107 10.921 2.239
C -59.061 10.895 3.804
C -59.223 10.999 -1.929
C -55.33 10.24 0.033
C -55.287 10.21 1.597
C -57.878 8.716 -0.428
C -57.811 8.654 2.173
C -56.555 10.957 2.16
C -57.881 10.216 0.109
C -57.838 10.182 1.673
C -56.628 11.001 -0.442
C -55.215 10.175 4.177
C -57.771 8.622 3.738
C -57.764 10.14 4.253
C -56.511 10.935 3.725
C -55.401 10.28 -2.552
C -57.916 8.751 -1.994
C -56.671 11.025 -2.009
C -57.952 10.262 -2.477
C -54.031 7.965 -0.026
C -53.992 7.928 1.538
C -55.26 8.681 2.1
C -56.582 7.95 0.044
C -56.543 7.908 1.607
C -55.327 8.735 -0.501
C -53.926 7.882 4.116
C -56.477 7.854 4.186
C -55.22 8.653 3.666
C -54.097 8.015 -2.61
C -55.366 8.765 -2.067
C -56.647 8.008 -2.541
C -64.298 10.892 -0.211
C -64.219 10.817 2.436
C -64.168 10.775 4.017
C -64.334 10.932 -1.793
C -60.435 10.186 0.19
C -60.391 10.145 1.753
C -62.988 8.665 -0.279
C -62.92 8.575 2.328
C -61.661 10.875 2.327
C -62.992 10.15 0.27
C -62.947 10.1 1.843
C -61.737 10.935 -0.281
C -60.311 10.094 4.334
C -62.876 8.526 3.892
C -62.857 10.032 4.426
C -61.611 10.842 3.891
C -60.504 10.238 -2.397
C -63.018 8.712 -1.843
C -61.775 10.966 -1.846
C -63.052 10.208 -2.322
C -59.134 7.931 0.115
C -59.095 7.882 1.678
C -60.364 8.619 2.248
C -61.689 7.908 0.187
C -61.65 7.849 1.75
C -60.432 8.693 -0.353
C -59.029 7.818 4.257
C -61.58 7.769 4.329
C -60.323 8.58 3.813
C -59.197 7.999 -2.47
C -60.467 8.734 -1.918
C -61.747 7.988 -2.399
C -65.524 10.088 0.367
C -65.477 10.03 1.921
C -65.378 9.935 4.606
C -65.581 10.167 -2.324
C -64.249 7.88 0.255
C -64.209 7.81 1.827
C -65.479 8.523 2.426
C -66.781 7.834 0.334
C -66.74 7.751 1.887
C -65.548 8.635 -0.22
C -64.131 7.705 4.409
C -66.655 7.611 4.575
C -65.437 8.46 4.008
C -64.294 7.974 -2.336
C -65.575 8.694 -1.799
C -66.823 7.957 -2.352
H -34.793 10.258 4.741
H -37.342 10.26 4.782
H -34.919 10.35 -4.144
H -37.502 10.352 -4.103
H -33.497 7.942 4.705
H -36.048 7.946 4.74
H -33.607 8.061 -4.177
H -36.19 8.065 -4.143
H -29.675 10.235 4.692
H -32.238 10.25 4.712
H -29.751 10.326 -4.191
H -32.334 10.342 -4.172
H -28.371 7.915 4.665
H -30.94 7.932 4.681
H -28.442 8.032 -4.216
H -31.023 8.05 -4.201
H -24.514 10.185 4.66
H -27.1 10.214 4.677
H -24.6 10.272 -4.223
H -27.173 10.303 -4.206
H -23.2 7.86 4.63
H -25.791 7.891 4.65
H -23.298 7.976 -4.251
H -25.867 8.007 -4.231
H -21.919 10.15 4.635
H -22.033 10.238 -4.248
H -20.602 7.824 4.599
H -20.732 7.941 -4.282
H -62.8 10.013 5.507
H -63.073 10.222 -3.404
H -65.278 9.886 5.683
H -65.571 10.168 -3.406
H -64.077 7.667 5.489
H -66.549 7.528 5.649
H -64.31 8.006 -3.417
H -66.813 7.985 -3.433
H -41.345 8.062 -4.038
H -55.433 10.296 -3.633
H -54.128 8.035 -3.691
H -42.651 10.345 -3.988
H -43.912 8.057 -3.973
H -56.678 8.031 -3.622
H -45.216 10.338 -3.92
H -46.473 8.052 -3.902
H -57.987 10.28 -3.558
H -59.229 8.026 -3.552
H -47.774 10.33 -3.849
H -60.539 10.258 -3.479
H -49.027 8.046 -3.831
H -61.778 8.02 -3.48
H -50.328 10.32 -3.777
H -51.578 8.04 -3.761
H -40.08 10.35 -4.05
H -38.77 8.065 -4.096
H -52.88 10.309 -3.706
H -47.535 10.234 5.04
H -50.086 10.22 5.113
H -38.595 7.946 4.787
H -61.546 7.75 5.41
H -52.637 10.201 5.185
H -41.141 7.942 4.845
H -51.344 7.899 5.127
H -53.896 7.877 5.198
H -57.731 10.138 5.335
H -56.447 7.847 5.268
H -42.436 10.253 4.898
H -44.984 10.245 4.967
H -60.274 10.089 5.415
H -46.24 7.926 4.983
H -48.792 7.914 5.056
H -39.888 10.258 4.835
H -55.185 10.175 5.259
H -43.689 7.935 4.912
H -58.997 7.806 5.338
C 7.554 10.815 -1.926
C 7.629 10.792 0.674
C 7.674 10.779 2.24
C 7.51 10.828 -3.492
C 11.418 10.051 -1.523
C 11.46 10.038 0.041
C 8.859 8.533 -1.98
C 8.931 8.51 0.621
C 10.189 10.798 0.601
C 8.856 10.046 -1.451
C 8.9 10.032 0.114
C 10.116 10.82 -2
C 11.532 10.017 2.623
C 8.975 8.497 2.187
C 8.974 10.011 2.696
C 10.233 10.785 2.167
C 11.347 10.071 -4.104
C 8.816 8.546 -3.546
C 10.073 10.832 -3.566
C 8.784 10.067 -4.031
C 12.721 7.769 -1.576
C 12.762 7.756 -0.011
C 11.491 8.516 0.549
C 10.16 7.764 -1.503
C 10.202 7.751 0.061
C 11.42 8.538 -2.052
C 12.832 7.736 2.571
C 10.274 7.729 2.643
C 11.534 8.504 2.115
C 12.652 7.789 -4.156
C 11.378 8.55 -3.618
C 10.09 7.786 -4.084
C 12.678 10.825 -2.072
C 12.748 10.804 0.529
C 12.791 10.791 2.095
C 12.636 10.837 -3.638
C 16.541 10.062 -1.668
C 16.579 10.05 -0.103
C 13.982 8.543 -2.124
C 14.05 8.523 0.477
C 15.307 10.81 0.457
C 13.979 10.056 -1.596
C 14.02 10.044 -0.031
C 15.24 10.83 -2.145
C 16.647 10.03 2.479
C 14.092 8.51 2.043
C 14.09 10.024 2.551
C 15.349 10.797 2.023
C 16.474 10.081 -4.248
C 13.941 8.554 -3.69
C 15.199 10.842 -3.71
C 13.91 10.076 -4.176
C 17.844 7.779 -1.719
C 17.881 7.768 -0.154
C 16.609 8.529 0.405
C 15.282 7.774 -1.648
C 15.321 7.762 -0.083
C 16.544 8.548 -2.196
C 17.946 7.75 2.428
C 15.39 7.743 2.499
C 16.649 8.517 1.971
C 17.78 7.797 -4.299
C 16.505 8.559 -3.762
C 15.215 7.793 -4.228
C 17.802 10.836 -2.215
C 17.866 10.816 0.386
C 17.905 10.804 1.952
C 17.764 10.847 -3.781
C 21.667 10.073 -1.8
C 21.699 10.061 -0.236
C 19.107 8.553 -2.266
C 19.168 8.535 0.335
C 20.425 10.821 0.319
C 19.103 10.068 -1.737
C 19.139 10.055 -0.172
C 20.367 10.841 -2.282
C 21.754 10.042 2.347
C 19.205 8.524 1.902
C 19.202 10.036 2.41
C 20.46 10.81 1.885
C 21.612 10.091 -4.38
C 19.071 8.563 -3.832
C 20.332 10.853 -3.848
C 19.041 10.086 -4.317
C 22.972 7.79 -1.844
C 23.001 7.78 -0.28
C 21.727 8.54 0.272
C 20.407 7.785 -1.785
C 20.441 7.774 -0.221
C 21.673 8.558 -2.329
C 23.052 7.763 2.303
C 20.5 7.757 2.362
C 21.759 8.53 1.838
C 22.922 7.806 -4.424
C 21.64 8.568 -3.895
C 20.349 7.801 -4.365
C 22.934 10.847 -2.341
C 22.984 10.827 0.26
C 23.014 10.816 1.826
C 22.903 10.858 -3.907
C 26.8 10.084 -1.896
C 26.821 10.072 -0.331
C 24.24 8.564 -2.383
C 24.285 8.546 0.218
C 25.543 10.833 0.212
C 24.233 10.079 -1.854
C 24.26 10.067 -0.29
C 25.502 10.853 -2.389
C 26.857 10.054 2.252
C 24.313 8.536 1.785
C 24.306 10.048 2.293
C 25.567 10.822 1.778
C 26.765 10.103 -4.476
C 24.213 8.573 -3.949
C 25.478 10.863 -3.956
C 24.187 10.097 -4.434
C 28.105 7.801 -1.928
C 28.124 7.791 -0.363
C 26.845 8.551 0.176
C 25.538 7.796 -1.893
C 25.562 7.785 -0.328
C 26.809 8.569 -2.425
C 28.154 7.774 2.22
C 25.603 7.769 2.255
C 26.866 8.542 1.743
C 28.076 7.817 -4.507
C 26.788 8.578 -3.991
C 25.498 7.811 -4.472
C 28.072 10.858 -2.425
C 28.102 10.838 0.176
C 28.121 10.827 1.743
C 28.054 10.869 -3.991
C 31.936 10.094 -1.941
C 31.947 10.081 -0.376
C 29.379 8.574 -2.453
C 29.405 8.556 0.148
C 30.663 10.842 0.154
C 29.368 10.09 -1.925
C 29.384 10.077 -0.36
C 30.642 10.863 -2.447
C 31.962 10.063 2.207
C 29.42 8.547 1.714
C 29.408 10.059 2.223
C 30.675 10.831 1.721
C 31.921 10.112 -4.521
C 29.364 8.584 -4.02
C 30.63 10.874 -4.014
C 29.344 10.108 -4.505
C 33.241 7.81 -1.96
C 33.25 7.799 -0.395
C 31.966 8.56 0.132
C 30.673 7.806 -1.95
C 30.687 7.795 -0.385
C 31.949 8.579 -2.469
C 33.263 7.782 2.188
C 30.707 7.779 2.198
C 31.976 8.55 1.699
C 33.23 7.827 -4.54
C 31.94 8.589 -4.035
C 30.654 7.822 -4.529
C 33.212 10.866 -2.458
C 33.225 10.846 0.144
C 33.232 10.834 1.71
C 33.205 10.878 -4.024
C 34.518 8.582 -2.474
C 34.529 8.563 0.127
C 35.788 10.847 0.141
C 34.504 10.096 -1.947
C 34.511 10.084 -0.382
C 35.781 10.868 -2.46
C 34.535 8.552 1.694
C 34.519 10.065 2.201
C 35.793 10.835 1.708
C 34.513 8.593 -4.041
C 35.777 10.88 -4.027
C 34.496 10.116 -4.527
C 35.809 7.812 -1.962
C 35.815 7.801 -0.397
C 35.822 7.783 2.186
C 35.803 7.831 -4.542
C 2.428 10.808 -1.77
C 2.507 10.783 0.83
C 2.556 10.769 2.396
C 2.38 10.822 -3.336
C 6.294 10.042 -1.376
C 6.34 10.027 0.188
C 3.733 8.526 -1.828
C 3.81 8.499 0.772
C 5.069 10.787 0.75
C 3.732 10.038 -1.298
C 3.778 10.022 0.266
C 4.992 10.811 -1.85
C 6.416 10.005 2.769
C 3.857 8.484 2.338
C 3.858 9.999 2.847
C 5.116 10.773 2.316
C 6.22 10.064 -3.957
C 3.687 8.54 -3.394
C 4.946 10.824 -3.416
C 3.654 10.061 -3.879
C 7.598 7.76 -1.431
C 7.642 7.745 0.133
C 6.371 8.505 0.695
C 5.036 7.756 -1.356
C 5.081 7.74 0.209
C 6.296 8.529 -1.906
C 7.715 7.722 2.715
C 5.157 7.715 2.789
C 6.416 8.49 2.261
C 7.526 7.783 -4.012
C 6.252 8.543 -3.472
C 4.961 7.78 -3.936
C -2.704 10.808 -1.596
C -2.622 10.781 1.004
C -2.572 10.765 2.569
C -2.753 10.822 -3.162
C 1.167 10.036 -1.215
C 1.215 10.019 0.349
C -1.398 8.523 -1.658
C -1.317 8.493 0.941
C -0.056 10.781 0.916
C -1.398 10.035 -1.128
C -1.35 10.018 0.436
C -0.138 10.807 -1.684
C 1.298 9.995 2.929
C -1.267 8.476 2.507
C -1.266 9.993 3.015
C -0.006 10.766 2.481
C 1.087 10.059 -3.796
C -1.446 8.54 -3.224
C -0.186 10.821 -3.25
C -1.48 10.059 -3.708
C 2.472 7.753 -1.276
C 2.518 7.735 0.289
C 1.248 8.496 0.855
C -0.093 7.752 -1.191
C -0.046 7.732 0.373
C 1.168 8.524 -1.745
C 2.598 7.708 2.868
C 0.036 7.704 2.952
C 1.297 8.479 2.42
C 2.394 7.779 -3.856
C 1.121 8.539 -3.311
C -0.173 7.779 -3.771
C -7.84 10.822 -1.423
C -7.765 10.794 1.175
C -7.718 10.776 2.741
C -7.885 10.837 -2.989
C -3.966 10.038 -1.039
C -3.918 10.02 0.525
C -6.534 8.532 -1.483
C -6.457 8.5 1.116
C -5.192 10.785 1.091
C -6.535 10.045 -0.953
C -6.489 10.026 0.611
C -5.271 10.812 -1.507
C -3.835 9.994 3.103
C -6.41 8.48 2.681
C -6.409 9.999 3.189
C -5.143 10.768 2.657
C -4.047 10.063 -3.619
C -6.579 8.551 -3.048
C -5.319 10.827 -3.073
C -6.613 10.07 -3.533
C -2.66 7.752 -1.103
C -2.613 7.732 0.461
C -3.885 8.494 1.03
C -5.229 7.757 -1.015
C -5.183 7.735 0.549
C -3.965 8.526 -1.569
C -2.53 7.701 3.04
C -5.102 7.702 3.126
C -3.836 8.476 2.595
C -2.74 7.781 -3.683
C -4.012 8.543 -3.135
C -5.307 7.787 -3.595
C -12.984 10.859 -1.274
C -12.921 10.83 1.323
C -12.882 10.812 2.889
C -13.022 10.876 -2.841
C -9.107 10.057 -0.872
C -9.064 10.038 0.693
C -11.677 8.562 -1.327
C -11.611 8.527 1.271
C -10.342 10.809 1.253
C -11.68 10.075 -0.797
C -11.641 10.056 0.767
C -10.411 10.837 -1.345
C -8.989 10.01 3.269
C -11.57 8.506 2.837
C -11.573 10.027 3.343
C -10.299 10.791 2.819
C -9.179 10.083 -3.451
C -11.716 8.582 -2.893
C -10.453 10.853 -2.911
C -11.746 10.102 -3.377
C -7.8 7.765 -0.931
C -7.756 7.742 0.633
C -9.032 8.51 1.197
C -10.373 7.78 -0.853
C -10.332 7.756 0.711
C -9.104 8.544 -1.401
C -7.679 7.708 3.209
C -10.261 7.72 3.286
C -8.988 8.489 2.762
C -7.873 7.797 -3.511
C -9.147 8.563 -2.967
C -10.441 7.813 -3.433
C -18.134 10.92 -1.158
C -18.087 10.891 1.439
C -18.058 10.873 3.005
C -18.162 10.937 -2.724
C -14.256 10.1 -0.73
C -14.221 10.08 0.834
C -16.827 8.616 -1.2
C -16.776 8.579 1.396
C -15.503 10.858 1.386
C -16.834 10.13 -0.672
C -16.803 10.11 0.893
C -15.559 10.887 -1.212
C -14.16 10.051 3.409
C -16.744 8.558 2.963
C -16.75 10.082 3.468
C -15.469 10.84 2.952
C -14.315 10.127 -3.31
C -16.857 8.637 -2.766
C -15.592 10.904 -2.778
C -16.884 10.158 -3.251
C -12.949 7.8 -0.783
C -12.912 7.775 0.782
C -14.192 8.55 1.338
C -15.526 7.827 -0.719
C -15.493 7.801 0.845
C -14.251 8.586 -1.259
C -12.847 7.739 3.356
C -15.437 7.765 3.419
C -14.156 8.529 2.904
C -13.01 7.835 -3.362
C -14.286 8.607 -2.825
C -15.58 7.862 -3.298
C -19.412 10.164 -0.623
C -19.386 10.144 0.941
C -19.343 10.117 3.516
C -19.454 10.192 -3.203
C -18.105 7.858 -0.665
C -18.077 7.832 0.899
C -19.361 8.612 1.445
C -19.404 8.649 -1.151
C -18.028 7.796 3.473
C -19.335 8.591 3.012
C -18.15 7.894 -3.244
C -19.429 8.67 -2.717
H 26.873 10.048 3.333
H 24.327 10.042 3.375
H 26.751 10.113 -5.558
H 24.168 10.108 -5.516
H 28.168 7.768 3.302
H 25.622 7.763 3.337
H 28.065 7.827 -5.589
H 25.482 7.822 -5.554
H 31.968 10.057 3.289
H 29.419 10.053 3.305
H 31.919 10.123 -5.603
H 29.336 10.119 -5.587
H 33.267 7.776 3.27
H 30.715 7.773 3.28
H 33.231 7.838 -5.622
H 30.65 7.833 -5.611
H 34.522 10.06 3.283
H 34.497 10.126 -5.609
H 35.824 7.778 3.268
H 35.806 7.841 -5.624
H -1.225 9.986 4.096
H -1.514 10.069 -4.79
H -3.794 9.987 4.184
H -6.37 9.992 4.27
H -4.08 10.072 -4.701
H -6.644 10.079 -4.614
H -2.489 7.692 4.121
H -5.061 7.693 4.208
H -2.773 7.792 -4.764
H -5.339 7.797 -4.676
H -8.952 10.002 4.35
H -11.539 10.02 4.424
H -9.207 10.091 -4.533
H -11.771 10.11 -4.459
H -7.641 7.698 4.291
H -10.226 7.71 4.368
H -7.902 7.808 -4.592
H -10.467 7.824 -4.514
H -14.13 10.045 4.491
H -16.724 10.077 4.549
H -14.337 10.136 -4.392
H -16.903 10.167 -4.333
H -12.815 7.729 4.438
H -15.407 7.755 4.501
H -13.033 7.846 -4.444
H -15.6 7.874 -4.38
H -19.321 10.113 4.598
H -19.468 10.201 -4.284
H -18.003 7.788 4.555
H -18.167 7.907 -4.325
H 20.324 7.811 -5.447
H 6.191 10.074 -5.039
H 7.498 7.793 -5.093
H 19.014 10.096 -5.399
H 17.752 7.807 -5.38
H 4.932 7.791 -5.018
H 16.445 10.091 -5.33
H 15.186 7.803 -5.31
H 3.623 10.071 -4.961
H 2.363 7.79 -4.938
H 13.881 10.086 -5.258
H 1.054 10.069 -4.877
H 12.623 7.799 -5.238
H -0.206 7.79 -4.853
H 11.318 10.081 -5.186
H 10.062 7.796 -5.166
H 21.588 10.102 -5.462
H 22.9 7.816 -5.506
H 8.756 10.077 -5.113
H 14.122 10.018 3.633
H 11.564 10.012 3.705
H 23.076 7.757 3.385
H 0.077 7.695 4.034
H 9.006 10.005 3.777
H 20.528 7.751 3.443
H 10.306 7.722 3.724
H 7.748 7.714 3.796
H 3.894 9.993 3.928
H 5.192 7.707 3.871
H 19.231 10.03 3.492
H 16.678 10.024 3.561
H 1.336 9.988 4.01
H 15.422 7.737 3.58
H 12.864 7.73 3.652
H 21.78 10.036 3.429
H 6.45 9.998 3.851
H 17.976 7.744 3.51
H 2.636 7.7 3.95
C 37.071 10.097 -1.947
C 37.075 10.084 -0.382
C 37.08 10.064 2.201
C 37.067 10.117 -4.528
C 38.375 7.812 -1.961
C 38.38 7.8 -0.396
C 37.093 8.563 0.127
C 37.086 8.583 -2.474
C 38.386 7.781 2.187
C 37.098 8.551 1.694
C 38.371 7.832 -4.542
C 37.083 8.595 -4.041
C 38.348 10.866 -2.46
C 38.353 10.844 0.142
C 38.356 10.831 1.709
C 38.345 10.879 -4.026
C 39.653 8.581 -2.475
C 39.659 8.559 0.127
C 40.918 10.837 0.141
C 39.637 10.093 -1.947
C 39.64 10.08 -0.382
C 40.914 10.86 -2.461
C 39.663 8.547 1.694
C 39.645 10.059 2.201
C 40.922 10.823 1.708
C 39.65 8.594 -4.041
C 40.912 10.875 -4.027
C 39.634 10.115 -4.528
C 40.941 7.808 -1.963
C 40.945 7.794 -0.398
C 40.952 7.774 2.185
C 40.936 7.83 -4.544
H 37.082 10.06 3.283
H 37.07 10.127 -5.61
H 38.388 7.776 3.269
H 38.375 7.843 -5.624
H 39.648 10.056 3.283
H 39.636 10.126 -5.61
H 40.957 7.77 3.267
H 40.937 7.841 -5.626
C 42.203 10.085 -1.95
C 42.205 10.071 -0.385
C 42.211 10.048 2.198
C 42.198 10.109 -4.532
C 43.507 7.799 -1.97
C 43.51 7.784 -0.406
C 42.225 8.551 0.123
C 42.219 8.574 -2.479
C 43.519 7.761 2.177
C 42.229 8.537 1.69
C 43.5 7.824 -4.552
C 42.215 8.589 -4.045
C 43.48 10.849 -2.466
C 43.484 10.824 0.136
C 43.488 10.808 1.703
C 43.477 10.866 -4.032
C 44.785 8.562 -2.488
C 44.791 8.536 0.113
C 46.05 10.803 0.128
C 44.769 10.072 -1.958
C 44.771 10.055 -0.393
C 46.047 10.832 -2.474
C 44.796 8.521 1.68
C 44.777 10.03 2.19
C 46.053 10.786 1.694
C 44.781 8.578 -4.054
C 46.043 10.849 -4.04
C 44.763 10.098 -4.54
C 46.074 7.785 -1.983
C 46.076 7.767 -0.418
C 46.084 7.741 2.165
C 46.066 7.812 -4.564
H 42.216 10.045 3.28
H 42.199 10.121 -5.614
H 43.527 7.756 3.259
H 43.499 7.836 -5.634
H 44.784 10.026 3.272
H 44.762 10.111 -5.621
H 46.093 7.735 3.247
H 46.064 7.826 -5.646
C 47.336 10.051 -1.967
C 47.336 10.033 -0.403
C 47.34 10.005 2.18
C 47.329 10.08 -4.549
C 48.643 7.763 -1.995
C 48.643 7.744 -0.431
C 47.357 8.514 0.101
C 47.353 8.544 -2.5
C 48.646 7.715 2.152
C 47.36 8.497 1.667
C 48.637 7.792 -4.576
C 47.349 8.561 -4.066
C 48.616 10.807 -2.481
C 48.617 10.776 0.12
C 48.616 10.757 1.685
C 48.611 10.825 -4.047
C 49.924 8.518 -2.509
C 49.923 8.486 0.092
C 51.184 10.743 0.119
C 49.905 10.024 -1.974
C 49.904 10.004 -0.41
C 51.186 10.775 -2.487
C 49.921 8.468 1.657
C 49.899 9.972 2.173
C 51.177 10.721 1.684
C 49.922 8.535 -4.075
C 51.18 10.791 -4.053
C 49.898 10.052 -4.556
C 51.215 7.736 -2.001
C 51.212 7.715 -0.437
C 51.202 7.683 2.146
C 51.214 7.764 -4.582
H 47.347 9.999 3.262
H 47.329 10.095 -5.631
H 48.653 7.707 3.234
H 48.636 7.809 -5.658
H 49.902 9.963 3.255
H 49.898 10.069 -5.637
H 51.203 7.671 3.228
H 51.214 7.78 -5.664
C 52.477 9.991 -1.979
C 52.475 9.971 -0.404
C 52.453 9.932 2.182
C 52.465 10.014 -4.564
C 53.791 7.705 -1.997
C 53.784 7.684 -0.423
C 52.491 8.454 0.095
C 52.499 8.486 -2.511
C 53.752 7.645 2.163
C 52.479 8.433 1.66
C 53.79 7.725 -4.582
C 52.497 8.5 -4.077
C 53.76 10.739 -2.503
C 53.755 10.706 0.145
C 53.743 10.682 1.727
C 53.755 10.755 -4.086
C 55.075 8.453 -2.517
C 55.061 8.42 0.131
C 55.02 9.937 -1.96
C 55.017 9.917 -0.403
C 55.042 8.396 1.713
C 54.983 9.871 2.287
C 55.077 8.468 -4.1
C 55.006 9.958 -4.651
C 56.337 7.658 -1.962
C 56.327 7.637 -0.405
C 56.278 7.588 2.284
C 56.337 7.677 -4.655
H 52.434 9.911 3.263
H 52.45 10.02 -5.646
H 53.728 7.623 3.244
H 53.777 7.729 -5.664
H 54.92 9.828 3.366
H 54.95 9.936 -5.731
H 56.209 7.548 3.363
H 56.281 7.645 -5.735
C -54.128 15.579 -0.488
C -54.053 15.551 2.115
C -54.007 15.536 3.68
C -54.173 15.597 -2.054
C -50.275 14.846 -0.085
C -50.232 14.829 1.479
C -52.825 13.315 -0.54
C -52.752 13.285 2.062
C -51.501 15.58 2.04
C -52.828 14.823 -0.011
C -52.783 14.805 1.553
C -51.575 15.607 -0.562
C -50.16 14.806 4.062
C -52.708 13.269 3.627
C -52.709 14.782 4.136
C -51.457 15.565 3.606
C -50.348 14.872 -2.668
C -52.869 13.333 -2.107
C -51.619 15.624 -2.129
C -52.902 14.851 -2.596
C -48.974 12.569 -0.136
C -48.932 12.55 1.429
C -50.201 13.306 1.988
C -51.527 12.553 -0.063
C -51.484 12.532 1.502
C -50.272 13.335 -0.614
C -48.862 12.526 4.01
C -51.412 12.508 4.083
C -50.158 13.291 3.554
C -49.045 12.596 -2.718
C -50.316 13.352 -2.18
C -51.599 12.581 -2.646
C -49.02 15.628 -0.635
C -48.949 15.602 1.967
C -48.906 15.588 3.533
C -49.064 15.644 -2.201
C -45.166 14.877 -0.229
C -45.126 14.86 1.335
C -47.718 13.35 -0.686
C -47.649 13.323 1.915
C -46.396 15.618 1.895
C -47.721 14.863 -0.158
C -47.68 14.847 1.407
C -46.465 15.644 -0.707
C -45.059 14.838 3.917
C -47.607 13.308 3.481
C -47.61 14.825 3.989
C -46.355 15.605 3.461
C -45.234 14.901 -2.811
C -47.76 13.366 -2.252
C -46.507 15.659 -2.273
C -47.792 14.889 -2.74
C -43.863 12.591 -0.279
C -43.825 12.573 1.286
C -45.096 13.335 1.844
C -46.42 12.582 -0.208
C -46.379 12.563 1.356
C -45.162 13.362 -0.757
C -43.761 12.55 3.866
C -46.311 12.54 3.937
C -45.056 13.321 3.409
C -43.928 12.617 -2.859
C -45.202 13.378 -2.323
C -46.489 12.608 -2.79
C -43.907 15.655 -0.777
C -43.842 15.63 1.824
C -43.804 15.617 3.39
C -43.946 15.671 -2.343
C -40.046 14.892 -0.359
C -40.013 14.876 1.205
C -42.602 13.37 -0.825
C -42.541 13.344 1.775
C -41.287 15.638 1.759
C -42.607 14.886 -0.297
C -42.571 14.87 1.267
C -41.345 15.664 -0.842
C -39.959 14.854 3.786
C -42.504 13.33 3.341
C -42.509 14.848 3.849
C -41.252 15.625 3.325
C -40.102 14.917 -2.939
C -42.64 13.386 -2.392
C -41.381 15.678 -2.408
C -42.67 14.911 -2.878
C -38.74 12.602 -0.402
C -38.71 12.584 1.162
C -39.984 13.349 1.713
C -41.303 12.598 -0.344
C -41.269 12.58 1.22
C -40.039 13.376 -0.887
C -38.659 12.561 3.742
C -41.21 12.558 3.8
C -39.952 13.336 3.278
C -38.791 12.628 -2.982
C -40.073 13.391 -2.454
C -41.363 12.624 -2.924
C -38.78 15.668 -0.899
C -38.729 15.642 1.701
C -38.699 15.629 3.267
C -38.811 15.682 -2.465
C -34.912 14.891 -0.452
C -34.889 14.875 1.112
C -37.472 13.377 -0.939
C -37.425 13.351 1.66
C -36.168 15.642 1.655
C -37.481 14.894 -0.412
C -37.453 14.878 1.153
C -36.211 15.667 -0.945
C -34.852 14.853 3.692
C -37.398 13.338 3.226
C -37.407 14.856 3.734
C -36.144 15.629 3.22
C -34.95 14.916 -3.032
C -37.501 13.392 -2.506
C -36.237 15.682 -2.512
C -37.528 14.919 -2.991
C -33.603 12.596 -0.484
C -33.582 12.578 1.081
C -34.863 13.347 1.619
C -36.173 12.602 -0.449
C -36.148 12.583 1.116
C -34.901 13.374 -0.98
C -33.55 12.556 3.66
C -36.107 12.561 3.695
C -34.841 13.334 3.185
C -33.637 12.622 -3.063
C -34.925 13.389 -2.547
C -36.216 12.627 -3.028
C -33.638 15.661 -0.98
C -33.604 15.635 1.62
C -33.584 15.623 3.185
C -33.659 15.676 -2.547
C -29.766 14.866 -0.501
C -29.749 14.85 1.064
C -32.328 13.365 -1.009
C -32.297 13.338 1.59
C -31.035 15.623 1.596
C -32.34 14.882 -0.481
C -32.321 14.866 1.083
C -31.064 15.648 -1.004
C -29.726 14.828 3.642
C -32.279 13.325 3.156
C -32.293 14.844 3.663
C -31.019 15.61 3.161
C -29.791 14.891 -3.08
C -32.346 13.38 -2.576
C -31.081 15.663 -2.57
C -32.37 14.907 -3.06
C -28.455 12.564 -0.524
C -28.439 12.547 1.041
C -29.726 13.323 1.57
C -31.03 12.584 -0.507
C -31.013 12.566 1.057
C -29.752 13.348 -1.028
C -28.417 12.525 3.618
C -30.987 12.544 3.635
C -29.711 13.309 3.136
C -28.478 12.59 -3.103
C -29.768 13.364 -2.595
C -31.057 12.61 -3.086
C -28.487 15.627 -1.02
C -28.462 15.603 1.578
C -28.447 15.589 3.144
C -28.502 15.643 -2.587
C -24.613 14.812 -0.534
C -24.595 14.797 1.031
C -27.175 13.325 -1.043
C -27.15 13.3 1.555
C -25.884 15.576 1.562
C -27.19 14.842 -0.516
C -27.174 14.827 1.048
C -25.91 15.6 -1.036
C -24.569 14.776 3.608
C -27.135 13.286 3.121
C -27.151 14.805 3.626
C -25.868 15.562 3.129
C -24.64 14.837 -3.113
C -27.19 13.341 -2.61
C -25.926 15.616 -2.603
C -27.214 14.867 -3.095
C -23.301 12.506 -0.559
C -23.281 12.49 1.005
C -24.57 13.27 1.538
C -25.879 12.538 -0.539
C -25.862 12.521 1.026
C -24.598 13.295 -1.06
C -23.252 12.467 3.582
C -25.838 12.499 3.602
C -24.553 13.256 3.104
C -23.33 12.531 -3.138
C -24.615 13.311 -2.627
C -25.903 12.563 -3.118
C -23.334 15.568 -1.057
C -23.302 15.544 1.542
C -23.284 15.529 3.108
C -23.352 15.584 -2.623
C -22.021 13.261 -1.085
C -21.986 13.236 1.512
C -20.718 15.508 1.511
C -22.035 14.778 -0.559
C -22.014 14.763 1.006
C -20.757 15.532 -1.087
C -21.966 13.221 3.079
C -21.98 14.741 3.583
C -20.695 15.493 3.077
C -22.042 13.277 -2.652
C -20.78 15.547 -2.653
C -22.069 14.802 -3.138
C -20.722 12.471 -0.59
C -20.699 12.455 0.975
C -20.661 12.431 3.551
C -20.76 12.495 -3.169
C -59.241 15.499 -0.33
C -59.161 15.466 2.278
C -59.107 15.446 3.842
C -59.283 15.516 -1.896
C -55.381 14.794 0.065
C -55.335 14.775 1.628
C -57.933 13.256 -0.386
C -57.855 13.219 2.217
C -56.606 15.513 2.193
C -57.936 14.757 0.145
C -57.889 14.735 1.709
C -56.684 15.544 -0.41
C -55.258 14.749 4.211
C -57.807 13.2 3.781
C -57.805 14.707 4.291
C -56.556 15.497 3.757
C -55.456 14.823 -2.52
C -57.977 13.277 -1.952
C -56.728 15.562 -1.976
C -58.01 14.786 -2.441
C -54.079 12.532 0.011
C -54.035 12.509 1.576
C -55.303 13.256 2.137
C -56.631 12.504 0.088
C -56.586 12.479 1.652
C -55.378 13.289 -0.465
C -53.961 12.483 4.157
C -56.509 12.45 4.234
C -55.258 13.239 3.702
C -54.152 12.562 -2.573
C -55.423 13.309 -2.031
C -56.706 12.538 -2.497
C -60.495 14.711 0.225
C -60.447 14.686 1.799
C -63.051 13.162 -0.232
C -62.969 13.113 2.415
C -61.721 15.406 2.385
C -63.027 14.635 0.324
C -62.978 14.607 1.879
C -61.804 15.442 -0.262
C -60.35 14.65 4.385
C -62.914 13.083 3.996
C -62.872 14.561 4.564
C -61.665 15.383 3.966
C -60.562 14.738 -2.365
C -63.091 13.19 -1.815
C -61.846 15.463 -1.845
C -63.093 14.668 -2.367
C -59.185 12.47 0.17
C -59.139 12.441 1.734
C -60.41 13.172 2.305
C -61.743 12.427 0.253
C -61.696 12.394 1.826
C -60.489 13.214 -0.303
C -59.055 12.406 4.316
C -61.6 12.347 4.411
C -60.356 13.148 3.869
C -59.258 12.506 -2.416
C -60.531 13.236 -1.869
C -61.809 12.464 -2.339
C -64.274 12.356 0.354
C -64.226 12.317 1.909
C -64.122 12.254 4.593
C -64.338 12.406 -2.338
H -34.838 14.851 4.774
H -37.388 14.854 4.815
H -34.965 14.931 -4.113
H -37.548 14.933 -4.073
H -33.538 12.555 4.742
H -36.09 12.56 4.777
H -33.649 12.636 -4.144
H -36.233 12.641 -4.11
H -29.719 14.826 4.724
H -32.283 14.842 4.745
H -29.797 14.905 -4.162
H -32.38 14.922 -4.142
H -28.41 12.525 4.7
H -30.979 12.543 4.717
H -28.483 12.603 -4.185
H -31.064 12.624 -4.168
H -24.559 14.773 4.69
H -27.144 14.803 4.708
H -24.646 14.849 -4.195
H -27.219 14.88 -4.177
H -23.239 12.466 4.663
H -25.829 12.498 4.684
H -23.338 12.542 -4.22
H -25.908 12.575 -4.2
H -21.965 14.738 4.665
H -22.079 14.813 -4.22
H -20.643 12.429 4.633
H -20.772 12.505 -4.251
H -62.78 14.532 5.642
H -63.078 14.652 -3.449
H -64.027 12.221 5.67
H -64.326 12.393 -3.42
H -41.39 12.637 -4.006
H -55.491 14.839 -3.601
H -54.185 12.577 -3.655
H -42.699 14.925 -3.96
H -43.958 12.63 -3.941
H -56.741 12.553 -3.578
H -45.264 14.915 -3.892
H -46.52 12.621 -3.871
H -58.045 14.802 -3.522
H -59.294 12.522 -3.498
H -47.824 14.903 -3.822
H -60.582 14.743 -3.447
H -49.077 12.609 -3.8
H -61.83 12.471 -3.421
H -50.38 14.887 -3.75
H -51.631 12.595 -3.728
H -40.127 14.931 -4.021
H -38.814 12.641 -4.063
H -52.935 14.866 -3.677
H -47.581 14.824 5.07
H -50.131 14.806 5.143
H -38.638 12.561 4.824
H -61.544 12.336 5.492
H -52.68 14.782 5.217
H -41.185 12.557 4.882
H -51.383 12.509 5.165
H -53.931 12.484 5.239
H -57.77 14.706 5.373
H -56.477 12.451 5.315
H -42.482 14.846 4.93
H -45.031 14.837 4.999
H -60.296 14.64 5.465
H -46.282 12.541 5.019
H -48.832 12.527 5.092
H -39.935 14.852 4.868
H -55.227 14.75 5.293
H -43.733 12.55 4.948
H -59.019 12.406 5.397
C 7.503 15.385 -1.892
C 7.579 15.362 0.709
C 7.625 15.348 2.274
C 7.458 15.398 -3.458
C 11.367 14.621 -1.49
C 11.411 14.607 0.075
C 8.81 13.102 -1.947
C 8.885 13.08 0.654
C 10.139 15.367 0.635
C 8.806 14.616 -1.417
C 8.851 14.602 0.147
C 10.065 15.39 -1.966
C 11.483 14.585 2.656
C 8.929 13.066 2.22
C 8.925 14.579 2.729
C 10.183 15.353 2.201
C 11.296 14.642 -4.071
C 8.766 13.115 -3.513
C 10.021 15.403 -3.532
C 8.732 14.637 -3.998
C 12.674 12.339 -1.543
C 12.716 12.325 0.021
C 11.444 13.085 0.581
C 10.113 12.333 -1.471
C 10.156 12.32 0.094
C 11.372 13.107 -2.02
C 12.787 12.304 2.603
C 10.229 12.298 2.675
C 11.488 13.072 2.147
C 12.603 12.359 -4.124
C 11.329 13.12 -3.586
C 10.04 12.354 -4.052
C 12.627 15.395 -2.038
C 12.698 15.373 0.563
C 12.741 15.359 2.129
C 12.584 15.409 -3.604
C 16.49 14.632 -1.634
C 16.53 14.618 -0.069
C 13.934 13.113 -2.092
C 14.003 13.091 0.509
C 15.257 15.378 0.491
C 13.929 14.626 -1.562
C 13.97 14.613 0.002
C 15.189 15.401 -2.11
C 16.597 14.597 2.513
C 14.045 13.078 2.075
C 14.04 14.591 2.584
C 15.298 15.365 2.057
C 16.423 14.654 -4.214
C 13.892 13.125 -3.658
C 15.147 15.414 -3.676
C 13.859 14.648 -4.143
C 17.797 12.35 -1.686
C 17.835 12.337 -0.122
C 16.562 13.097 0.438
C 15.235 12.344 -1.616
C 15.276 12.331 -0.051
C 16.496 13.118 -2.164
C 17.9 12.316 2.461
C 15.344 12.31 2.531
C 16.603 13.084 2.004
C 17.732 12.37 -4.267
C 16.456 13.131 -3.73
C 15.167 12.364 -4.196
C 17.752 15.407 -2.181
C 17.816 15.384 0.421
C 17.855 15.37 1.987
C 17.713 15.42 -3.747
C 21.618 14.644 -1.766
C 21.65 14.63 -0.201
C 19.06 13.124 -2.233
C 19.121 13.103 0.369
C 20.375 15.39 0.355
C 19.053 14.638 -1.703
C 19.09 14.624 -0.138
C 20.316 15.413 -2.247
C 21.705 14.608 2.382
C 19.158 13.09 1.935
C 19.152 14.602 2.445
C 20.41 15.376 1.921
C 21.562 14.666 -4.346
C 19.022 13.136 -3.799
C 20.281 15.426 -3.813
C 18.991 14.66 -4.283
C 22.926 12.362 -1.812
C 22.955 12.348 -0.247
C 21.68 13.108 0.306
C 20.361 12.356 -1.753
C 20.395 12.343 -0.188
C 21.625 13.13 -2.296
C 23.006 12.328 2.336
C 20.454 12.322 2.394
C 21.713 13.096 1.872
C 22.875 12.382 -4.392
C 21.592 13.142 -3.862
C 20.302 12.376 -4.333
C 22.883 15.418 -2.305
C 22.933 15.395 0.296
C 22.964 15.382 1.862
C 22.853 15.431 -3.872
C 26.75 14.656 -1.862
C 26.772 14.641 -0.297
C 24.193 13.136 -2.35
C 24.239 13.114 0.252
C 25.492 15.401 0.248
C 24.183 14.65 -1.82
C 24.21 14.636 -0.255
C 25.452 15.424 -2.354
C 26.807 14.619 2.286
C 24.266 13.102 1.818
C 24.256 14.614 2.328
C 25.517 15.388 1.814
C 26.715 14.677 -4.442
C 24.165 13.148 -3.916
C 25.427 15.437 -3.92
C 24.137 14.672 -4.399
C 28.06 12.373 -1.896
C 28.078 12.359 -0.331
C 26.798 13.119 0.21
C 25.492 12.367 -1.86
C 25.516 12.354 -0.295
C 26.762 13.141 -2.392
C 28.108 12.339 2.252
C 25.557 12.334 2.288
C 26.819 13.107 1.776
C 28.03 12.393 -4.476
C 26.741 13.153 -3.958
C 25.452 12.387 -4.44
C 28.022 15.429 -2.389
C 28.052 15.406 0.212
C 28.07 15.393 1.778
C 28.003 15.442 -3.956
C 31.887 14.664 -1.908
C 31.897 14.649 -0.343
C 29.332 13.146 -2.421
C 29.358 13.124 0.181
C 30.612 15.41 0.189
C 29.318 14.66 -1.891
C 29.334 14.646 -0.326
C 30.592 15.434 -2.412
C 31.912 14.627 2.24
C 29.373 13.112 1.747
C 29.358 14.624 2.257
C 30.624 15.397 1.755
C 31.872 14.686 -4.488
C 29.317 13.158 -3.987
C 30.58 15.447 -3.979
C 29.294 14.682 -4.471
C 33.196 12.38 -1.929
C 33.204 12.367 -0.364
C 31.919 13.128 0.164
C 30.628 12.377 -1.918
C 30.641 12.364 -0.353
C 31.903 13.15 -2.437
C 33.215 12.346 2.219
C 30.66 12.343 2.23
C 31.929 13.116 1.731
C 33.185 12.401 -4.51
C 31.893 13.162 -4.004
C 30.609 12.397 -4.498
C 33.162 15.436 -2.424
C 33.174 15.412 0.178
C 33.181 15.399 1.744
C 33.155 15.45 -3.991
C 34.472 13.152 -2.444
C 34.482 13.13 0.158
C 35.737 15.412 0.174
C 34.454 14.665 -1.914
C 34.46 14.651 -0.349
C 35.731 15.436 -2.427
C 34.487 13.117 1.724
C 34.468 14.628 2.234
C 35.741 15.397 1.741
C 34.467 13.165 -4.01
C 35.728 15.451 -3.994
C 34.447 14.689 -4.495
C 35.763 12.381 -1.932
C 35.768 12.367 -0.367
C 35.774 12.347 2.216
C 35.758 12.403 -4.513
C 2.377 15.377 -1.735
C 2.458 15.353 0.865
C 2.507 15.339 2.431
C 2.328 15.391 -3.301
C 6.244 14.611 -1.343
C 6.29 14.597 0.222
C 3.685 13.094 -1.794
C 3.764 13.07 0.807
C 5.019 15.357 0.785
C 3.681 14.607 -1.264
C 3.729 14.593 0.3
C 4.94 15.381 -1.816
C 6.367 14.574 2.803
C 3.812 13.056 2.372
C 3.809 14.57 2.881
C 5.066 15.343 2.35
C 6.168 14.633 -3.923
C 3.637 13.107 -3.36
C 4.893 15.394 -3.382
C 3.602 14.629 -3.845
C 7.551 12.329 -1.397
C 7.596 12.314 0.167
C 6.325 13.075 0.728
C 4.989 12.324 -1.321
C 5.035 12.31 0.243
C 6.248 13.098 -1.872
C 7.671 12.293 2.748
C 5.113 12.287 2.824
C 6.371 13.061 2.294
C 7.477 12.35 -3.978
C 6.202 13.111 -3.438
C 4.912 12.346 -3.902
C -2.754 15.377 -1.561
C -2.672 15.353 1.038
C -2.621 15.338 2.604
C -2.804 15.391 -3.127
C 1.117 14.605 -1.181
C 1.166 14.59 0.383
C -1.445 13.091 -1.623
C -1.363 13.067 0.976
C -0.106 15.352 0.95
C -1.448 14.605 -1.094
C -1.399 14.59 0.471
C -0.188 15.376 -1.649
C 1.249 14.567 2.963
C -1.312 13.052 2.542
C -1.315 14.566 3.05
C -0.055 15.337 2.516
C 1.035 14.627 -3.761
C -1.495 13.105 -3.189
C -0.238 15.39 -3.215
C -1.531 14.627 -3.674
C 2.425 12.321 -1.241
C 2.473 12.306 0.324
C 1.202 13.067 0.889
C -0.14 12.32 -1.155
C -0.091 12.304 0.409
C 1.12 13.091 -1.711
C 2.555 12.283 2.904
C -0.007 12.281 2.989
C 1.252 13.053 2.455
C 2.345 12.343 -3.821
C 1.071 13.105 -3.277
C -0.222 12.342 -3.736
C -7.89 15.393 -1.39
C -7.814 15.369 1.209
C -7.767 15.353 2.775
C -7.936 15.407 -2.956
C -4.015 14.608 -1.005
C -3.967 14.593 0.559
C -6.58 13.101 -1.448
C -6.502 13.076 1.151
C -5.241 15.358 1.126
C -6.584 14.615 -0.919
C -6.538 14.601 0.645
C -5.322 15.382 -1.473
C -3.883 14.569 3.138
C -6.454 13.06 2.716
C -6.458 14.576 3.223
C -5.192 15.343 2.691
C -4.097 14.63 -3.585
C -6.627 13.116 -3.014
C -5.37 15.397 -3.039
C -6.663 14.638 -3.499
C -2.706 12.321 -1.067
C -2.657 12.305 0.497
C -3.931 13.069 1.065
C -5.274 12.326 -0.979
C -5.227 12.31 0.585
C -4.012 13.094 -1.535
C -2.573 12.281 3.076
C -5.144 12.285 3.163
C -3.88 13.054 2.63
C -2.788 12.343 -3.647
C -4.061 13.108 -3.101
C -5.354 12.348 -3.559
C -13.033 15.433 -1.242
C -12.969 15.408 1.356
C -12.931 15.392 2.922
C -13.071 15.447 -2.809
C -9.155 14.629 -0.839
C -9.112 14.614 0.726
C -11.721 13.134 -1.293
C -11.654 13.108 1.305
C -10.39 15.385 1.286
C -11.728 14.649 -0.765
C -11.688 14.634 0.8
C -10.46 15.409 -1.312
C -9.037 14.589 3.303
C -11.613 13.092 2.871
C -11.621 14.609 3.376
C -10.347 15.369 2.852
C -9.228 14.651 -3.418
C -11.761 13.148 -2.859
C -10.503 15.424 -2.878
C -11.795 14.671 -3.345
C -7.844 12.336 -0.895
C -7.799 12.319 0.669
C -9.076 13.089 1.231
C -10.417 12.351 -0.817
C -10.375 12.335 0.747
C -9.15 13.114 -1.367
C -7.721 12.294 3.247
C -10.303 12.31 3.324
C -9.031 13.073 2.797
C -7.92 12.359 -3.475
C -9.193 13.129 -2.933
C -10.486 12.375 -3.397
C -18.181 15.496 -1.129
C -18.134 15.472 1.47
C -18.106 15.456 3.036
C -18.209 15.511 -2.695
C -14.303 14.675 -0.699
C -14.268 14.66 0.866
C -16.869 13.19 -1.169
C -16.818 13.165 1.429
C -15.551 15.438 1.417
C -16.88 14.706 -0.642
C -16.849 14.692 0.923
C -15.606 15.462 -1.181
C -14.208 14.636 3.442
C -16.786 13.149 2.995
C -16.797 14.668 3.499
C -15.517 15.422 2.983
C -14.362 14.698 -3.279
C -16.9 13.206 -2.735
C -15.64 15.477 -2.747
C -16.931 14.729 -3.221
C -12.991 12.374 -0.747
C -12.953 12.357 0.818
C -14.235 13.134 1.371
C -15.567 12.402 -0.685
C -15.534 12.386 0.88
C -14.294 13.159 -1.227
C -12.889 12.332 3.394
C -15.477 12.361 3.456
C -14.198 13.118 2.937
C -13.054 12.397 -3.327
C -14.33 13.174 -2.793
C -15.622 12.426 -3.264
C -19.457 14.742 -0.595
C -19.431 14.727 0.97
C -19.389 14.704 3.546
C -19.499 14.765 -3.174
C -18.144 12.435 -0.632
C -18.116 12.419 0.933
C -19.402 13.2 1.476
C -19.445 13.225 -1.122
C -18.069 12.395 3.509
C -19.376 13.185 3.042
C -18.191 12.459 -3.211
C -19.47 13.241 -2.688
H 26.823 14.612 3.368
H 24.277 14.607 3.41
H 26.701 14.689 -5.523
H 24.117 14.684 -5.481
H 28.121 12.333 3.334
H 25.576 12.327 3.369
H 28.019 12.404 -5.558
H 25.434 12.399 -5.522
H 31.917 14.621 3.322
H 29.369 14.617 3.339
H 31.868 14.699 -5.57
H 29.285 14.695 -5.553
H 33.219 12.341 3.301
H 30.668 12.338 3.312
H 33.184 12.412 -5.591
H 30.603 12.409 -5.58
H 34.471 14.623 3.316
H 34.448 14.701 -5.577
H 35.776 12.342 3.298
H 35.76 12.414 -5.595
H -1.275 14.559 4.131
H -1.566 14.637 -4.755
H -3.843 14.562 4.219
H -6.419 14.569 4.304
H -4.131 14.64 -4.667
H -6.695 14.647 -4.581
H -2.533 12.274 4.157
H -5.105 12.278 4.245
H -2.822 12.352 -4.728
H -5.387 12.357 -4.64
H -9.001 14.582 4.384
H -11.588 14.602 4.458
H -9.257 14.66 -4.5
H -11.82 14.68 -4.426
H -7.684 12.288 4.328
H -10.269 12.303 4.405
H -7.95 12.366 -4.556
H -10.513 12.382 -4.479
H -14.178 14.629 4.524
H -16.772 14.662 4.581
H -14.385 14.706 -4.36
H -16.949 14.739 -4.303
H -12.857 12.326 4.475
H -15.449 12.356 4.537
H -13.077 12.405 -4.408
H -15.642 12.434 -4.346
H -19.369 14.7 4.628
H -19.514 14.775 -4.256
H -18.045 12.391 4.59
H -18.207 12.468 -4.293
H 20.276 12.387 -5.415
H 6.138 14.644 -5.005
H 7.448 12.36 -5.06
H 18.963 14.671 -5.364
H 17.704 12.381 -5.348
H 4.881 12.356 -4.984
H 16.394 14.665 -5.296
H 15.137 12.375 -5.278
H 3.57 14.64 -4.926
H 2.313 12.353 -4.903
H 13.829 14.659 -5.225
H 1.002 14.638 -4.843
H 12.574 12.369 -5.206
H -0.256 12.351 -4.817
H 11.266 14.653 -5.152
H 10.011 12.364 -5.133
H 21.538 14.677 -5.427
H 22.853 12.393 -5.474
H 8.703 14.648 -5.08
H 14.071 14.585 3.666
H 11.514 14.579 3.738
H 23.03 12.322 3.417
H 0.033 12.274 4.07
H 8.957 14.573 3.81
H 20.482 12.316 3.476
H 10.261 12.293 3.757
H 7.704 12.287 3.83
H 3.845 14.563 3.962
H 5.148 12.281 3.905
H 19.18 14.596 3.526
H 16.627 14.59 3.595
H 1.287 14.56 4.045
H 15.376 12.305 3.613
H 12.819 12.299 3.685
H 21.73 14.601 3.464
H 6.401 14.568 3.885
H 17.93 12.311 3.542
H 2.592 12.277 3.985
C 37.022 14.664 -1.915
C 37.025 14.649 -0.35
C 37.028 14.626 2.233
C 37.019 14.688 -4.496
C 38.33 12.379 -1.932
C 38.333 12.365 -0.367
C 37.045 13.128 0.157
C 37.04 13.151 -2.445
C 38.336 12.343 2.216
C 37.048 13.115 1.724
C 38.328 12.402 -4.513
C 37.038 13.165 -4.011
C 38.299 15.433 -2.427
C 38.301 15.407 0.175
C 38.303 15.392 1.742
C 38.298 15.449 -3.993
C 39.608 13.147 -2.444
C 39.61 13.122 0.158
C 40.867 15.396 0.176
C 39.589 14.658 -1.914
C 39.59 14.642 -0.349
C 40.866 15.424 -2.425
C 39.612 13.108 1.724
C 39.591 14.618 2.234
C 40.867 15.38 1.743
C 39.606 13.162 -4.011
C 40.866 15.442 -3.992
C 39.587 14.685 -4.496
C 40.896 12.372 -1.932
C 40.898 12.357 -0.367
C 40.901 12.334 2.216
C 40.894 12.397 -4.514
H 37.029 14.621 3.315
H 37.021 14.701 -5.578
H 38.338 12.34 3.298
H 38.33 12.413 -5.595
H 39.593 14.614 3.316
H 39.59 14.698 -5.577
H 40.905 12.331 3.298
H 40.896 12.409 -5.596
C 42.155 14.647 -1.914
C 42.155 14.63 -0.349
C 42.156 14.603 2.234
C 42.154 14.676 -4.496
C 43.462 12.359 -1.936
C 43.463 12.343 -0.371
C 42.176 13.11 0.156
C 42.174 13.137 -2.446
C 43.467 12.318 2.212
C 42.178 13.095 1.723
C 43.459 12.387 -4.517
C 42.172 13.154 -4.012
C 43.433 15.41 -2.425
C 43.433 15.379 0.176
C 43.433 15.361 1.742
C 43.432 15.429 -3.992
C 44.741 13.121 -2.45
C 44.742 13.092 0.152
C 46 15.354 0.175
C 44.722 14.629 -1.916
C 44.721 14.611 -0.351
C 46.001 15.388 -2.426
C 44.744 13.074 1.718
C 44.721 14.581 2.231
C 45.998 15.333 1.741
C 44.738 13.139 -4.016
C 45.998 15.408 -3.992
C 44.719 14.661 -4.497
C 46.029 12.34 -1.941
C 46.029 12.322 -0.377
C 46.031 12.294 2.206
C 46.024 12.37 -4.523
H 42.159 14.598 3.316
H 42.156 14.691 -5.578
H 43.472 12.314 3.294
H 43.459 12.4 -5.599
H 44.724 14.574 3.313
H 44.721 14.678 -5.579
H 46.037 12.288 3.288
H 46.025 12.386 -5.605
C 47.29 14.604 -1.918
C 47.289 14.584 -0.353
C 47.284 14.549 2.229
C 47.284 14.636 -4.499
C 48.597 12.314 -1.946
C 48.597 12.294 -0.382
C 47.309 13.066 0.147
C 47.308 13.097 -2.454
C 48.593 12.261 2.2
C 47.308 13.046 1.713
C 48.59 12.344 -4.528
C 47.304 13.116 -4.02
C 48.571 15.358 -2.428
C 48.569 15.322 0.177
C 48.563 15.298 1.743
C 48.564 15.377 -3.994
C 49.878 13.066 -2.459
C 49.878 13.033 0.147
C 51.142 15.284 0.199
C 49.861 14.572 -1.923
C 49.86 14.551 -0.348
C 51.143 15.321 -2.448
C 49.871 13.01 1.712
C 49.843 14.508 2.237
C 51.133 15.258 1.782
C 49.871 13.084 -4.025
C 51.136 15.34 -4.031
C 49.845 14.601 -4.509
C 51.168 12.281 -1.953
C 51.168 12.261 -0.378
C 51.15 12.22 2.207
C 51.153 12.306 -4.538
H 47.285 14.539 3.311
H 47.285 14.655 -5.581
H 48.596 12.252 3.282
H 48.59 12.361 -5.61
H 49.825 14.486 3.318
H 49.829 14.611 -5.59
H 51.133 12.199 3.289
H 51.136 12.315 -5.62
C 52.404 14.515 -1.913
C 52.403 14.494 -0.357
C 52.379 14.446 2.333
C 52.382 14.541 -4.602
C 53.711 12.224 -1.942
C 53.71 12.204 -0.385
C 52.45 12.994 0.169
C 52.451 13.029 -2.479
C 53.684 12.158 2.305
C 52.441 12.97 1.751
C 53.691 12.248 -4.631
C 52.443 13.046 -4.062
H 52.319 14.399 3.412
H 52.326 14.528 -5.683
H 53.624 12.113 3.384
H 53.633 12.23 -5.712
C -54.183 20.123 -0.447
C -54.106 20.094 2.156
C -54.057 20.077 3.721
C -54.227 20.141 -2.013
C -50.325 19.406 -0.048
C -50.281 19.389 1.516
C -52.878 17.87 -0.507
C -52.802 17.842 2.096
C -51.551 20.132 2.08
C -52.88 19.375 0.027
C -52.834 19.358 1.591
C -51.626 20.16 -0.523
C -50.208 19.365 4.1
C -52.756 17.827 3.661
C -52.758 19.332 4.175
C -51.506 20.116 3.646
C -50.399 19.434 -2.632
C -52.923 17.887 -2.073
C -51.671 20.178 -2.089
C -52.954 19.404 -2.557
C -49.023 17.139 -0.105
C -48.98 17.122 1.46
C -50.25 17.872 2.022
C -51.577 17.115 -0.031
C -51.532 17.098 1.533
C -50.323 17.898 -0.581
C -48.909 17.099 4.043
C -51.459 17.075 4.117
C -50.206 17.857 3.588
C -49.096 17.165 -2.688
C -50.367 17.915 -2.147
C -51.651 17.143 -2.615
C -49.071 20.189 -0.597
C -48.998 20.162 2.006
C -48.954 20.147 3.572
C -49.115 20.207 -2.163
C -45.215 19.448 -0.193
C -45.174 19.432 1.372
C -47.768 17.92 -0.654
C -47.697 17.894 1.949
C -46.445 20.184 1.933
C -47.771 19.43 -0.121
C -47.728 19.414 1.443
C -46.514 20.211 -0.669
C -45.107 19.408 3.955
C -47.655 17.88 3.515
C -47.657 19.389 4.027
C -46.403 20.169 3.499
C -45.283 19.474 -2.775
C -47.811 17.936 -2.22
C -46.557 20.228 -2.235
C -47.843 19.457 -2.704
C -43.911 17.17 -0.247
C -43.873 17.154 1.318
C -45.144 17.911 1.877
C -46.468 17.156 -0.177
C -46.427 17.14 1.387
C -45.211 17.936 -0.725
C -43.808 17.131 3.9
C -46.358 17.118 3.97
C -45.104 17.897 3.443
C -43.977 17.195 -2.828
C -45.252 17.952 -2.291
C -46.538 17.182 -2.759
C -43.956 20.227 -0.739
C -43.891 20.2 1.863
C -43.852 20.186 3.429
C -43.996 20.243 -2.305
C -40.095 19.468 -0.322
C -40.062 19.452 1.242
C -42.651 17.947 -0.792
C -42.589 17.922 1.809
C -41.336 20.211 1.798
C -42.656 19.46 -0.261
C -42.619 19.444 1.304
C -41.394 20.237 -0.804
C -40.007 19.429 3.825
C -42.552 17.908 3.375
C -42.558 19.421 3.887
C -41.301 20.197 3.364
C -40.151 19.494 -2.903
C -42.689 17.963 -2.359
C -41.431 20.253 -2.37
C -42.72 19.486 -2.842
C -38.788 17.183 -0.369
C -38.758 17.167 1.195
C -40.033 17.929 1.747
C -41.351 17.178 -0.312
C -41.316 17.162 1.252
C -40.088 17.954 -0.854
C -38.707 17.145 3.777
C -41.258 17.14 3.835
C -40 17.916 3.313
C -38.84 17.208 -2.949
C -40.121 17.969 -2.42
C -41.411 17.203 -2.893
C -38.829 20.243 -0.861
C -38.778 20.217 1.741
C -38.748 20.203 3.307
C -38.861 20.258 -2.427
C -34.961 19.468 -0.415
C -34.938 19.452 1.15
C -37.52 17.957 -0.905
C -37.474 17.931 1.695
C -36.218 20.217 1.694
C -37.53 19.471 -0.374
C -37.502 19.455 1.191
C -36.26 20.243 -0.907
C -34.902 19.429 3.731
C -37.446 17.918 3.261
C -37.456 19.431 3.772
C -36.193 20.203 3.26
C -35 19.494 -2.994
C -37.549 17.972 -2.472
C -36.287 20.258 -2.473
C -37.577 19.497 -2.954
C -33.651 17.177 -0.451
C -33.63 17.161 1.114
C -34.911 17.928 1.654
C -36.221 17.183 -0.416
C -36.195 17.167 1.149
C -34.95 17.953 -0.946
C -33.598 17.138 3.695
C -36.155 17.144 3.73
C -34.889 17.915 3.22
C -33.685 17.202 -3.03
C -34.973 17.969 -2.512
C -36.264 17.208 -2.995
C -33.688 20.237 -0.941
C -33.654 20.21 1.659
C -33.634 20.197 3.225
C -33.709 20.252 -2.508
C -29.816 19.442 -0.464
C -29.799 19.426 1.101
C -32.376 17.944 -0.975
C -32.345 17.918 1.625
C -31.085 20.198 1.635
C -32.39 19.459 -0.444
C -32.371 19.443 1.121
C -31.114 20.223 -0.965
C -29.776 19.403 3.681
C -32.327 17.905 3.191
C -32.342 19.419 3.702
C -31.069 20.183 3.201
C -29.841 19.469 -3.043
C -32.395 17.959 -2.541
C -31.131 20.239 -2.531
C -32.42 19.485 -3.023
C -28.503 17.144 -0.492
C -28.487 17.128 1.073
C -29.774 17.902 1.605
C -31.078 17.164 -0.475
C -31.06 17.148 1.09
C -29.8 17.927 -0.994
C -28.464 17.106 3.652
C -31.035 17.126 3.67
C -29.759 17.888 3.171
C -28.527 17.169 -3.071
C -29.816 17.943 -2.561
C -31.105 17.189 -3.054
C -28.538 20.203 -0.982
C -28.512 20.178 1.618
C -28.498 20.163 3.184
C -28.553 20.219 -2.548
C -24.664 19.388 -0.497
C -24.645 19.374 1.068
C -27.224 17.903 -1.01
C -27.198 17.879 1.589
C -25.934 20.151 1.601
C -27.241 19.418 -0.48
C -27.224 19.403 1.085
C -25.961 20.176 -0.998
C -24.619 19.35 3.646
C -27.184 17.864 3.155
C -27.201 19.38 3.664
C -25.919 20.135 3.168
C -24.691 19.414 -3.077
C -27.239 17.919 -2.577
C -25.977 20.192 -2.564
C -27.265 19.445 -3.059
C -23.349 17.084 -0.528
C -23.33 17.07 1.037
C -24.618 17.849 1.571
C -25.927 17.116 -0.508
C -25.909 17.102 1.057
C -24.647 17.873 -1.028
C -23.3 17.047 3.614
C -25.886 17.079 3.636
C -24.602 17.834 3.137
C -23.379 17.109 -3.107
C -24.664 17.889 -2.594
C -25.951 17.142 -3.087
C -23.385 20.143 -1.019
C -23.353 20.118 1.58
C -23.335 20.102 3.147
C -23.404 20.16 -2.585
C -22.071 17.838 -1.053
C -22.036 17.814 1.546
C -20.77 20.082 1.55
C -22.086 19.353 -0.522
C -22.065 19.339 1.042
C -20.809 20.107 -1.049
C -22.015 17.799 3.112
C -22.032 19.315 3.62
C -20.747 20.066 3.116
C -22.091 17.854 -2.619
C -20.832 20.123 -2.615
C -22.12 19.379 -3.102
C -20.771 17.048 -0.558
C -20.748 17.034 1.006
C -20.71 17.01 3.583
C -20.809 17.072 -3.138
C -59.305 20.016 -0.311
C -59.224 19.985 2.337
C -59.169 19.966 3.918
C -59.346 20.033 -1.894
C -55.436 19.335 0.103
C -55.39 19.317 1.667
C -57.992 17.786 -0.354
C -57.913 17.756 2.255
C -56.663 20.045 2.236
C -57.997 19.285 0.177
C -57.949 19.267 1.752
C -56.741 20.075 -0.372
C -55.307 19.289 4.251
C -57.858 17.738 3.819
C -57.854 19.233 4.339
C -56.61 20.026 3.801
C -55.509 19.363 -2.482
C -58.034 17.803 -1.919
C -56.783 20.092 -1.937
C -58.061 19.309 -2.412
C -54.131 17.085 0.044
C -54.085 17.067 1.608
C -55.356 17.805 2.172
C -56.687 17.046 0.122
C -56.64 17.027 1.686
C -55.434 17.833 -0.431
C -54.008 17.042 4.191
C -56.556 17 4.269
C -55.307 17.788 3.737
C -54.206 17.113 -2.541
C -55.478 17.851 -1.996
C -56.76 17.073 -2.464
C -60.53 19.206 0.268
C -60.482 19.187 1.823
C -60.378 19.149 4.511
C -60.592 19.23 -2.422
C -59.246 16.997 0.199
C -59.199 16.977 1.773
C -60.473 17.696 2.358
C -61.779 16.919 0.293
C -61.731 16.898 1.848
C -60.555 17.728 -0.29
C -59.102 16.944 4.359
C -61.625 16.859 4.535
C -60.417 17.676 3.939
C -59.312 17.021 -2.391
C -60.597 17.746 -1.872
C -61.844 16.945 -2.397
H -34.888 19.423 4.813
H -37.438 19.426 4.854
H -35.015 19.51 -4.076
H -37.598 19.513 -4.036
H -33.586 17.135 4.777
H -36.138 17.141 4.812
H -33.698 17.218 -4.112
H -36.282 17.223 -4.077
H -29.769 19.398 4.763
H -32.333 19.414 4.784
H -29.848 19.485 -4.125
H -32.431 19.501 -4.105
H -28.458 17.102 4.734
H -31.027 17.122 4.752
H -28.533 17.184 -4.153
H -31.113 17.205 -4.136
H -24.61 19.344 4.728
H -27.194 19.374 4.746
H -24.698 19.429 -4.158
H -27.27 19.46 -4.141
H -23.288 17.042 4.696
H -25.877 17.075 4.718
H -23.388 17.122 -4.189
H -25.957 17.156 -4.169
H -22.017 19.308 4.702
H -22.131 19.393 -4.184
H -20.693 17.005 4.665
H -20.822 17.084 -4.22
H -41.438 17.218 -3.974
H -55.542 19.382 -3.563
H -54.24 17.13 -3.622
H -42.749 19.502 -3.924
H -44.007 17.21 -3.91
H -56.794 17.09 -3.545
H -45.314 19.49 -3.856
H -46.57 17.197 -3.841
H -58.078 19.318 -3.493
H -59.331 17.028 -3.473
H -47.875 19.474 -3.786
H -60.573 19.217 -3.504
H -49.128 17.181 -3.769
H -61.826 16.93 -3.479
H -50.432 19.452 -3.713
H -51.684 17.159 -3.697
H -40.176 19.51 -3.984
H -38.863 17.223 -4.031
H -52.988 19.423 -3.639
H -47.628 19.386 5.109
H -50.178 19.361 5.182
H -38.686 17.141 4.859
H -61.535 16.828 5.613
H -52.728 19.329 5.256
H -41.233 17.137 4.916
H -51.429 17.073 5.198
H -53.978 17.041 5.273
H -57.803 19.22 5.42
H -56.523 16.998 5.351
H -42.531 19.416 4.968
H -45.079 19.404 5.037
H -60.288 19.116 5.589
H -46.33 17.115 5.052
H -48.879 17.097 5.125
H -39.985 19.424 4.907
H -55.274 19.285 5.333
H -43.781 17.128 4.982
H -59.05 16.933 5.44
C 7.45 19.955 -1.851
C 7.526 19.93 0.749
C 7.572 19.915 2.315
C 7.404 19.969 -3.417
C 11.314 19.19 -1.45
C 11.358 19.175 0.114
C 8.758 17.672 -1.91
C 8.832 17.648 0.691
C 10.086 19.935 0.676
C 8.753 19.185 -1.378
C 8.798 19.17 0.187
C 10.012 19.96 -1.925
C 11.43 19.151 2.696
C 8.877 17.634 2.257
C 8.872 19.146 2.769
C 10.13 19.92 2.242
C 11.242 19.215 -4.031
C 8.713 17.686 -3.476
C 9.968 19.975 -3.491
C 8.679 19.209 -3.958
C 12.622 16.908 -1.507
C 12.664 16.894 0.057
C 11.392 17.654 0.619
C 10.06 16.903 -1.435
C 10.104 16.889 0.13
C 11.32 17.678 -1.983
C 12.735 16.871 2.639
C 10.177 16.865 2.712
C 11.436 17.639 2.185
C 12.55 16.931 -4.088
C 11.276 17.692 -3.548
C 9.987 16.926 -4.016
C 12.574 19.965 -1.997
C 12.645 19.94 0.604
C 12.688 19.925 2.17
C 12.53 19.98 -3.563
C 16.437 19.202 -1.594
C 16.477 19.187 -0.029
C 13.881 17.683 -2.055
C 13.951 17.659 0.547
C 15.204 19.946 0.532
C 13.875 19.196 -1.522
C 13.917 19.181 0.042
C 15.135 19.971 -2.069
C 16.544 19.162 2.553
C 13.993 17.645 2.113
C 13.987 19.157 2.624
C 15.245 19.931 2.098
C 16.37 19.226 -4.174
C 13.839 17.697 -3.621
C 15.094 19.986 -3.635
C 13.805 19.22 -4.103
C 17.745 16.92 -1.649
C 17.783 16.906 -0.085
C 16.51 17.665 0.475
C 15.183 16.914 -1.579
C 15.224 16.9 -0.014
C 16.444 17.689 -2.126
C 17.848 16.882 2.498
C 15.292 16.877 2.568
C 16.55 17.651 2.041
C 17.68 16.943 -4.23
C 16.403 17.703 -3.692
C 15.114 16.937 -4.16
C 17.698 19.977 -2.139
C 17.763 19.952 0.462
C 17.801 19.937 2.028
C 17.659 19.991 -3.705
C 21.564 19.214 -1.725
C 21.597 19.198 -0.16
C 19.007 17.695 -2.194
C 19.069 17.671 0.407
C 20.321 19.957 0.396
C 19 19.208 -1.662
C 19.036 19.192 -0.097
C 20.263 19.982 -2.205
C 21.652 19.174 2.423
C 19.106 17.657 1.973
C 19.099 19.168 2.485
C 20.356 19.942 1.962
C 21.509 19.238 -4.305
C 18.97 17.709 -3.76
C 20.228 19.997 -3.771
C 18.938 19.232 -4.243
C 22.874 16.932 -1.774
C 22.904 16.917 -0.209
C 21.627 17.676 0.344
C 20.309 16.926 -1.716
C 20.343 16.911 -0.151
C 21.573 17.701 -2.257
C 22.954 16.894 2.373
C 20.402 16.888 2.432
C 21.66 17.662 1.91
C 22.823 16.955 -4.354
C 21.54 17.714 -3.823
C 20.25 16.949 -4.296
C 22.83 19.988 -2.264
C 22.88 19.963 0.338
C 22.91 19.948 1.904
C 22.799 20.003 -3.83
C 26.697 19.225 -1.821
C 26.718 19.209 -0.256
C 24.141 17.706 -2.311
C 24.186 17.682 0.29
C 25.439 19.968 0.289
C 24.13 19.22 -1.779
C 24.157 19.203 -0.214
C 25.398 19.994 -2.312
C 26.753 19.184 2.327
C 24.214 17.668 1.857
C 24.203 19.179 2.369
C 25.463 19.953 1.856
C 26.662 19.25 -4.401
C 24.113 17.72 -3.877
C 25.374 20.008 -3.879
C 24.084 19.244 -4.359
C 28.008 16.943 -1.859
C 28.026 16.927 -0.294
C 26.745 17.687 0.248
C 25.44 16.938 -1.823
C 25.465 16.922 -0.258
C 26.71 17.712 -2.353
C 28.056 16.904 2.29
C 25.505 16.899 2.325
C 26.767 17.673 1.814
C 27.978 16.966 -4.439
C 26.688 17.726 -3.92
C 25.399 16.961 -4.403
C 27.968 19.999 -2.348
C 27.998 19.972 0.253
C 28.016 19.958 1.82
C 27.95 20.013 -3.915
C 31.834 19.232 -1.868
C 31.843 19.215 -0.303
C 29.28 17.716 -2.383
C 29.305 17.691 0.219
C 30.558 19.975 0.23
C 29.265 19.229 -1.851
C 29.28 19.213 -0.286
C 30.539 20.002 -2.371
C 31.857 19.19 2.281
C 29.32 17.677 1.785
C 29.304 19.188 2.298
C 30.57 19.961 1.797
C 31.819 19.258 -4.448
C 29.265 17.731 -3.949
C 30.527 20.017 -3.938
C 29.241 19.254 -4.431
C 33.144 16.949 -1.893
C 33.152 16.933 -0.328
C 31.866 17.694 0.202
C 30.576 16.947 -1.882
C 30.589 16.931 -0.316
C 31.851 17.72 -2.4
C 33.162 16.909 2.255
C 30.608 16.908 2.267
C 31.875 17.68 1.768
C 33.134 16.974 -4.474
C 31.841 17.734 -3.966
C 30.557 16.971 -4.462
C 33.109 20.004 -2.383
C 33.12 19.976 0.219
C 33.126 19.961 1.785
C 33.103 20.02 -3.949
C 34.421 17.721 -2.407
C 34.429 17.694 0.195
C 35.683 19.973 0.217
C 34.402 19.232 -1.874
C 34.406 19.215 -0.309
C 35.679 20.002 -2.385
C 34.433 17.679 1.762
C 34.413 19.189 2.274
C 35.685 19.957 1.783
C 34.416 17.736 -3.973
C 35.677 20.02 -3.952
C 34.396 19.26 -4.455
C 35.712 16.949 -1.896
C 35.716 16.932 -0.331
C 35.72 16.908 2.252
C 35.708 16.975 -4.477
C 2.323 19.947 -1.694
C 2.405 19.922 0.906
C 2.454 19.907 2.472
C 2.274 19.962 -3.26
C 6.191 19.181 -1.303
C 6.237 19.165 0.262
C 3.632 17.664 -1.756
C 3.712 17.639 0.844
C 4.966 19.925 0.826
C 3.628 19.177 -1.224
C 3.676 19.161 0.34
C 4.887 19.95 -1.775
C 6.314 19.141 2.843
C 3.761 17.625 2.41
C 3.756 19.137 2.921
C 5.013 19.91 2.391
C 6.114 19.205 -3.884
C 3.584 17.678 -3.322
C 4.84 19.965 -3.341
C 3.549 19.201 -3.805
C 7.499 16.898 -1.361
C 7.544 16.883 0.203
C 6.273 17.643 0.766
C 4.936 16.894 -1.285
C 4.984 16.879 0.279
C 6.195 17.668 -1.835
C 7.62 16.86 2.785
C 5.062 16.855 2.861
C 6.319 17.629 2.331
C 7.424 16.921 -3.942
C 6.149 17.682 -3.401
C 4.859 16.917 -3.866
C -2.807 19.947 -1.52
C -2.725 19.922 1.079
C -2.674 19.906 2.645
C -2.857 19.962 -3.086
C 1.064 19.174 -1.141
C 1.113 19.159 0.423
C -1.498 17.661 -1.586
C -1.415 17.637 1.014
C -0.159 19.921 0.992
C -1.501 19.175 -1.054
C -1.452 19.159 0.51
C -0.242 19.946 -1.608
C 1.196 19.134 3.004
C -1.364 17.622 2.579
C -1.367 19.134 3.09
C -0.108 19.905 2.557
C 0.982 19.198 -3.721
C -1.548 17.675 -3.152
C -0.292 19.96 -3.174
C -1.585 19.198 -3.634
C 2.373 16.891 -1.204
C 2.421 16.876 0.36
C 1.15 17.637 0.927
C -0.192 16.889 -1.119
C -0.142 16.874 0.446
C 1.068 17.661 -1.673
C 2.503 16.852 2.941
C -0.058 16.85 3.026
C 1.2 17.622 2.493
C 2.292 16.914 -3.785
C 1.018 17.675 -3.239
C -0.275 16.912 -3.699
C -7.943 19.964 -1.349
C -7.867 19.939 1.25
C -7.82 19.923 2.815
C -7.989 19.979 -2.915
C -4.068 19.178 -0.966
C -4.019 19.163 0.598
C -6.632 17.673 -1.412
C -6.553 17.648 1.187
C -5.294 19.928 1.166
C -6.637 19.186 -0.88
C -6.59 19.172 0.684
C -5.374 19.953 -1.433
C -3.936 19.138 3.178
C -6.505 17.632 2.753
C -6.51 19.146 3.263
C -5.245 19.912 2.732
C -4.15 19.202 -3.546
C -6.679 17.687 -2.977
C -5.423 19.968 -2.999
C -6.716 19.21 -3.46
C -2.758 16.891 -1.031
C -2.709 16.876 0.534
C -3.982 17.64 1.102
C -5.326 16.896 -0.943
C -5.278 16.882 0.621
C -4.064 17.665 -1.497
C -2.624 16.852 3.113
C -5.196 16.857 3.2
C -3.932 17.625 2.667
C -2.841 16.914 -3.611
C -4.114 17.679 -3.063
C -5.407 16.919 -3.523
C -13.085 20.006 -1.203
C -13.022 19.981 1.396
C -12.983 19.964 2.962
C -13.123 20.021 -2.769
C -9.208 19.201 -0.8
C -9.164 19.186 0.765
C -11.772 17.707 -1.258
C -11.705 17.683 1.341
C -10.443 19.957 1.326
C -11.781 19.221 -0.726
C -11.741 19.207 0.838
C -10.513 19.982 -1.272
C -9.09 19.16 3.343
C -11.665 17.666 2.907
C -11.673 19.181 3.416
C -10.4 19.94 2.892
C -9.281 19.224 -3.379
C -11.813 17.722 -2.824
C -10.555 19.997 -2.838
C -11.847 19.245 -3.306
C -7.896 16.907 -0.86
C -7.85 16.893 0.705
C -9.128 17.662 1.268
C -10.468 16.924 -0.783
C -10.426 16.91 0.782
C -9.201 17.686 -1.331
C -7.773 16.868 3.283
C -10.354 16.885 3.359
C -9.083 17.646 2.834
C -7.972 16.93 -3.439
C -9.245 17.701 -2.897
C -10.538 16.947 -3.362
C -18.233 20.07 -1.09
C -18.186 20.045 1.508
C -18.158 20.029 3.075
C -18.261 20.086 -2.656
C -14.355 19.248 -0.661
C -14.32 19.234 0.903
C -16.919 17.766 -1.135
C -16.868 17.742 1.463
C -15.603 20.011 1.457
C -16.932 19.281 -0.605
C -16.901 19.267 0.96
C -15.658 20.036 -1.142
C -14.26 19.208 3.481
C -16.837 17.726 3.029
C -16.85 19.241 3.537
C -15.57 19.994 3.023
C -14.415 19.273 -3.241
C -16.95 17.781 -2.702
C -15.692 20.051 -2.708
C -16.983 19.306 -3.184
C -13.042 16.948 -0.713
C -13.004 16.934 0.852
C -14.286 17.709 1.406
C -15.617 16.977 -0.652
C -15.584 16.963 0.913
C -14.345 17.734 -1.192
C -12.94 16.909 3.429
C -15.528 16.939 3.49
C -14.25 17.693 2.972
C -13.105 16.971 -3.293
C -14.381 17.749 -2.758
C -15.672 17.001 -3.231
C -19.509 19.317 -0.558
C -19.483 19.303 1.007
C -19.441 19.278 3.584
C -19.551 19.342 -3.137
C -18.194 17.012 -0.6
C -18.166 16.998 0.965
C -19.452 17.778 1.51
C -19.495 17.802 -1.089
C -18.119 16.973 3.542
C -19.426 17.762 3.076
C -18.241 17.035 -3.179
C -19.52 17.817 -2.655
H 26.769 19.176 3.409
H 24.224 19.171 3.451
H 26.647 19.263 -5.483
H 24.064 19.258 -5.441
H 28.069 16.897 3.371
H 25.524 16.892 3.407
H 27.966 16.98 -5.52
H 25.382 16.974 -5.484
H 31.863 19.183 3.363
H 29.315 19.18 3.379
H 31.816 19.273 -5.53
H 29.232 19.269 -5.513
H 33.166 16.903 3.337
H 30.616 16.901 3.349
H 33.132 16.988 -5.555
H 30.551 16.984 -5.544
H 34.415 19.182 3.356
H 34.396 19.275 -5.537
H 35.721 16.902 3.334
H 35.71 16.989 -5.559
H -1.328 19.126 4.171
H -1.619 19.21 -4.715
H -3.896 19.129 4.259
H -6.472 19.137 4.344
H -4.185 19.213 -4.627
H -6.748 19.221 -4.541
H -2.585 16.844 4.194
H -5.157 16.849 4.281
H -2.875 16.925 -4.692
H -5.44 16.93 -4.604
H -9.055 19.151 4.424
H -11.641 19.171 4.497
H -9.31 19.235 -4.461
H -11.873 19.256 -4.388
H -7.736 16.859 4.364
H -10.321 16.876 4.441
H -8.002 16.94 -4.521
H -10.565 16.957 -4.444
H -14.232 19.199 4.562
H -16.825 19.233 4.619
H -14.437 19.284 -4.322
H -17.001 19.317 -4.266
H -12.909 16.9 4.51
H -15.501 16.931 4.571
H -13.128 16.981 -4.374
H -15.693 17.011 -4.313
H -19.421 19.27 4.666
H -19.566 19.354 -4.219
H -18.096 16.967 4.624
H -18.257 17.046 -4.261
H 20.223 16.962 -5.377
H 6.084 19.217 -4.965
H 7.394 16.933 -5.024
H 18.91 19.245 -5.324
H 17.652 16.955 -5.311
H 4.827 16.929 -4.947
H 16.341 19.239 -5.256
H 15.085 16.949 -5.241
H 3.517 19.213 -4.886
H 2.259 16.925 -4.866
H 13.776 19.233 -5.185
H 0.948 19.211 -4.803
H 12.521 16.943 -5.169
H -0.309 16.924 -4.78
H 11.213 19.227 -5.113
H 9.958 16.938 -5.097
H 21.484 19.252 -5.387
H 22.8 16.968 -5.436
H 8.649 19.222 -5.04
H 14.018 19.149 3.706
H 11.461 19.143 3.778
H 22.977 16.886 3.455
H -0.019 16.842 4.107
H 8.904 19.138 3.85
H 20.429 16.881 3.513
H 10.209 16.858 3.793
H 7.652 16.853 3.866
H 3.792 19.128 4.002
H 5.097 16.848 3.942
H 19.127 19.16 3.567
H 16.574 19.154 3.635
H 1.234 19.126 4.085
H 15.323 16.87 3.649
H 12.766 16.864 3.721
H 21.677 19.166 3.504
H 6.348 19.133 3.924
H 17.878 16.875 3.579
H 2.54 16.844 4.022
C 36.97 19.229 -1.874
C 36.971 19.211 -0.309
C 36.971 19.183 2.274
C 36.969 19.258 -4.455
C 38.28 16.944 -1.895
C 38.28 16.927 -0.33
C 36.992 17.691 0.195
C 36.99 17.718 -2.407
C 38.281 16.901 2.253
C 36.994 17.675 1.762
C 38.279 16.972 -4.476
C 36.988 17.735 -3.973
C 38.248 19.997 -2.382
C 38.247 19.966 0.22
C 38.246 19.948 1.787
C 38.249 20.016 -3.948
C 39.558 17.711 -2.404
C 39.557 17.681 0.198
C 40.813 19.951 0.226
C 39.537 19.22 -1.869
C 39.536 19.201 -0.305
C 40.817 19.985 -2.376
C 39.557 17.664 1.764
C 39.533 19.171 2.279
C 40.81 19.931 1.792
C 39.558 17.73 -3.97
C 40.818 20.006 -3.942
C 39.54 19.253 -4.451
C 40.847 16.934 -1.892
C 40.846 16.916 -0.327
C 40.844 16.888 2.256
C 40.847 16.965 -4.474
H 36.972 19.177 3.356
H 36.973 19.275 -5.537
H 38.282 16.895 3.335
H 38.282 16.987 -5.558
H 39.533 19.164 3.36
H 39.544 19.27 -5.533
H 40.846 16.881 3.338
H 40.851 16.982 -5.556
C 42.105 19.206 -1.864
C 42.102 19.185 -0.299
C 42.096 19.152 2.283
C 42.108 19.241 -4.445
C 43.414 16.918 -1.89
C 43.412 16.898 -0.325
C 42.123 17.666 0.201
C 42.126 17.698 -2.4
C 43.409 16.867 2.257
C 42.121 17.646 1.767
C 43.414 16.951 -4.471
C 42.126 17.718 -3.967
C 43.386 19.966 -2.368
C 43.38 19.93 0.233
C 43.375 19.907 1.798
C 43.386 19.988 -3.934
C 44.694 17.678 -2.397
C 44.691 17.642 0.204
C 45.95 19.9 0.242
C 44.674 19.184 -1.858
C 44.671 19.162 -0.293
C 45.956 19.939 -2.363
C 44.687 17.62 1.769
C 44.66 19.123 2.289
C 45.94 19.874 1.807
C 44.692 17.699 -3.963
C 45.953 19.961 -3.929
C 44.673 19.22 -4.439
C 45.982 16.894 -1.888
C 45.98 16.873 -0.324
C 45.973 16.836 2.259
C 45.979 16.929 -4.47
H 42.096 19.143 3.365
H 42.113 19.26 -5.527
H 43.411 16.859 3.339
H 43.417 16.97 -5.553
H 44.658 19.111 3.371
H 44.677 19.241 -5.521
H 45.972 16.825 3.341
H 45.981 16.949 -5.551
C 47.246 19.154 -1.857
C 47.242 19.131 -0.282
C 47.221 19.084 2.303
C 47.235 19.187 -4.442
C 48.554 16.864 -1.891
C 48.552 16.842 -0.316
C 47.26 17.612 0.21
C 47.264 17.649 -2.396
C 48.533 16.796 2.269
C 47.252 17.586 1.775
C 48.54 16.895 -4.476
C 47.259 17.67 -3.962
C 48.529 19.905 -2.377
C 48.523 19.864 0.269
C 48.512 19.836 1.852
C 48.525 19.927 -3.96
C 49.836 17.613 -2.413
C 49.833 17.574 0.233
C 49.789 19.098 -1.843
C 49.786 19.075 -0.287
C 49.824 17.547 1.816
C 49.758 19.022 2.402
C 49.83 17.634 -3.996
C 49.772 19.131 -4.53
C 51.096 16.807 -1.88
C 51.095 16.785 -0.323
C 51.069 16.734 2.366
C 51.077 16.836 -4.567
H 47.201 19.06 3.384
H 47.222 19.2 -5.524
H 48.514 16.773 3.351
H 48.525 16.906 -5.558
H 49.696 18.972 3.481
H 49.721 19.123 -5.611
H 51.008 16.685 3.445
H 51.023 16.826 -5.648
C -54.239 24.652 -0.397
C -54.161 24.621 2.211
C -54.108 24.6 3.776
C -54.28 24.67 -1.962
C -50.377 23.953 0
C -50.331 23.935 1.564
C -52.931 22.412 -0.46
C -52.855 22.382 2.143
C -51.603 24.67 2.131
C -52.934 23.913 0.077
C -52.888 23.894 1.641
C -51.68 24.7 -0.472
C -50.255 23.907 4.149
C -52.806 22.364 3.708
C -52.806 23.863 4.226
C -51.555 24.651 3.696
C -50.451 23.984 -2.584
C -52.975 22.43 -2.026
C -51.723 24.72 -2.037
C -53.005 23.943 -2.508
C -49.073 21.696 -0.062
C -49.029 21.679 1.502
C -50.3 22.421 2.067
C -51.628 21.664 0.013
C -51.583 21.647 1.577
C -50.375 22.45 -0.536
C -48.956 21.653 4.087
C -51.507 21.62 4.161
C -50.254 22.404 3.633
C -49.147 21.725 -2.646
C -50.419 22.468 -2.102
C -51.703 21.695 -2.571
C -49.122 24.738 -0.548
C -49.048 24.708 2.055
C -49.003 24.692 3.621
C -49.167 24.757 -2.114
C -45.264 24.008 -0.148
C -45.223 23.991 1.416
C -47.818 22.479 -0.611
C -47.746 22.451 1.993
C -46.494 24.738 1.98
C -47.821 23.985 -0.075
C -47.777 23.967 1.489
C -46.565 24.767 -0.623
C -45.155 23.965 4.001
C -47.703 22.435 3.559
C -47.704 23.94 4.074
C -46.451 24.722 3.546
C -45.334 24.037 -2.731
C -47.862 22.497 -2.176
C -46.608 24.785 -2.189
C -47.894 24.015 -2.658
C -43.96 21.737 -0.206
C -43.921 21.721 1.359
C -45.192 22.473 1.92
C -46.518 21.72 -0.136
C -46.476 21.703 1.429
C -45.261 22.5 -0.683
C -43.856 21.696 3.942
C -46.406 21.678 4.013
C -45.152 22.458 3.486
C -44.027 21.765 -2.788
C -45.302 22.517 -2.249
C -46.589 21.748 -2.718
C -44.006 24.788 -0.694
C -43.94 24.76 1.909
C -43.9 24.745 3.475
C -44.046 24.805 -2.26
C -40.144 24.036 -0.278
C -40.111 24.019 1.287
C -42.701 22.515 -0.751
C -42.638 22.488 1.852
C -41.385 24.775 1.843
C -42.706 24.025 -0.217
C -42.668 24.008 1.348
C -41.444 24.802 -0.759
C -40.056 23.994 3.87
C -42.601 22.474 3.418
C -42.606 23.983 3.932
C -41.35 24.76 3.409
C -40.201 24.063 -2.859
C -42.739 22.532 -2.317
C -41.481 24.819 -2.326
C -42.77 24.053 -2.799
C -38.838 21.755 -0.328
C -38.807 21.739 1.237
C -40.082 22.498 1.79
C -41.401 21.749 -0.271
C -41.365 21.732 1.294
C -40.137 22.525 -0.812
C -38.757 21.714 3.819
C -41.307 21.708 3.877
C -40.049 22.483 3.356
C -38.89 21.782 -2.909
C -40.171 22.541 -2.378
C -41.461 21.776 -2.852
C -38.879 24.81 -0.816
C -38.828 24.783 1.786
C -38.798 24.768 3.352
C -38.911 24.826 -2.382
C -35.012 24.038 -0.37
C -34.988 24.021 1.195
C -37.57 22.528 -0.863
C -37.523 22.501 1.738
C -36.268 24.784 1.739
C -37.58 24.04 -0.33
C -37.551 24.023 1.235
C -36.311 24.812 -0.862
C -34.952 23.996 3.777
C -37.496 22.487 3.304
C -37.506 23.998 3.818
C -36.243 24.77 3.305
C -35.05 24.066 -2.95
C -37.599 22.544 -2.43
C -36.337 24.828 -2.428
C -37.627 24.068 -2.911
C -33.701 21.75 -0.409
C -33.68 21.734 1.156
C -34.961 22.499 1.698
C -36.271 21.756 -0.374
C -36.245 21.739 1.191
C -35 22.526 -0.903
C -33.648 21.709 3.737
C -36.204 21.715 3.773
C -34.939 22.485 3.264
C -33.735 21.777 -2.989
C -35.024 22.542 -2.47
C -36.314 21.783 -2.954
C -33.739 24.806 -0.896
C -33.704 24.779 1.705
C -33.685 24.764 3.271
C -33.76 24.822 -2.463
C -29.868 24.013 -0.419
C -29.851 23.997 1.146
C -32.427 22.517 -0.932
C -32.395 22.49 1.668
C -31.136 24.766 1.681
C -32.441 24.029 -0.399
C -32.422 24.013 1.166
C -31.165 24.794 -0.92
C -29.827 23.972 3.726
C -32.378 22.475 3.235
C -32.393 23.988 3.747
C -31.12 24.752 3.247
C -29.893 24.041 -2.999
C -32.446 22.533 -2.499
C -31.183 24.81 -2.486
C -32.471 24.057 -2.979
C -28.554 21.717 -0.45
C -28.538 21.701 1.115
C -29.825 22.473 1.648
C -31.129 21.737 -0.433
C -31.111 21.721 1.132
C -29.852 22.5 -0.952
C -28.515 21.677 3.695
C -31.086 21.697 3.713
C -29.81 22.459 3.215
C -28.578 21.744 -3.029
C -29.868 22.516 -2.518
C -31.156 21.765 -3.012
C -28.59 24.774 -0.937
C -28.564 24.747 1.663
C -28.549 24.731 3.23
C -28.605 24.791 -2.503
C -24.716 23.959 -0.453
C -24.698 23.944 1.112
C -27.276 22.476 -0.968
C -27.25 22.45 1.632
C -25.987 24.72 1.647
C -27.293 23.989 -0.435
C -27.276 23.974 1.13
C -26.014 24.747 -0.953
C -24.672 23.918 3.691
C -27.235 22.435 3.199
C -27.253 23.948 3.71
C -25.972 24.704 3.213
C -24.744 23.987 -3.032
C -27.291 22.493 -2.534
C -26.03 24.764 -2.519
C -27.317 24.017 -3.014
C -23.401 21.657 -0.487
C -23.382 21.643 1.078
C -24.67 22.42 1.614
C -25.978 21.69 -0.466
C -25.961 21.675 1.099
C -24.699 22.446 -0.985
C -23.352 21.617 3.656
C -25.937 21.65 3.678
C -24.654 22.404 3.181
C -23.432 21.684 -3.066
C -24.717 22.463 -2.552
C -26.004 21.717 -3.045
C -23.438 24.714 -0.974
C -23.406 24.688 1.626
C -23.388 24.671 3.192
C -23.457 24.731 -2.54
C -22.123 22.411 -1.01
C -22.088 22.386 1.589
C -20.823 24.652 1.595
C -22.139 23.925 -0.478
C -22.118 23.91 1.087
C -20.862 24.678 -1.004
C -22.068 22.369 3.155
C -22.084 23.884 3.665
C -20.8 24.635 3.162
C -22.144 22.428 -2.577
C -20.885 24.695 -2.57
C -22.173 23.952 -3.058
C -20.824 21.621 -0.517
C -20.8 21.607 1.048
C -20.763 21.581 3.626
C -20.862 21.648 -3.097
C -55.495 23.862 0.149
C -55.448 23.843 1.723
C -58.054 22.304 -0.327
C -57.974 22.273 2.321
C -56.724 24.56 2.309
C -58.028 23.782 0.235
C -57.982 23.764 1.791
C -56.803 24.593 -0.339
C -55.355 23.806 4.311
C -57.919 22.253 3.902
C -57.88 23.724 4.48
C -56.669 24.539 3.891
C -55.557 23.889 -2.439
C -58.095 22.322 -1.91
C -56.843 24.611 -1.921
C -58.089 23.808 -2.454
C -54.185 21.624 0.089
C -54.139 21.606 1.653
C -55.412 22.333 2.222
C -56.746 21.574 0.162
C -56.699 21.555 1.736
C -55.49 22.364 -0.386
C -54.057 21.577 4.237
C -56.605 21.52 4.323
C -55.359 22.313 3.787
C -54.257 21.654 -2.496
C -55.531 22.381 -1.951
C -56.809 21.599 -2.427
C -59.279 21.494 0.249
C -59.233 21.476 1.804
C -59.13 21.437 4.493
C -59.34 21.519 -2.441
H -34.939 23.99 4.859
H -37.488 23.992 4.899
H -35.066 24.082 -4.032
H -37.648 24.084 -3.992
H -33.637 21.703 4.819
H -36.188 21.709 4.854
H -33.748 21.794 -4.07
H -36.332 21.799 -4.036
H -29.821 23.965 4.808
H -32.384 23.981 4.829
H -29.9 24.057 -4.081
H -32.482 24.074 -4.061
H -28.509 21.671 4.777
H -31.078 21.691 4.795
H -28.585 21.761 -4.111
H -31.165 21.781 -4.094
H -24.662 23.911 4.773
H -27.247 23.942 4.792
H -24.751 24.002 -4.114
H -27.323 24.033 -4.096
H -23.341 21.61 4.738
H -25.929 21.644 4.76
H -23.44 21.699 -4.148
H -26.01 21.733 -4.127
H -22.07 23.876 4.747
H -22.184 23.966 -4.139
H -20.746 21.573 4.707
H -20.875 21.661 -4.178
H -41.488 21.792 -3.934
H -55.573 23.9 -3.521
H -54.29 21.673 -3.577
H -42.799 24.07 -3.88
H -44.057 21.781 -3.869
H -56.825 21.609 -3.509
H -45.365 24.055 -3.812
H -46.621 21.765 -3.8
H -58.067 23.799 -3.536
H -59.319 21.508 -3.522
H -47.927 24.033 -3.74
H -49.18 21.744 -3.727
H -50.485 24.004 -3.665
H -51.736 21.714 -3.653
H -40.227 24.08 -3.941
H -38.913 21.798 -3.99
H -53.038 23.963 -3.589
H -47.675 23.935 5.156
H -50.225 23.902 5.231
H -38.736 21.709 4.901
H -52.773 23.857 5.307
H -41.282 21.702 4.959
H -51.477 21.615 5.243
H -54.024 21.571 5.319
H -57.791 23.686 5.557
H -56.555 21.505 5.404
H -42.579 23.977 5.014
H -45.126 23.96 5.083
H -46.377 21.673 5.095
H -48.927 21.648 5.168
H -40.034 23.988 4.952
H -55.304 23.79 5.392
H -43.829 21.691 5.024
H -59.042 21.402 5.57
C 7.396 24.523 -1.806
C 7.473 24.497 0.795
C 7.518 24.481 2.361
C 7.351 24.538 -3.372
C 11.261 23.759 -1.405
C 11.304 23.743 0.159
C 8.704 22.242 -1.866
C 8.779 22.216 0.735
C 10.032 24.502 0.722
C 8.699 23.754 -1.332
C 8.744 23.738 0.232
C 9.958 24.528 -1.879
C 11.376 23.717 2.742
C 8.824 22.2 2.301
C 8.819 23.712 2.814
C 10.076 24.486 2.288
C 11.188 23.785 -3.986
C 8.659 22.257 -3.432
C 9.914 24.544 -3.445
C 8.625 23.779 -3.913
C 12.568 21.478 -1.464
C 12.611 21.462 0.1
C 11.338 22.221 0.662
C 10.007 21.472 -1.392
C 10.051 21.457 0.173
C 11.266 22.247 -1.939
C 12.682 21.437 2.683
C 10.124 21.431 2.755
C 11.382 22.205 2.229
C 12.497 21.503 -4.045
C 11.222 22.262 -3.505
C 9.934 21.497 -3.973
C 12.52 24.533 -1.952
C 12.591 24.507 0.65
C 12.634 24.491 2.216
C 12.477 24.549 -3.517
C 16.383 23.77 -1.548
C 16.423 23.754 0.016
C 13.828 22.252 -2.011
C 13.898 22.227 0.591
C 15.15 24.512 0.578
C 13.822 23.764 -1.477
C 13.864 23.748 0.087
C 15.082 24.539 -2.023
C 16.49 23.728 2.599
C 13.94 22.211 2.157
C 13.934 23.722 2.67
C 15.191 24.497 2.144
C 16.316 23.796 -4.129
C 13.785 22.268 -3.577
C 15.04 24.554 -3.589
C 13.751 23.79 -4.058
C 17.692 21.489 -1.606
C 17.73 21.473 -0.041
C 16.456 22.232 0.519
C 15.129 21.483 -1.536
C 15.17 21.468 0.029
C 16.39 22.258 -2.082
C 17.795 21.448 2.541
C 15.239 21.442 2.611
C 16.497 22.217 2.086
C 17.626 21.514 -4.187
C 16.349 22.273 -3.648
C 15.06 21.508 -4.117
C 17.644 24.544 -2.093
C 17.709 24.518 0.508
C 17.747 24.502 2.074
C 17.605 24.56 -3.659
C 21.51 23.781 -1.68
C 21.542 23.765 -0.115
C 18.954 22.264 -2.15
C 19.015 22.238 0.451
C 20.267 24.523 0.442
C 18.946 23.776 -1.617
C 18.982 23.759 -0.052
C 20.209 24.55 -2.159
C 21.597 23.739 2.468
C 19.052 22.222 2.017
C 19.045 23.733 2.531
C 20.302 24.508 2.008
C 21.455 23.807 -4.26
C 18.916 22.279 -3.716
C 20.173 24.565 -3.726
C 18.884 23.802 -4.197
C 22.82 21.501 -1.731
C 22.85 21.484 -0.166
C 21.573 22.243 0.388
C 20.255 21.495 -1.672
C 20.289 21.479 -0.107
C 21.519 22.269 -2.213
C 22.9 21.459 2.417
C 20.348 21.453 2.475
C 21.606 22.228 1.955
C 22.769 21.526 -4.311
C 21.486 22.284 -3.779
C 20.196 21.52 -4.253
C 22.775 24.555 -2.218
C 22.825 24.528 0.383
C 22.855 24.513 1.95
C 22.745 24.571 -3.785
C 26.643 23.791 -1.776
C 26.663 23.774 -0.211
C 24.087 22.275 -2.267
C 24.132 22.248 0.335
C 25.384 24.533 0.335
C 24.076 23.787 -1.734
C 24.102 23.77 -0.169
C 25.344 24.56 -2.267
C 26.698 23.748 2.372
C 24.159 22.233 1.901
C 24.148 23.744 2.414
C 25.408 24.518 1.901
C 26.607 23.818 -4.357
C 24.059 22.29 -3.833
C 25.319 24.576 -3.833
C 24.03 23.813 -4.314
C 27.954 21.511 -1.815
C 27.972 21.494 -0.251
C 26.691 22.253 0.292
C 25.386 21.506 -1.779
C 25.41 21.489 -0.214
C 26.656 22.28 -2.309
C 28.001 21.468 2.333
C 25.451 21.464 2.369
C 26.712 22.238 1.858
C 27.924 21.537 -4.396
C 26.634 22.295 -3.876
C 25.345 21.532 -4.36
C 27.913 24.564 -2.303
C 27.943 24.536 0.299
C 27.96 24.521 1.865
C 27.896 24.58 -3.87
C 31.779 23.797 -1.822
C 31.787 23.778 -0.257
C 29.226 22.284 -2.339
C 29.251 22.256 0.263
C 30.503 24.538 0.276
C 29.211 23.795 -1.806
C 29.225 23.777 -0.241
C 30.484 24.567 -2.326
C 31.8 23.751 2.326
C 29.265 22.241 1.829
C 29.248 23.75 2.343
C 30.514 24.522 1.842
C 31.767 23.825 -4.403
C 29.211 22.299 -3.906
C 30.473 24.583 -3.893
C 29.187 23.822 -4.386
C 33.091 21.515 -1.85
C 33.097 21.497 -0.285
C 31.811 22.257 0.246
C 30.522 21.514 -1.839
C 30.534 21.496 -0.274
C 31.797 22.286 -2.356
C 33.106 21.47 2.299
C 30.552 21.47 2.31
C 31.82 22.242 1.812
C 33.082 21.543 -4.43
C 31.789 22.302 -3.923
C 30.504 21.541 -4.419
C 33.056 24.567 -2.336
C 33.064 24.536 0.266
C 33.069 24.52 1.832
C 33.05 24.585 -3.903
C 34.368 22.285 -2.362
C 34.373 22.255 0.24
C 35.626 24.531 0.266
C 34.348 23.795 -1.827
C 34.351 23.776 -0.262
C 35.626 24.563 -2.336
C 34.376 22.239 1.807
C 34.354 23.747 2.321
C 35.626 24.513 1.833
C 34.364 22.303 -3.928
C 35.626 24.583 -3.902
C 34.345 23.826 -4.408
C 35.659 21.513 -1.851
C 35.661 21.494 -0.286
C 35.662 21.465 2.297
C 35.658 21.543 -4.432
C 2.27 24.516 -1.648
C 2.351 24.489 0.952
C 2.401 24.473 2.518
C 2.221 24.531 -3.214
C 6.137 23.749 -1.258
C 6.184 23.733 0.307
C 3.579 22.233 -1.713
C 3.659 22.207 0.888
C 4.912 24.492 0.872
C 3.575 23.745 -1.179
C 3.623 23.729 0.385
C 4.834 24.519 -1.729
C 6.261 23.707 2.888
C 3.707 22.192 2.454
C 3.703 23.703 2.966
C 4.96 24.476 2.437
C 6.061 23.775 -3.838
C 3.53 22.248 -3.279
C 4.786 24.534 -3.295
C 3.495 23.771 -3.76
C 7.445 21.467 -1.318
C 7.491 21.452 0.246
C 6.219 22.211 0.81
C 4.883 21.463 -1.242
C 4.93 21.447 0.322
C 6.142 22.237 -1.791
C 7.567 21.426 2.828
C 5.009 21.422 2.904
C 6.266 22.195 2.375
C 7.37 21.492 -3.899
C 6.095 22.252 -3.357
C 4.805 21.488 -3.823
C -2.861 24.516 -1.475
C -2.778 24.49 1.125
C -2.727 24.473 2.691
C -2.911 24.531 -3.04
C 1.011 23.743 -1.096
C 1.06 23.727 0.469
C -1.551 22.231 -1.542
C -1.468 22.205 1.058
C -0.212 24.488 1.037
C -1.555 23.743 -1.009
C -1.505 23.727 0.556
C -0.295 24.514 -1.563
C 1.143 23.701 3.049
C -1.417 22.189 2.623
C -1.421 23.701 3.136
C -0.161 24.472 2.603
C 0.928 23.768 -3.676
C -1.601 22.246 -3.108
C -0.345 24.53 -3.129
C -1.638 23.768 -3.589
C 2.32 21.46 -1.161
C 2.368 21.444 0.403
C 1.097 22.205 0.971
C -0.245 21.459 -1.076
C -0.196 21.443 0.489
C 1.014 22.231 -1.629
C 2.45 21.419 2.984
C -0.112 21.417 3.069
C 1.147 22.189 2.537
C 2.238 21.485 -3.741
C 0.965 22.246 -3.195
C -0.328 21.483 -3.656
C -7.996 24.534 -1.304
C -7.92 24.508 1.295
C -7.873 24.49 2.861
C -8.042 24.549 -2.87
C -4.121 23.747 -0.921
C -4.073 23.732 0.644
C -6.685 22.243 -1.368
C -6.606 22.217 1.231
C -5.347 24.496 1.212
C -6.69 23.756 -0.835
C -6.643 23.74 0.729
C -5.428 24.522 -1.387
C -3.989 23.705 3.223
C -6.558 22.201 2.797
C -6.564 23.713 3.308
C -5.298 24.479 2.778
C -4.204 23.772 -3.501
C -6.732 22.258 -2.934
C -5.476 24.538 -2.953
C -6.769 23.781 -3.415
C -2.811 21.46 -0.988
C -2.762 21.445 0.577
C -4.035 22.209 1.146
C -5.379 21.466 -0.9
C -5.331 21.451 0.664
C -4.117 22.234 -1.454
C -2.678 21.419 3.156
C -5.249 21.425 3.243
C -3.985 22.192 2.711
C -2.894 21.485 -3.568
C -4.167 22.25 -3.019
C -5.46 21.491 -3.48
C -13.138 24.576 -1.158
C -13.075 24.55 1.441
C -13.037 24.532 3.007
C -13.176 24.592 -2.724
C -9.261 23.77 -0.755
C -9.217 23.755 0.81
C -11.825 22.278 -1.214
C -11.759 22.253 1.384
C -10.496 24.525 1.372
C -11.834 23.792 -0.682
C -11.794 23.777 0.883
C -10.566 24.551 -1.227
C -9.143 23.728 3.388
C -11.718 22.236 2.95
C -11.727 23.749 3.461
C -10.453 24.508 2.938
C -9.334 23.796 -3.335
C -11.866 22.294 -2.78
C -10.608 24.567 -2.793
C -11.901 23.817 -3.261
C -7.949 21.478 -0.817
C -7.903 21.463 0.747
C -9.181 22.232 1.311
C -10.521 21.496 -0.74
C -10.479 21.481 0.824
C -9.254 22.257 -1.288
C -7.826 21.436 3.326
C -10.408 21.454 3.402
C -9.136 22.215 2.877
C -8.025 21.502 -3.397
C -9.299 22.273 -2.853
C -10.591 21.52 -3.32
C -18.286 24.641 -1.045
C -18.239 24.615 1.554
C -18.211 24.598 3.12
C -18.314 24.658 -2.611
C -14.409 23.819 -0.616
C -14.373 23.804 0.948
C -16.972 22.338 -1.093
C -16.921 22.313 1.506
C -15.656 24.58 1.502
C -16.985 23.852 -0.56
C -16.954 23.837 1.005
C -15.712 24.606 -1.097
C -14.314 23.777 3.526
C -16.89 22.296 3.072
C -16.903 23.81 3.582
C -15.623 24.563 3.068
C -14.468 23.845 -3.196
C -17.003 22.355 -2.659
C -15.745 24.623 -2.663
C -17.036 23.878 -3.14
C -13.094 21.52 -0.671
C -13.057 21.505 0.894
C -14.339 22.28 1.45
C -15.67 21.55 -0.61
C -15.637 21.535 0.955
C -14.398 22.306 -1.149
C -12.993 21.478 3.471
C -15.581 21.509 3.532
C -14.303 22.263 3.016
C -13.157 21.545 -3.251
C -14.434 22.322 -2.715
C -15.725 21.575 -3.19
C -19.562 23.888 -0.513
C -19.536 23.873 1.051
C -19.494 23.846 3.629
C -19.604 23.915 -3.093
C -18.247 21.585 -0.558
C -18.218 21.57 1.006
C -19.505 22.349 1.553
C -19.547 22.374 -1.046
C -18.172 21.544 3.584
C -19.479 22.332 3.119
C -18.293 21.61 -3.138
C -19.573 22.391 -2.612
H 26.714 23.74 3.454
H 24.169 23.735 3.496
H 26.593 23.833 -5.438
H 24.01 23.827 -5.396
H 28.014 21.46 3.415
H 25.469 21.456 3.451
H 27.912 21.551 -5.478
H 25.328 21.546 -5.441
H 31.805 23.743 3.408
H 29.259 23.743 3.425
H 31.764 23.841 -5.485
H 29.178 23.837 -5.468
H 33.11 21.463 3.381
H 30.56 21.463 3.392
H 33.081 21.559 -5.512
H 30.497 21.556 -5.501
H 34.355 23.739 3.403
H 34.347 23.843 -5.49
H 35.663 21.458 3.379
H 35.661 21.56 -5.514
H -1.381 23.692 4.217
H -1.673 23.781 -4.67
H -3.95 23.695 4.304
H -6.526 23.703 4.389
H -4.238 23.784 -4.582
H -6.801 23.792 -4.496
H -2.638 21.41 4.237
H -5.21 21.415 4.324
H -2.929 21.497 -4.649
H -5.493 21.503 -4.561
H -9.108 23.718 4.469
H -11.695 23.739 4.542
H -9.363 23.807 -4.416
H -11.926 23.828 -4.343
H -7.79 21.426 4.407
H -10.374 21.444 4.484
H -8.056 21.514 -4.478
H -10.618 21.531 -4.401
H -14.285 23.767 4.607
H -16.879 23.801 4.664
H -14.49 23.857 -4.278
H -17.055 23.891 -4.221
H -12.963 21.468 4.553
H -15.555 21.499 4.614
H -13.182 21.556 -4.332
H -15.746 21.587 -4.271
H -19.474 23.838 4.711
H -19.619 23.928 -4.175
H -18.15 21.535 4.666
H -18.31 21.623 -4.22
H 20.17 21.534 -5.334
H 6.03 23.788 -4.92
H 7.34 21.506 -4.981
H 18.856 23.816 -5.279
H 17.598 21.528 -5.268
H 4.774 21.501 -4.904
H 16.287 23.81 -5.211
H 15.031 21.522 -5.198
H 3.463 23.784 -4.841
H 2.205 21.498 -4.823
H 13.722 23.804 -5.14
H 0.894 23.781 -4.758
H 12.467 21.516 -5.127
H -0.363 21.496 -4.737
H 11.159 23.798 -5.068
H 9.904 21.511 -5.054
H 21.43 23.821 -5.342
H 22.747 21.54 -5.393
H 8.596 23.793 -4.995
H 13.964 23.714 3.751
H 11.407 23.709 3.823
H 22.923 21.451 3.499
H -0.073 21.408 4.15
H 8.85 23.703 3.896
H 20.375 21.445 3.557
H 10.156 21.423 3.836
H 7.599 21.418 3.909
H 3.739 23.694 4.048
H 5.043 21.413 3.985
H 19.073 23.725 3.612
H 16.52 23.72 3.68
H 1.181 23.692 4.13
H 15.27 21.434 3.693
H 12.713 21.429 3.764
H 21.622 23.73 3.55
H 6.294 23.698 3.97
H 17.824 21.44 3.623
H 2.487 21.41 4.065
C 36.917 23.789 -1.823
C 36.915 23.769 -0.258
C 36.911 23.737 2.325
C 36.92 23.823 -4.404
C 38.228 21.505 -1.846
C 38.226 21.486 -0.281
C 36.937 22.249 0.243
C 36.938 22.281 -2.359
C 38.222 21.455 2.302
C 36.936 22.231 1.809
C 38.231 21.539 -4.427
C 36.938 22.3 -3.925
C 38.197 24.555 -2.327
C 38.19 24.52 0.275
C 38.186 24.499 1.841
C 38.2 24.576 -3.893
C 39.508 22.271 -2.351
C 39.502 22.236 0.251
C 40.757 24.501 0.287
C 39.486 23.777 -1.813
C 39.481 23.756 -0.248
C 40.767 24.539 -2.313
C 39.498 22.216 1.817
C 39.471 23.721 2.335
C 40.749 24.478 1.853
C 39.51 22.292 -3.917
C 40.77 24.562 -3.879
C 39.493 23.814 -4.394
C 40.796 21.492 -1.838
C 40.792 21.471 -0.273
C 40.784 21.436 2.309
C 40.801 21.528 -4.419
H 36.91 23.729 3.407
H 36.926 23.841 -5.486
H 38.221 21.447 3.384
H 38.236 21.557 -5.509
H 39.468 23.711 3.417
H 39.501 23.834 -5.476
H 40.782 21.427 3.391
H 40.808 21.549 -5.501
C 42.055 23.759 -1.799
C 42.049 23.735 -0.235
C 42.033 23.695 2.347
C 42.061 23.797 -4.381
C 43.365 21.472 -1.828
C 43.36 21.449 -0.264
C 42.069 22.216 0.261
C 42.077 22.254 -2.34
C 43.347 21.409 2.319
C 42.062 22.193 1.827
C 43.368 21.509 -4.409
C 42.079 22.276 -3.906
C 43.338 24.516 -2.301
C 43.326 24.475 0.305
C 43.313 24.448 1.871
C 43.339 24.539 -3.866
C 44.648 22.229 -2.331
C 44.638 22.188 0.274
C 45.9 24.442 0.34
C 44.628 23.733 -1.79
C 44.621 23.708 -0.216
C 45.912 24.485 -2.306
C 44.627 22.161 1.84
C 44.594 23.659 2.369
C 45.885 24.413 1.923
C 44.646 22.251 -3.897
C 45.912 24.509 -3.888
C 44.624 23.768 -4.376
C 45.937 21.444 -1.823
C 45.932 21.42 -0.249
C 45.908 21.372 2.336
C 45.93 21.479 -4.408
H 42.028 23.683 3.429
H 42.069 23.819 -5.462
H 43.343 21.397 3.401
H 43.374 21.531 -5.491
H 44.571 23.634 3.451
H 44.614 23.783 -5.457
H 45.887 21.347 3.418
H 45.918 21.492 -5.49
C 47.171 23.68 -1.77
C 47.164 23.655 -0.213
C 47.131 23.6 2.475
C 47.161 23.715 -4.456
C 48.48 21.39 -1.806
C 48.476 21.366 -0.25
C 47.212 22.153 0.305
C 47.221 22.195 -2.341
C 48.445 21.312 2.438
C 47.199 22.125 1.888
C 48.467 21.424 -4.493
C 47.218 22.218 -3.924
H 47.068 23.55 3.554
H 47.113 23.709 -5.537
H 48.384 21.262 3.518
H 48.416 21.416 -5.574
C -54.301 29.168 -0.357
C -54.22 29.134 2.291
C -54.165 29.112 3.873
C -54.341 29.187 -1.939
C -50.43 28.488 0.055
C -50.384 28.468 1.619
C -52.988 26.94 -0.407
C -52.909 26.907 2.201
C -51.658 29.194 2.191
C -52.992 28.437 0.13
C -52.945 28.417 1.704
C -51.736 29.227 -0.417
C -50.301 28.436 4.204
C -52.856 26.886 3.766
C -52.85 28.379 4.292
C -51.604 29.173 3.756
C -50.503 28.52 -2.529
C -53.028 26.959 -1.972
C -51.777 29.246 -1.983
C -53.055 28.466 -2.459
C -49.124 26.241 -0.011
C -49.079 26.222 1.552
C -50.351 26.957 2.12
C -51.682 26.201 0.066
C -51.636 26.181 1.63
C -50.428 26.988 -0.483
C -49.003 26.194 4.137
C -51.554 26.15 4.215
C -50.303 26.938 3.685
C -49.198 26.273 -2.595
C -50.472 27.008 -2.048
C -51.754 26.232 -2.518
C -49.176 29.275 -0.494
C -49.099 29.243 2.108
C -49.051 29.225 3.674
C -49.22 29.295 -2.06
C -45.314 28.559 -0.099
C -45.272 28.541 1.465
C -47.87 27.026 -0.56
C -47.796 26.995 2.043
C -46.543 29.282 2.031
C -47.872 28.528 -0.023
C -47.827 28.509 1.541
C -46.617 29.312 -0.572
C -45.202 28.514 4.05
C -47.751 26.979 3.609
C -47.751 28.48 4.126
C -46.499 29.265 3.597
C -45.385 28.59 -2.682
C -47.914 27.045 -2.126
C -46.66 29.331 -2.138
C -47.946 28.56 -2.607
C -44.01 26.296 -0.159
C -43.97 26.278 1.405
C -45.241 27.025 1.968
C -46.568 26.272 -0.087
C -46.525 26.254 1.477
C -45.311 27.054 -0.635
C -43.904 26.252 3.99
C -46.453 26.227 4.062
C -45.2 27.009 3.534
C -44.078 26.325 -2.742
C -45.353 27.072 -2.201
C -46.64 26.303 -2.671
C -44.057 29.34 -0.646
C -43.989 29.311 1.957
C -43.948 29.295 3.523
C -44.098 29.358 -2.212
C -40.194 28.596 -0.232
C -40.16 28.578 1.333
C -42.751 27.074 -0.704
C -42.687 27.046 1.899
C -41.434 29.331 1.89
C -42.755 28.582 -0.169
C -42.717 28.564 1.395
C -41.495 29.36 -0.713
C -40.105 28.553 3.917
C -42.649 27.031 3.465
C -42.653 28.537 3.98
C -41.398 29.316 3.457
C -40.251 28.625 -2.813
C -42.789 27.092 -2.27
C -41.532 29.377 -2.279
C -42.82 28.611 -2.752
C -38.887 26.321 -0.282
C -38.856 26.303 1.282
C -40.131 27.059 1.837
C -41.45 26.311 -0.225
C -41.414 26.294 1.339
C -40.187 27.087 -0.766
C -38.806 26.278 3.866
C -41.355 26.268 3.924
C -40.098 27.044 3.403
C -38.94 26.348 -2.864
C -40.222 27.104 -2.332
C -41.511 26.34 -2.807
C -38.93 29.371 -0.77
C -38.877 29.343 1.833
C -38.847 29.328 3.399
C -38.962 29.388 -2.336
C -35.063 28.603 -0.324
C -35.039 28.586 1.241
C -37.621 27.093 -0.817
C -37.573 27.066 1.784
C -36.318 29.347 1.786
C -37.63 28.603 -0.284
C -37.601 28.586 1.281
C -36.361 29.375 -0.816
C -35.002 28.56 3.824
C -37.546 27.051 3.351
C -37.555 28.56 3.865
C -36.293 29.332 3.352
C -35.101 28.631 -2.905
C -37.65 27.11 -2.384
C -36.388 29.391 -2.382
C -37.678 28.632 -2.865
C -33.752 26.318 -0.363
C -33.731 26.301 1.202
C -35.012 27.065 1.744
C -36.321 26.323 -0.329
C -36.295 26.305 1.236
C -35.051 27.092 -0.857
C -33.699 26.276 3.784
C -36.255 26.28 3.819
C -34.99 27.05 3.31
C -33.787 26.346 -2.943
C -35.075 27.109 -2.424
C -36.365 26.351 -2.909
C -33.79 29.371 -0.85
C -33.755 29.343 1.752
C -33.735 29.328 3.318
C -33.812 29.388 -2.416
C -29.92 28.58 -0.372
C -29.902 28.563 1.193
C -32.478 27.084 -0.886
C -32.447 27.056 1.715
C -31.188 29.331 1.728
C -32.492 28.595 -0.352
C -32.473 28.578 1.213
C -31.217 29.359 -0.873
C -29.879 28.537 3.774
C -32.429 27.042 3.281
C -32.444 28.553 3.794
C -31.172 29.316 3.294
C -29.945 28.608 -2.952
C -32.497 27.101 -2.452
C -31.234 29.376 -2.44
C -32.523 28.624 -2.933
C -28.606 26.286 -0.404
C -28.59 26.27 1.161
C -29.877 27.041 1.695
C -31.181 26.306 -0.387
C -31.162 26.289 1.178
C -29.903 27.068 -0.905
C -28.567 26.244 3.742
C -31.137 26.264 3.759
C -29.862 27.025 3.261
C -28.631 26.314 -2.984
C -29.92 27.085 -2.472
C -31.208 26.334 -2.967
C -28.642 29.34 -0.89
C -28.616 29.312 1.71
C -28.602 29.297 3.277
C -28.658 29.357 -2.456
C -24.769 28.527 -0.406
C -24.751 28.511 1.159
C -27.328 27.045 -0.921
C -27.302 27.017 1.679
C -26.039 29.286 1.694
C -27.345 28.556 -0.388
C -27.328 28.54 1.177
C -26.066 29.313 -0.906
C -24.725 28.485 3.739
C -27.288 27.002 3.245
C -27.306 28.514 3.757
C -26.024 29.27 3.261
C -24.796 28.555 -2.986
C -27.344 27.062 -2.487
C -26.083 29.33 -2.472
C -27.369 28.585 -2.968
C -23.454 26.227 -0.441
C -23.434 26.211 1.124
C -24.723 26.988 1.661
C -26.031 26.259 -0.42
C -26.014 26.243 1.145
C -24.752 27.015 -0.939
C -23.405 26.185 3.703
C -25.99 26.217 3.725
C -24.707 26.971 3.227
C -23.484 26.254 -3.021
C -24.769 27.032 -2.505
C -26.056 26.287 -3
C -23.49 29.28 -0.927
C -23.459 29.254 1.673
C -23.441 29.237 3.24
C -23.509 29.298 -2.493
C -22.176 26.98 -0.964
C -22.141 26.953 1.635
C -20.876 29.218 1.643
C -22.192 28.492 -0.431
C -22.171 28.477 1.134
C -20.915 29.244 -0.957
C -22.121 26.937 3.202
C -22.138 28.45 3.713
C -20.853 29.201 3.209
C -22.197 26.997 -2.53
C -20.938 29.262 -2.523
C -22.226 28.52 -3.011
C -20.877 26.191 -0.471
C -20.853 26.175 1.094
C -20.816 26.149 3.672
C -20.915 26.218 -3.051
C -55.526 28.358 0.217
C -55.479 28.338 1.772
C -55.375 28.295 4.462
C -55.587 28.386 -2.472
C -54.244 26.15 0.139
C -54.196 26.131 1.713
C -55.472 26.847 2.3
C -56.777 26.07 0.225
C -56.731 26.051 1.781
C -55.552 26.881 -0.349
C -54.103 26.092 4.301
C -56.628 26.009 4.47
C -55.417 26.825 3.881
C -54.306 26.178 -2.449
C -55.592 26.9 -1.931
C -56.837 26.097 -2.464
H -34.989 28.554 4.906
H -37.537 28.554 4.947
H -35.117 28.648 -3.986
H -37.699 28.648 -3.946
H -33.688 26.269 4.866
H -36.239 26.274 4.901
H -33.8 26.363 -4.025
H -36.383 26.367 -3.991
H -29.873 28.531 4.856
H -32.435 28.546 4.876
H -29.952 28.625 -4.034
H -32.533 28.64 -4.015
H -28.561 26.238 4.824
H -31.13 26.257 4.841
H -28.637 26.331 -4.065
H -31.216 26.351 -4.048
H -24.715 28.477 4.82
H -27.299 28.508 4.839
H -24.804 28.57 -4.068
H -27.375 28.601 -4.05
H -23.394 26.177 4.785
H -25.982 26.211 4.807
H -23.493 26.269 -4.102
H -26.063 26.303 -4.081
H -22.123 28.442 4.795
H -22.237 28.534 -4.093
H -20.799 26.14 4.754
H -20.928 26.232 -4.133
H -41.539 26.357 -3.889
H -55.567 28.378 -3.554
H -54.322 26.189 -3.531
H -42.851 28.629 -3.833
H -44.109 26.342 -3.823
H -56.816 26.088 -3.546
H -45.418 28.608 -3.763
H -46.673 26.322 -3.752
H -47.981 28.58 -3.688
H -49.233 26.293 -3.677
H -50.537 28.54 -3.611
H -51.787 26.252 -3.6
H -40.277 28.642 -3.895
H -38.963 26.365 -3.945
H -53.072 28.477 -3.541
H -47.72 28.475 5.207
H -50.268 28.429 5.285
H -38.785 26.272 4.948
H -52.799 28.361 5.372
H -41.331 26.262 5.005
H -51.52 26.143 5.296
H -54.052 26.075 5.382
H -56.54 25.971 5.547
H -42.627 28.532 5.062
H -45.172 28.508 5.132
H -46.423 26.222 5.144
H -48.972 26.188 5.219
H -40.082 28.547 4.999
H -55.286 28.255 5.539
H -43.876 26.246 5.072
C 7.343 29.089 -1.759
C 7.419 29.062 0.842
C 7.465 29.046 2.408
C 7.297 29.104 -3.325
C 11.207 28.325 -1.358
C 11.25 28.308 0.206
C 8.651 26.809 -1.819
C 8.726 26.782 0.782
C 9.978 29.067 0.769
C 8.646 28.32 -1.285
C 8.691 28.303 0.279
C 9.905 29.093 -1.832
C 11.323 28.282 2.789
C 8.771 26.766 2.348
C 8.765 28.277 2.861
C 10.023 29.051 2.335
C 11.135 28.351 -3.939
C 8.606 26.824 -3.385
C 9.86 29.109 -3.398
C 8.572 28.346 -3.867
C 12.514 26.045 -1.418
C 12.557 26.029 0.147
C 11.285 26.787 0.709
C 9.953 26.039 -1.345
C 9.997 26.023 0.219
C 11.212 26.814 -1.892
C 12.628 26.002 2.729
C 10.071 25.997 2.801
C 11.328 26.771 2.275
C 12.443 26.071 -3.999
C 11.168 26.83 -3.458
C 9.88 26.066 -3.927
C 12.466 29.099 -1.905
C 12.537 29.072 0.697
C 12.58 29.056 2.263
C 12.423 29.115 -3.471
C 16.329 28.336 -1.501
C 16.369 28.319 0.063
C 13.774 26.819 -1.964
C 13.844 26.792 0.637
C 15.096 29.077 0.625
C 13.768 28.33 -1.43
C 13.81 28.314 0.134
C 15.028 29.104 -1.977
C 16.436 28.293 2.646
C 13.886 26.776 2.204
C 13.88 28.287 2.717
C 15.137 29.061 2.191
C 16.262 28.362 -4.082
C 13.731 26.835 -3.53
C 14.986 29.12 -3.542
C 13.698 28.357 -4.011
C 17.637 26.056 -1.56
C 17.675 26.039 0.005
C 16.402 26.798 0.566
C 15.075 26.05 -1.489
C 15.116 26.034 0.075
C 16.336 26.825 -2.035
C 17.74 26.013 2.588
C 15.185 26.008 2.658
C 16.442 26.782 2.132
C 17.572 26.082 -4.14
C 16.295 26.84 -3.601
C 15.006 26.077 -4.07
C 17.59 29.109 -2.047
C 17.654 29.082 0.555
C 17.693 29.067 2.121
C 17.551 29.125 -3.613
C 21.455 28.346 -1.633
C 21.487 28.329 -0.068
C 18.899 26.83 -2.104
C 18.961 26.803 0.498
C 20.212 29.087 0.489
C 18.891 28.341 -1.57
C 18.928 28.324 -0.005
C 20.154 29.115 -2.113
C 21.542 28.302 2.515
C 18.998 26.787 2.064
C 18.99 28.298 2.578
C 20.247 29.072 2.055
C 21.4 28.373 -4.214
C 18.862 26.846 -3.67
C 20.119 29.13 -3.679
C 18.829 28.367 -4.151
C 22.765 26.067 -1.685
C 22.795 26.049 -0.12
C 21.519 26.808 0.435
C 20.201 26.061 -1.626
C 20.235 26.045 -0.061
C 21.464 26.835 -2.167
C 22.845 26.023 2.463
C 20.294 26.018 2.522
C 21.551 26.792 2.001
C 22.714 26.093 -4.265
C 21.431 26.851 -3.733
C 20.141 26.088 -4.206
C 22.72 29.119 -2.172
C 22.77 29.091 0.43
C 22.8 29.076 1.996
C 22.69 29.135 -3.738
C 26.587 28.354 -1.73
C 26.607 28.336 -0.165
C 24.032 26.84 -2.221
C 24.077 26.812 0.381
C 25.327 29.095 0.382
C 24.02 28.351 -1.687
C 24.047 28.333 -0.122
C 25.288 29.123 -2.221
C 26.641 28.309 2.419
C 24.104 26.797 1.947
C 24.092 28.306 2.461
C 25.351 29.079 1.948
C 26.552 28.382 -4.311
C 24.004 26.856 -3.787
C 25.264 29.139 -3.787
C 23.974 28.378 -4.268
C 27.899 26.075 -1.77
C 27.916 26.057 -0.205
C 26.635 26.816 0.338
C 25.331 26.071 -1.733
C 25.355 26.054 -0.168
C 26.601 26.844 -2.264
C 27.944 26.03 2.379
C 25.395 26.027 2.415
C 26.656 26.8 1.905
C 27.87 26.103 -4.35
C 26.58 26.86 -3.83
C 25.291 26.098 -4.314
C 27.858 29.126 -2.257
C 27.886 29.097 0.346
C 27.903 29.081 1.912
C 27.84 29.142 -3.823
C 31.723 28.356 -1.774
C 31.73 28.336 -0.209
C 29.171 26.847 -2.293
C 29.194 26.818 0.309
C 30.445 29.096 0.324
C 29.154 28.356 -1.759
C 29.168 28.337 -0.194
C 30.429 29.127 -2.278
C 31.74 28.308 2.375
C 29.208 26.802 1.876
C 29.19 28.31 2.39
C 30.454 29.08 1.89
C 31.713 28.386 -4.355
C 29.157 26.863 -3.86
C 30.419 29.144 -3.845
C 29.132 28.385 -4.34
C 33.036 26.076 -1.802
C 33.04 26.056 -0.237
C 31.754 26.817 0.294
C 30.467 26.077 -1.792
C 30.478 26.058 -0.227
C 31.742 26.847 -2.309
C 33.046 26.028 2.347
C 30.495 26.031 2.357
C 31.761 26.8 1.86
C 33.03 26.107 -4.383
C 31.735 26.865 -3.875
C 30.45 26.106 -4.373
C 33 29.124 -2.286
C 33.005 29.092 0.316
C 33.008 29.075 1.883
C 32.997 29.143 -3.852
C 34.314 26.845 -2.311
C 34.316 26.812 0.291
C 35.567 29.083 0.321
C 34.292 28.352 -1.775
C 34.293 28.331 -0.21
C 35.572 29.118 -2.28
C 34.317 26.794 1.857
C 34.292 28.3 2.374
C 35.564 29.064 1.887
C 34.312 26.864 -3.878
C 35.574 29.138 -3.847
C 34.293 28.385 -4.357
C 35.605 26.071 -1.799
C 35.604 26.05 -0.235
C 35.601 26.019 2.349
C 35.608 26.104 -4.381
C 2.217 29.081 -1.601
C 2.298 29.054 0.999
C 2.347 29.038 2.565
C 2.167 29.097 -3.167
C 6.084 28.315 -1.211
C 6.131 28.299 0.354
C 3.525 26.8 -1.666
C 3.605 26.773 0.935
C 4.859 29.057 0.919
C 3.521 28.311 -1.132
C 3.569 28.295 0.432
C 4.78 29.084 -1.682
C 6.208 28.272 2.936
C 3.654 26.757 2.5
C 3.65 28.268 3.014
C 4.907 29.041 2.484
C 6.007 28.341 -3.792
C 3.477 26.816 -3.232
C 4.733 29.1 -3.248
C 3.442 28.337 -3.713
C 7.392 26.035 -1.272
C 7.437 26.018 0.292
C 6.166 26.777 0.856
C 4.829 26.03 -1.195
C 4.877 26.014 0.369
C 6.088 26.804 -1.745
C 7.513 25.992 2.874
C 4.955 25.988 2.95
C 6.213 26.761 2.422
C 7.316 26.061 -3.853
C 6.042 26.819 -3.311
C 4.751 26.056 -3.776
C -2.914 29.082 -1.428
C -2.831 29.055 1.172
C -2.78 29.039 2.738
C -2.964 29.097 -2.994
C 0.957 28.309 -1.049
C 1.007 28.293 0.515
C -1.604 26.798 -1.495
C -1.521 26.771 1.105
C -0.265 29.053 1.085
C -1.608 28.309 -0.962
C -1.558 28.293 0.603
C -0.348 29.08 -1.516
C 1.09 28.266 3.096
C -1.47 26.755 2.67
C -1.474 28.267 3.183
C -0.215 29.037 2.65
C 0.875 28.335 -3.63
C -1.655 26.813 -3.061
C -0.398 29.095 -3.082
C -1.691 28.335 -3.542
C 2.266 26.027 -1.115
C 2.315 26.011 0.45
C 1.043 26.771 1.018
C -0.298 26.026 -1.029
C -0.249 26.01 0.535
C 0.961 26.798 -1.583
C 2.397 25.985 3.031
C -0.165 25.984 3.116
C 1.093 26.755 2.583
C 2.185 26.053 -3.695
C 0.911 26.813 -3.148
C -0.382 26.052 -3.61
C -8.049 29.099 -1.257
C -7.973 29.073 1.343
C -7.927 29.056 2.908
C -8.095 29.115 -2.823
C -4.175 28.313 -0.874
C -4.126 28.297 0.691
C -6.738 26.81 -1.321
C -6.66 26.784 1.278
C -5.4 29.061 1.259
C -6.743 28.322 -0.788
C -6.697 28.307 0.776
C -5.481 29.088 -1.34
C -4.042 28.27 3.27
C -6.612 26.767 2.844
C -6.617 28.279 3.355
C -5.351 29.044 2.825
C -4.257 28.339 -3.454
C -6.786 26.826 -2.887
C -5.529 29.104 -2.906
C -6.822 28.348 -3.368
C -2.864 26.028 -0.941
C -2.815 26.012 0.623
C -4.089 26.775 1.193
C -5.432 26.034 -0.854
C -5.384 26.019 0.71
C -4.171 26.802 -1.407
C -2.731 25.985 3.203
C -5.302 25.992 3.29
C -4.039 26.759 2.758
C -2.948 26.054 -3.521
C -4.22 26.817 -2.973
C -5.513 26.06 -3.434
C -13.191 29.142 -1.111
C -13.128 29.116 1.488
C -13.09 29.098 3.055
C -13.229 29.158 -2.677
C -9.314 28.337 -0.708
C -9.27 28.322 0.857
C -11.879 26.846 -1.168
C -11.812 26.82 1.431
C -10.549 29.091 1.419
C -11.887 28.359 -0.635
C -11.847 28.343 0.93
C -10.619 29.118 -1.18
C -9.196 28.294 3.435
C -11.771 26.803 2.997
C -11.78 28.315 3.508
C -10.506 29.074 2.985
C -9.388 28.363 -3.288
C -11.919 26.863 -2.734
C -10.662 29.134 -2.746
C -11.954 28.384 -3.215
C -8.002 26.046 -0.771
C -7.957 26.031 0.794
C -9.234 26.799 1.358
C -10.574 26.064 -0.694
C -10.532 26.049 0.871
C -9.308 26.825 -1.241
C -7.879 26.003 3.372
C -10.461 26.021 3.449
C -9.189 26.781 2.924
C -8.078 26.071 -3.351
C -9.352 26.841 -2.807
C -10.644 26.09 -3.274
C -18.339 29.208 -0.998
C -18.293 29.181 1.601
C -18.264 29.164 3.168
C -18.368 29.225 -2.564
C -14.462 28.386 -0.569
C -14.426 28.371 0.995
C -17.025 26.907 -1.046
C -16.974 26.881 1.553
C -15.71 29.146 1.549
C -17.038 28.419 -0.513
C -17.007 28.404 1.052
C -15.765 29.173 -1.05
C -14.367 28.343 3.573
C -16.944 26.863 3.119
C -16.956 28.376 3.63
C -15.676 29.129 3.116
C -14.521 28.412 -3.15
C -17.056 26.924 -2.612
C -15.798 29.189 -2.616
C -17.089 28.446 -3.093
C -13.148 26.089 -0.625
C -13.11 26.073 0.94
C -14.392 26.848 1.496
C -15.723 26.119 -0.564
C -15.69 26.104 1.001
C -14.451 26.874 -1.103
C -13.046 26.046 3.518
C -15.635 26.076 3.579
C -14.356 26.83 3.062
C -13.211 26.114 -3.205
C -14.487 26.89 -2.669
C -15.778 26.145 -3.144
C -19.615 28.455 -0.466
C -19.589 28.44 1.098
C -19.547 28.413 3.677
C -19.657 28.483 -3.047
C -18.3 26.154 -0.512
C -18.271 26.139 1.053
C -19.558 26.917 1.6
C -19.6 26.943 -1
C -18.225 26.112 3.631
C -19.532 26.899 3.166
C -18.346 26.181 -3.092
C -19.626 26.96 -2.566
H 26.657 28.301 3.501
H 24.113 28.298 3.543
H 26.538 28.397 -5.392
H 23.954 28.392 -5.35
H 27.958 26.022 3.461
H 25.414 26.019 3.497
H 27.858 26.118 -5.432
H 25.273 26.113 -5.396
H 31.745 28.3 3.457
H 29.2 28.302 3.472
H 31.711 28.403 -5.437
H 29.124 28.401 -5.422
H 33.049 26.02 3.429
H 30.502 26.023 3.439
H 33.03 26.124 -5.464
H 30.444 26.121 -5.455
H 34.292 28.292 3.455
H 34.297 28.403 -5.438
H 35.6 26.011 3.431
H 35.613 26.123 -5.462
H -1.434 28.257 4.264
H -1.726 28.348 -4.624
H -4.003 28.261 4.352
H -6.579 28.269 4.437
H -4.291 28.351 -4.535
H -6.854 28.36 -4.45
H -2.691 25.976 4.284
H -5.264 25.982 4.371
H -2.982 26.066 -4.603
H -5.546 26.072 -4.515
H -9.161 28.284 4.517
H -11.748 28.305 4.59
H -9.417 28.374 -4.369
H -11.979 28.396 -4.296
H -7.843 25.993 4.454
H -10.428 26.011 4.53
H -8.109 26.083 -4.432
H -10.671 26.101 -4.355
H -14.339 28.333 4.655
H -16.932 28.367 4.711
H -14.543 28.424 -4.231
H -17.108 28.459 -4.175
H -13.016 26.035 4.599
H -15.608 26.067 4.66
H -13.235 26.126 -4.286
H -15.799 26.158 -4.225
H -19.528 28.404 4.758
H -19.672 28.496 -4.128
H -18.203 26.102 4.712
H -18.363 26.194 -4.174
H 20.115 26.102 -5.288
H 5.977 28.355 -4.873
H 7.287 26.074 -4.934
H 18.801 28.382 -5.233
H 17.544 26.096 -5.222
H 4.72 26.07 -4.858
H 16.233 28.376 -5.164
H 14.977 26.091 -5.152
H 3.409 28.351 -4.794
H 2.152 26.066 -4.777
H 13.668 28.371 -5.093
H 0.841 28.348 -4.711
H 12.414 26.085 -5.08
H -0.416 26.065 -4.691
H 11.105 28.365 -5.021
H 9.851 26.08 -5.008
H 21.375 28.387 -5.295
H 22.692 26.108 -5.347
H 8.542 28.36 -4.948
H 13.911 28.279 3.799
H 11.354 28.274 3.87
H 22.869 26.015 3.545
H -0.126 25.974 4.197
H 8.797 28.269 3.943
H 20.321 26.01 3.604
H 10.102 25.989 3.883
H 7.546 25.983 3.956
H 3.685 28.26 4.095
H 4.99 25.979 4.032
H 19.018 28.29 3.659
H 16.466 28.285 3.728
H 1.128 28.257 4.178
H 15.216 25.999 3.739
H 12.659 25.994 3.811
H 21.567 28.294 3.597
H 6.241 28.264 4.017
H 17.77 26.005 3.669
H 2.434 25.976 4.112
C 36.862 28.343 -1.766
C 36.857 28.321 -0.201
C 36.847 28.287 2.382
C 36.87 28.378 -4.347
C 38.174 26.061 -1.789
C 38.169 26.039 -0.224
C 36.879 26.802 0.298
C 36.885 26.837 -2.304
C 38.159 26.004 2.359
C 36.875 26.782 1.864
C 38.182 26.097 -4.37
C 36.888 26.858 -3.87
C 38.144 29.106 -2.265
C 38.132 29.068 0.336
C 38.123 29.046 1.902
C 38.148 29.127 -3.831
C 39.456 26.823 -2.288
C 39.445 26.785 0.313
C 40.7 29.046 0.359
C 39.433 28.328 -1.748
C 39.425 28.304 -0.184
C 40.716 29.086 -2.247
C 39.436 26.762 1.878
C 39.405 28.265 2.399
C 40.684 29.02 1.925
C 39.46 26.846 -3.854
C 40.719 29.108 -3.812
C 39.442 28.365 -4.33
C 40.745 26.044 -1.773
C 40.737 26.021 -0.208
C 40.719 25.98 2.374
C 40.753 26.082 -4.354
H 36.843 28.277 3.464
H 36.879 28.399 -5.429
H 38.155 25.995 3.441
H 38.191 26.118 -5.452
H 39.397 28.253 3.481
H 39.452 28.386 -5.411
H 40.712 25.968 3.456
H 40.762 26.104 -5.436
C 42.005 28.306 -1.732
C 41.996 28.281 -0.158
C 41.963 28.233 2.428
C 42.008 28.341 -4.317
C 43.317 26.02 -1.76
C 43.309 25.995 -0.185
C 42.013 26.761 0.334
C 42.028 26.802 -2.272
C 43.278 25.946 2.4
C 41.999 26.734 1.899
C 43.317 26.056 -4.345
C 42.03 26.825 -3.838
C 43.29 29.059 -2.244
C 43.272 29.017 0.402
C 43.254 28.988 1.985
C 43.294 29.083 -3.826
C 44.602 26.773 -2.273
C 44.586 26.73 0.373
C 44.549 28.257 -1.702
C 44.539 28.232 -0.146
C 44.57 26.701 1.955
C 44.498 28.177 2.542
C 44.604 26.797 -3.856
C 44.548 28.293 -4.388
C 45.861 25.969 -1.734
C 45.852 25.944 -0.178
C 45.815 25.889 2.51
C 45.855 26.005 -4.42
H 41.937 28.209 3.509
H 42.002 28.354 -5.399
H 43.254 25.922 3.481
H 43.309 26.07 -5.427
H 44.431 28.127 3.621
H 44.506 28.288 -5.469
H 45.749 25.839 3.589
H 45.81 25.999 -5.501
C -50.489 33.011 0.108
C -50.441 32.99 1.682
C -53.049 31.455 -0.367
C -52.968 31.42 2.281
C -51.716 33.707 2.271
C -53.023 32.931 0.198
C -52.975 32.911 1.754
C -51.798 33.741 -0.378
C -50.345 32.952 4.27
C -52.912 31.398 3.863
C -52.87 32.868 4.444
C -51.66 33.685 3.853
C -50.554 33.039 -2.48
C -53.091 31.474 -1.949
C -51.839 33.761 -1.959
C -53.086 32.96 -2.49
C -49.178 30.775 0.044
C -49.132 30.755 1.608
C -50.406 31.481 2.18
C -51.741 30.724 0.119
C -51.693 30.704 1.694
C -50.485 31.514 -0.428
C -49.049 30.723 4.193
C -51.598 30.665 4.282
C -50.352 31.459 3.745
C -49.251 30.806 -2.541
C -50.526 31.532 -1.994
C -51.805 30.753 -2.469
C -49.232 33.8 -0.44
C -49.154 33.767 2.168
C -49.1 33.746 3.733
C -49.274 33.818 -2.006
C -45.366 33.1 -0.047
C -45.323 33.081 1.517
C -47.923 31.561 -0.506
C -47.847 31.53 2.097
C -46.595 33.815 2.084
C -47.926 33.061 0.031
C -47.88 33.041 1.595
C -46.67 33.847 -0.519
C -45.249 33.053 4.102
C -47.799 31.511 3.662
C -47.797 33.009 4.18
C -46.548 33.797 3.65
C -45.438 33.132 -2.631
C -47.967 31.581 -2.072
C -46.713 33.866 -2.084
C -47.998 33.092 -2.553
C -44.06 30.845 -0.11
C -44.019 30.826 1.454
C -45.291 31.568 2.019
C -46.619 30.815 -0.035
C -46.575 30.796 1.529
C -45.363 31.598 -0.584
C -43.951 30.799 4.039
C -46.499 30.767 4.114
C -45.248 31.551 3.585
C -44.129 30.876 -2.693
C -45.406 31.617 -2.15
C -46.692 30.846 -2.619
C -44.109 33.883 -0.595
C -44.039 33.853 2.008
C -43.997 33.836 3.574
C -44.15 33.902 -2.161
C -40.244 33.15 -0.184
C -40.21 33.131 1.381
C -42.801 31.625 -0.656
C -42.736 31.596 1.948
C -41.484 33.879 1.939
C -42.806 33.13 -0.12
C -42.767 33.111 1.444
C -41.546 33.909 -0.664
C -40.153 33.105 3.966
C -42.697 31.58 3.514
C -42.701 33.084 4.03
C -41.447 33.864 3.505
C -40.302 33.179 -2.766
C -42.841 31.643 -2.222
C -41.583 33.927 -2.23
C -42.872 33.16 -2.703
C -38.937 30.879 -0.236
C -38.906 30.861 1.329
C -40.181 31.614 1.884
C -41.5 30.866 -0.178
C -41.464 30.848 1.387
C -40.238 31.643 -0.719
C -38.855 30.836 3.913
C -41.403 30.822 3.972
C -40.147 31.599 3.45
C -38.99 30.908 -2.817
C -40.273 31.66 -2.285
C -41.562 30.896 -2.76
C -38.98 33.925 -0.723
C -38.927 33.896 1.88
C -38.896 33.882 3.446
C -39.013 33.942 -2.289
C -35.113 33.163 -0.277
C -35.089 33.145 1.288
C -37.671 31.653 -0.771
C -37.623 31.624 1.831
C -36.368 33.904 1.833
C -37.68 33.161 -0.237
C -37.651 33.143 1.328
C -36.412 33.932 -0.769
C -35.053 33.12 3.871
C -37.595 31.609 3.398
C -37.604 33.117 3.912
C -36.343 33.889 3.399
C -35.152 33.192 -2.858
C -37.701 31.669 -2.337
C -36.439 33.949 -2.336
C -37.729 33.19 -2.819
C -33.803 30.881 -0.316
C -33.782 30.864 1.249
C -35.063 31.626 1.791
C -36.372 30.884 -0.282
C -36.346 30.866 1.283
C -35.102 31.654 -0.811
C -33.75 30.838 3.831
C -36.304 30.841 3.866
C -35.04 31.611 3.357
C -33.838 30.91 -2.897
C -35.126 31.671 -2.378
C -36.415 30.913 -2.863
C -33.841 33.931 -0.803
C -33.806 33.902 1.799
C -33.786 33.888 3.365
C -33.863 33.948 -2.37
C -29.971 33.142 -0.325
C -29.954 33.125 1.24
C -32.529 31.647 -0.839
C -32.498 31.619 1.762
C -31.239 33.892 1.775
C -32.544 33.157 -0.306
C -32.524 33.139 1.259
C -31.268 33.92 -0.827
C -29.931 33.1 3.821
C -32.48 31.604 3.328
C -32.495 33.114 3.842
C -31.223 33.877 3.341
C -29.997 33.171 -2.906
C -32.549 31.664 -2.406
C -31.286 33.937 -2.393
C -32.574 33.185 -2.887
C -28.659 30.851 -0.357
C -28.642 30.834 1.208
C -29.928 31.604 1.742
C -31.232 30.87 -0.34
C -31.214 30.853 1.225
C -29.955 31.632 -0.859
C -28.62 30.809 3.789
C -31.188 30.827 3.807
C -29.914 31.589 3.309
C -28.683 30.879 -2.937
C -29.972 31.649 -2.425
C -31.259 30.898 -2.92
C -28.694 33.901 -0.844
C -28.668 33.874 1.757
C -28.654 33.858 3.324
C -28.71 33.919 -2.41
C -24.822 33.09 -0.359
C -24.803 33.074 1.206
C -27.38 31.609 -0.874
C -27.354 31.581 1.726
C -26.092 33.848 1.741
C -27.397 33.119 -0.341
C -27.381 33.103 1.224
C -26.119 33.875 -0.859
C -24.777 33.047 3.786
C -27.34 31.566 3.293
C -27.358 33.077 3.805
C -26.077 33.832 3.308
C -24.849 33.118 -2.939
C -27.396 31.626 -2.441
C -26.135 33.892 -2.426
C -27.422 33.148 -2.922
C -23.507 30.792 -0.394
C -23.487 30.776 1.171
C -24.776 31.552 1.708
C -26.083 30.824 -0.373
C -26.066 30.808 1.192
C -24.805 31.579 -0.892
C -23.458 30.75 3.751
C -26.042 30.782 3.772
C -24.759 31.535 3.275
C -23.537 30.82 -2.974
C -24.822 31.597 -2.458
C -26.109 30.853 -2.953
C -23.543 33.842 -0.88
C -23.512 33.815 1.72
C -23.493 33.799 3.287
C -23.562 33.86 -2.446
C -22.229 31.544 -0.917
C -22.194 31.517 1.683
C -20.929 33.779 1.69
C -22.245 33.055 -0.384
C -22.223 33.039 1.181
C -20.968 33.806 -0.91
C -22.174 31.501 3.249
C -22.19 33.013 3.76
C -20.906 33.763 3.256
C -22.25 31.562 -2.483
C -20.991 33.824 -2.476
C -22.279 33.083 -2.965
C -20.93 30.756 -0.424
C -20.906 30.74 1.141
C -20.869 30.714 3.72
C -20.968 30.784 -3.004
C -54.275 30.645 0.208
C -54.227 30.625 1.764
C -54.123 30.581 4.453
C -54.337 30.673 -2.481
H -35.039 33.114 4.953
H -37.586 33.111 4.994
H -35.168 33.209 -3.94
H -37.75 33.207 -3.9
H -33.739 30.832 4.913
H -36.289 30.835 4.948
H -33.851 30.927 -3.979
H -36.434 30.93 -3.945
H -29.925 33.093 4.903
H -32.487 33.108 4.924
H -30.004 33.187 -3.988
H -32.585 33.202 -3.969
H -28.613 30.802 4.871
H -31.181 30.821 4.889
H -28.689 30.896 -4.019
H -31.268 30.915 -4.002
H -24.768 33.041 4.868
H -27.352 33.071 4.887
H -24.857 33.133 -4.021
H -27.428 33.164 -4.004
H -23.446 30.742 4.832
H -26.035 30.775 4.854
H -23.546 30.835 -4.056
H -26.115 30.868 -4.035
H -22.176 33.005 4.842
H -22.29 33.098 -4.046
H -20.852 30.705 4.802
H -20.981 30.798 -4.086
H -41.591 30.914 -3.842
H -54.317 30.665 -3.563
H -42.904 33.179 -3.784
H -44.162 30.894 -3.774
H -45.472 33.152 -3.712
H -46.727 30.866 -3.7
H -48.033 33.112 -3.634
H -49.286 30.826 -3.622
H -50.572 33.05 -3.562
H -51.822 30.764 -3.551
H -40.329 33.197 -3.848
H -39.014 30.925 -3.899
H -53.068 32.952 -3.572
H -47.763 33.002 5.262
H -50.293 32.935 5.351
H -38.834 30.83 4.995
H -52.778 32.827 5.521
H -41.378 30.816 5.053
H -51.546 30.648 5.362
H -54.032 30.541 5.531
H -42.673 33.079 5.111
H -45.218 33.047 5.183
H -46.469 30.761 5.195
H -49.015 30.716 5.274
H -40.13 33.1 5.047
H -43.922 30.794 5.121
C 7.29 33.65 -1.712
C 7.366 33.623 0.89
C 7.412 33.607 2.456
C 7.244 33.666 -3.278
C 11.153 32.887 -1.311
C 11.197 32.871 0.253
C 8.597 31.372 -1.773
C 8.672 31.345 0.829
C 9.925 33.628 0.816
C 8.592 32.882 -1.238
C 8.637 32.866 0.326
C 9.851 33.655 -1.786
C 11.269 32.844 2.836
C 8.717 31.329 2.395
C 8.712 32.839 2.909
C 9.969 33.612 2.382
C 11.081 32.914 -3.893
C 8.552 31.388 -3.338
C 9.807 33.671 -3.352
C 8.518 32.909 -3.82
C 12.46 30.609 -1.371
C 12.503 30.593 0.194
C 11.231 31.351 0.757
C 9.9 30.604 -1.298
C 9.944 30.587 0.266
C 11.159 31.377 -1.845
C 12.574 30.566 2.777
C 10.017 30.561 2.849
C 11.275 31.335 2.323
C 12.389 30.636 -3.952
C 11.115 31.394 -3.411
C 9.826 30.63 -3.88
C 12.412 33.66 -1.858
C 12.484 33.633 0.744
C 12.527 33.617 2.31
C 12.369 33.676 -3.424
C 16.275 32.898 -1.455
C 16.314 32.881 0.11
C 13.72 31.383 -1.917
C 13.79 31.356 0.685
C 15.042 33.639 0.672
C 13.714 32.892 -1.383
C 13.756 32.876 0.181
C 14.973 33.666 -1.93
C 16.381 32.855 2.694
C 13.832 31.34 2.251
C 13.826 32.85 2.765
C 15.083 33.623 2.239
C 16.208 32.925 -4.036
C 13.677 31.399 -3.483
C 14.932 33.682 -3.496
C 13.644 32.919 -3.965
C 17.583 30.62 -1.513
C 17.621 30.603 0.052
C 16.348 31.361 0.613
C 15.021 30.614 -1.442
C 15.062 30.598 0.122
C 16.281 31.388 -1.989
C 17.686 30.577 2.635
C 15.131 30.572 2.705
C 16.388 31.345 2.18
C 17.518 30.647 -4.094
C 16.241 31.404 -3.555
C 14.952 30.641 -4.024
C 17.535 33.671 -2
C 17.6 33.643 0.602
C 17.638 33.628 2.168
C 17.496 33.687 -3.566
C 21.399 32.907 -1.586
C 21.431 32.89 -0.022
C 18.844 31.393 -2.057
C 18.906 31.366 0.545
C 20.157 33.648 0.536
C 18.836 32.903 -1.523
C 18.873 32.886 0.041
C 20.099 33.676 -2.067
C 21.486 32.863 2.562
C 18.943 31.35 2.111
C 18.935 32.859 2.625
C 20.192 33.632 2.102
C 21.344 32.934 -4.168
C 18.807 31.409 -3.623
C 20.063 33.691 -3.633
C 18.774 32.93 -4.105
C 22.709 30.629 -1.638
C 22.738 30.612 -0.073
C 21.463 31.37 0.482
C 20.145 30.625 -1.579
C 20.18 30.608 -0.014
C 21.409 31.398 -2.12
C 22.789 30.585 2.511
C 20.238 30.581 2.569
C 21.496 31.354 2.048
C 22.659 30.656 -4.219
C 21.376 31.414 -3.687
C 20.086 30.652 -4.16
C 22.664 33.679 -2.126
C 22.713 33.651 0.477
C 22.743 33.636 2.043
C 22.634 33.695 -3.692
C 26.529 32.913 -1.683
C 26.548 32.894 -0.118
C 23.976 31.402 -2.175
C 24.02 31.373 0.428
C 25.27 33.653 0.429
C 23.963 32.911 -1.641
C 23.989 32.893 -0.076
C 25.231 33.682 -2.174
C 26.582 32.867 2.467
C 24.047 31.358 1.994
C 24.034 32.866 2.509
C 25.293 33.637 1.995
C 26.496 32.941 -4.264
C 23.948 31.417 -3.741
C 25.207 33.698 -3.741
C 23.918 32.938 -4.222
C 27.842 30.635 -1.722
C 27.858 30.616 -0.157
C 26.577 31.375 0.386
C 25.275 30.633 -1.687
C 25.298 30.615 -0.122
C 26.544 31.404 -2.217
C 27.885 30.589 2.427
C 25.338 30.588 2.462
C 26.598 31.36 1.952
C 27.814 30.663 -4.304
C 26.524 31.42 -3.784
C 25.235 30.66 -4.268
C 27.8 33.682 -2.209
C 27.826 33.653 0.394
C 27.842 33.637 1.96
C 27.784 33.699 -3.776
C 31.664 32.909 -1.723
C 31.669 32.889 -0.158
C 29.114 31.405 -2.245
C 29.135 31.375 0.357
C 30.384 33.649 0.374
C 29.096 32.913 -1.711
C 29.108 32.893 -0.146
C 30.37 33.681 -2.229
C 31.676 32.86 2.427
C 29.148 31.359 1.924
C 29.129 32.865 2.439
C 30.393 33.633 1.94
C 31.657 32.941 -4.305
C 29.101 31.422 -3.812
C 30.362 33.698 -3.796
C 29.076 32.942 -4.292
C 32.979 30.631 -1.75
C 32.981 30.611 -0.185
C 31.694 31.371 0.344
C 30.41 30.635 -1.744
C 30.419 30.615 -0.179
C 31.686 31.403 -2.259
C 32.984 30.58 2.399
C 30.434 30.587 2.406
C 31.7 31.354 1.91
C 32.976 30.663 -4.331
C 31.68 31.421 -3.825
C 30.395 30.665 -4.325
C 32.942 33.675 -2.233
C 32.944 33.642 0.37
C 32.944 33.624 1.936
C 32.94 33.694 -3.799
C 34.257 31.397 -2.257
C 34.255 31.363 0.345
C 35.506 33.63 0.379
C 34.234 32.902 -1.72
C 34.232 32.881 -0.156
C 35.514 33.665 -2.222
C 34.253 31.345 1.911
C 34.226 32.849 2.429
C 35.498 33.609 1.945
C 34.258 31.416 -3.824
C 35.517 33.684 -3.788
C 34.237 32.935 -4.302
C 35.548 30.623 -1.743
C 35.545 30.602 -0.179
C 35.536 30.568 2.405
C 35.554 30.658 -4.324
C 2.163 33.642 -1.555
C 2.245 33.615 1.047
C 2.294 33.6 2.612
C 2.114 33.658 -3.121
C 6.031 32.877 -1.164
C 6.077 32.861 0.401
C 3.472 31.364 -1.619
C 3.552 31.337 0.982
C 4.806 33.619 0.966
C 3.468 32.874 -1.085
C 3.516 32.857 0.479
C 4.727 33.646 -1.636
C 6.154 32.835 2.983
C 3.601 31.321 2.548
C 3.597 32.831 3.061
C 4.854 33.603 2.532
C 5.954 32.904 -3.745
C 3.424 31.379 -3.185
C 4.68 33.661 -3.202
C 3.388 32.9 -3.667
C 7.338 30.599 -1.225
C 7.384 30.582 0.34
C 6.113 31.341 0.904
C 4.776 30.595 -1.148
C 4.823 30.578 0.416
C 6.035 31.368 -1.698
C 7.46 30.556 2.922
C 4.902 30.552 2.998
C 6.159 31.325 2.47
C 7.263 30.625 -3.806
C 5.988 31.383 -3.264
C 4.698 30.621 -3.73
C -2.967 33.643 -1.381
C -2.884 33.616 1.22
C -2.833 33.6 2.785
C -3.017 33.659 -2.947
C 0.904 32.871 -1.002
C 0.954 32.855 0.562
C -1.658 31.362 -1.449
C -1.574 31.335 1.152
C -0.318 33.614 1.132
C -1.661 32.872 -0.915
C -1.611 32.855 0.65
C -0.401 33.641 -1.469
C 1.037 32.829 3.144
C -1.523 31.319 2.718
C -1.527 32.829 3.23
C -0.268 33.598 2.697
C 0.822 32.898 -3.583
C -1.708 31.377 -3.014
C -0.451 33.657 -3.035
C -1.744 32.898 -3.496
C 2.213 30.592 -1.068
C 2.262 30.575 0.497
C 0.99 31.335 1.065
C -0.352 30.591 -0.982
C -0.302 30.574 0.582
C 0.908 31.361 -1.536
C 2.344 30.549 3.078
C -0.218 30.548 3.163
C 1.04 31.319 2.631
C 2.132 30.618 -3.649
C 0.858 31.377 -3.102
C -0.435 30.617 -3.563
C -8.102 33.661 -1.21
C -8.026 33.634 1.39
C -7.98 33.617 2.956
C -8.148 33.677 -2.776
C -4.228 32.876 -0.827
C -4.179 32.86 0.738
C -6.791 31.374 -1.275
C -6.713 31.348 1.325
C -5.453 33.622 1.307
C -6.796 32.885 -0.741
C -6.75 32.869 0.823
C -5.534 33.649 -1.294
C -4.095 32.833 3.318
C -6.665 31.331 2.891
C -6.67 32.842 3.403
C -5.404 33.606 2.872
C -4.31 32.902 -3.407
C -6.839 31.39 -2.84
C -5.582 33.665 -2.859
C -6.875 32.91 -3.322
C -2.918 30.593 -0.894
C -2.868 30.577 0.67
C -4.142 31.339 1.24
C -5.485 30.599 -0.807
C -5.437 30.583 0.758
C -4.224 31.365 -1.36
C -2.784 30.55 3.25
C -5.355 30.556 3.337
C -4.092 31.322 2.806
C -3.001 30.618 -3.475
C -4.273 31.381 -2.926
C -5.566 30.625 -3.387
C -13.244 33.704 -1.064
C -13.181 33.677 1.536
C -13.143 33.66 3.102
C -13.282 33.72 -2.63
C -9.367 32.899 -0.661
C -9.324 32.884 0.904
C -11.932 31.41 -1.121
C -11.865 31.384 1.478
C -10.602 33.652 1.466
C -11.94 32.921 -0.588
C -11.9 32.905 0.977
C -10.672 33.679 -1.133
C -9.249 32.856 3.483
C -11.824 31.366 3.045
C -11.833 32.878 3.556
C -10.559 33.635 3.032
C -9.441 32.925 -3.241
C -11.972 31.427 -2.687
C -10.715 33.695 -2.699
C -12.007 32.947 -3.168
C -8.055 30.611 -0.724
C -8.01 30.595 0.841
C -9.287 31.362 1.405
C -10.627 30.629 -0.647
C -10.585 30.613 0.918
C -9.361 31.389 -1.194
C -7.932 30.568 3.42
C -10.514 30.586 3.496
C -9.243 31.345 2.971
C -8.131 30.636 -3.304
C -9.405 31.405 -2.76
C -10.697 30.655 -3.227
C -18.392 33.769 -0.951
C -18.346 33.743 1.648
C -18.318 33.725 3.215
C -18.421 33.787 -2.518
C -14.515 32.949 -0.522
C -14.479 32.933 1.042
C -17.079 31.471 -0.999
C -17.027 31.445 1.6
C -15.763 33.708 1.597
C -17.091 32.982 -0.466
C -17.06 32.966 1.099
C -15.818 33.734 -1.003
C -14.42 32.906 3.621
C -16.997 31.427 3.167
C -17.009 32.939 3.677
C -15.729 33.69 3.163
C -14.574 32.975 -3.103
C -17.109 31.488 -2.565
C -15.851 33.751 -2.569
C -17.142 33.009 -3.047
C -13.201 30.654 -0.577
C -13.163 30.638 0.987
C -14.445 31.412 1.544
C -15.776 30.684 -0.517
C -15.743 30.669 1.048
C -14.504 31.438 -1.056
C -13.1 30.61 3.565
C -15.688 30.641 3.626
C -14.409 31.394 3.11
C -13.264 30.68 -3.158
C -14.54 31.455 -2.622
C -15.831 30.711 -3.097
C -19.668 33.018 -0.42
C -19.642 33.003 1.145
C -19.6 32.976 3.724
C -19.71 33.046 -3
C -18.353 30.719 -0.465
C -18.325 30.704 1.1
C -19.611 31.481 1.647
C -19.654 31.508 -0.953
C -18.278 30.676 3.678
C -19.585 31.464 3.213
C -18.399 30.746 -3.045
C -19.679 31.525 -2.519
H 26.598 32.859 3.549
H 24.056 32.858 3.591
H 26.482 32.957 -5.346
H 23.898 32.953 -5.304
H 27.899 30.581 3.509
H 25.356 30.58 3.544
H 27.803 30.679 -5.385
H 25.218 30.675 -5.35
H 31.68 32.852 3.509
H 29.138 32.857 3.521
H 31.657 32.958 -5.386
H 29.069 32.959 -5.374
H 32.985 30.572 3.481
H 30.441 30.579 3.488
H 32.978 30.681 -5.413
H 30.391 30.681 -5.407
H 34.224 32.84 3.511
H 34.244 32.955 -5.383
H 35.533 30.559 3.487
H 35.563 30.678 -5.406
H -1.487 32.82 4.312
H -1.779 32.911 -4.577
H -4.056 32.824 4.399
H -6.632 32.832 4.484
H -4.344 32.914 -4.489
H -6.907 32.923 -4.403
H -2.744 30.54 4.332
H -5.317 30.546 4.418
H -3.036 30.631 -4.556
H -5.599 30.637 -4.469
H -9.214 32.847 4.564
H -11.801 32.868 4.637
H -9.47 32.937 -4.323
H -12.033 32.959 -4.25
H -7.896 30.558 4.501
H -10.481 30.576 4.578
H -8.162 30.648 -4.385
H -10.724 30.666 -4.309
H -14.392 32.896 4.702
H -16.985 32.93 4.759
H -14.597 32.988 -4.185
H -17.161 33.022 -4.129
H -13.069 30.6 4.647
H -15.662 30.632 4.708
H -13.288 30.692 -4.24
H -15.852 30.723 -4.179
H -19.581 32.968 4.806
H -19.725 33.059 -4.082
H -18.256 30.667 4.76
H -18.417 30.759 -4.127
H 20.06 30.666 -5.242
H 5.924 32.918 -4.827
H 7.233 30.64 -4.888
H 18.747 32.944 -5.186
H 17.489 30.661 -5.176
H 4.667 30.635 -4.811
H 16.178 32.939 -5.118
H 14.923 30.655 -5.105
H 3.356 32.914 -4.748
H 2.099 30.632 -4.73
H 13.614 32.934 -5.047
H 0.788 32.911 -4.664
H 12.36 30.65 -5.034
H -0.469 30.63 -4.644
H 11.052 32.928 -4.975
H 9.797 30.645 -4.961
H 21.32 32.949 -5.249
H 22.636 30.671 -5.301
H 8.489 32.923 -4.902
H 13.857 32.842 3.846
H 11.3 32.837 3.918
H 22.813 30.577 3.592
H -0.179 30.539 4.244
H 8.744 32.831 3.99
H 20.266 30.573 3.651
H 10.049 30.553 3.93
H 7.492 30.548 4.003
H 3.632 32.823 4.142
H 4.937 30.543 4.079
H 18.963 32.852 3.707
H 16.412 32.847 3.775
H 1.075 32.82 4.225
H 15.162 30.564 3.787
H 12.605 30.558 3.858
H 21.511 32.856 3.644
H 6.188 32.827 4.065
H 17.715 30.569 3.717
H 2.38 30.54 4.159
C 36.804 32.89 -1.705
C 36.798 32.867 -0.14
C 36.779 32.831 2.443
C 36.813 32.924 -4.286
C 38.119 30.61 -1.726
C 38.111 30.587 -0.161
C 36.819 31.35 0.358
C 36.83 31.386 -2.243
C 38.091 30.548 2.422
C 36.81 31.328 1.924
C 38.129 30.646 -4.307
C 36.833 31.407 -3.809
C 38.087 33.649 -2.204
C 38.071 33.611 0.402
C 38.056 33.587 1.968
C 38.09 33.668 -3.77
C 39.402 31.369 -2.224
C 39.386 31.329 0.382
C 40.642 33.586 0.449
C 39.378 32.872 -1.686
C 39.368 32.848 -0.112
C 40.662 33.626 -2.197
C 39.37 31.304 1.948
C 39.332 32.802 2.475
C 40.623 33.559 2.032
C 39.406 31.39 -3.79
C 40.667 33.648 -3.779
C 39.382 32.904 -4.271
C 40.692 30.59 -1.708
C 40.682 30.565 -0.133
C 40.647 30.518 2.453
C 40.696 30.623 -4.293
H 36.77 32.82 3.525
H 36.823 32.944 -5.368
H 38.083 30.537 3.504
H 38.14 30.667 -5.389
H 39.304 32.78 3.556
H 39.378 32.916 -5.353
H 40.62 30.495 3.534
H 40.692 30.636 -5.375
C 41.921 32.828 -1.651
C 41.909 32.803 -0.095
C 41.865 32.751 2.594
C 41.924 32.862 -4.336
C 43.236 30.543 -1.675
C 43.224 30.518 -0.119
C 41.957 31.302 0.427
C 41.977 31.344 -2.219
C 43.182 30.464 2.57
C 41.938 31.274 2.01
C 43.237 30.579 -4.36
C 41.981 31.367 -3.801
H 41.795 32.703 3.673
H 41.885 32.855 -5.417
H 43.114 30.416 3.649
H 43.196 30.572 -5.441
C -50.519 37.504 0.174
C -50.472 37.484 1.729
C -50.366 37.441 4.419
C -50.583 37.532 -2.514
C -49.237 35.297 0.096
C -49.189 35.277 1.67
C -50.464 35.993 2.258
C -51.771 35.218 0.187
C -51.723 35.197 1.743
C -50.546 36.027 -0.39
C -49.094 35.239 4.258
C -51.618 35.154 4.432
C -50.408 35.971 3.84
C -49.301 35.324 -2.493
C -50.587 36.046 -1.972
C -51.835 35.246 -2.501
C -49.293 38.312 -0.404
C -49.213 38.279 2.244
C -49.157 38.258 3.826
C -49.334 38.331 -1.986
C -45.42 37.631 0.006
C -45.376 37.612 1.57
C -47.98 36.085 -0.453
C -47.902 36.053 2.155
C -46.65 38.338 2.141
C -47.984 37.582 0.082
C -47.937 37.562 1.656
C -46.726 38.37 -0.467
C -45.296 37.581 4.155
C -47.849 36.032 3.72
C -47.843 37.525 4.245
C -46.598 38.318 3.706
C -45.489 37.661 -2.578
C -48.021 36.103 -2.019
C -46.767 38.387 -2.032
C -48.048 37.609 -2.506
C -44.112 35.385 -0.059
C -44.07 35.366 1.505
C -45.343 36.101 2.072
C -46.673 35.346 0.019
C -46.628 35.327 1.583
C -45.417 36.132 -0.531
C -43.998 35.338 4.091
C -46.546 35.296 4.168
C -45.297 36.083 3.637
C -44.182 35.416 -2.642
C -45.459 36.15 -2.097
C -46.745 35.377 -2.565
C -44.162 38.416 -0.543
C -44.091 38.385 2.06
C -44.046 38.368 3.625
C -44.203 38.434 -2.109
C -40.295 37.695 -0.135
C -40.26 37.677 1.43
C -42.854 36.167 -0.605
C -42.787 36.137 1.998
C -41.535 38.42 1.989
C -42.857 37.668 -0.069
C -42.818 37.65 1.495
C -41.598 38.449 -0.614
C -40.202 37.651 4.015
C -42.746 36.121 3.564
C -42.749 37.622 4.08
C -41.496 38.404 3.555
C -40.354 37.725 -2.718
C -42.893 36.185 -2.171
C -41.636 38.467 -2.18
C -42.924 37.699 -2.652
C -38.988 35.431 -0.188
C -38.956 35.413 1.377
C -40.231 36.162 1.933
C -41.551 35.413 -0.129
C -41.513 35.395 1.436
C -40.289 36.191 -0.671
C -38.903 35.387 3.962
C -41.451 35.368 4.021
C -40.196 36.147 3.499
C -39.042 35.461 -2.77
C -40.324 36.209 -2.237
C -41.614 35.444 -2.712
C -39.032 38.472 -0.675
C -38.978 38.443 1.929
C -38.946 38.428 3.495
C -39.065 38.489 -2.241
C -35.164 37.717 -0.23
C -35.14 37.699 1.335
C -37.722 36.205 -0.724
C -37.673 36.177 1.879
C -36.419 38.454 1.881
C -37.731 37.711 -0.189
C -37.701 37.693 1.376
C -36.463 38.483 -0.722
C -35.103 37.674 3.919
C -37.645 36.162 3.445
C -37.654 37.667 3.961
C -36.393 38.44 3.447
C -35.204 37.746 -2.812
C -37.752 36.223 -2.29
C -36.491 38.5 -2.289
C -37.78 37.741 -2.772
C -33.854 35.439 -0.269
C -33.832 35.422 1.296
C -35.113 36.181 1.838
C -36.422 35.44 -0.235
C -36.396 35.422 1.33
C -35.153 36.21 -0.764
C -33.8 35.396 3.879
C -36.354 35.397 3.914
C -35.09 36.167 3.404
C -33.889 35.468 -2.851
C -35.177 36.227 -2.331
C -36.466 35.469 -2.817
C -33.893 38.484 -0.757
C -33.857 38.456 1.846
C -33.837 38.441 3.412
C -33.915 38.501 -2.324
C -30.023 37.699 -0.279
C -30.006 37.682 1.286
C -32.581 36.205 -0.793
C -32.549 36.176 1.809
C -31.291 38.447 1.822
C -32.595 37.712 -0.259
C -32.575 37.695 1.306
C -31.32 38.475 -0.781
C -29.983 37.656 3.868
C -32.531 36.162 3.375
C -32.546 37.67 3.889
C -31.275 38.432 3.388
C -30.049 37.728 -2.86
C -32.6 36.222 -2.36
C -31.338 38.493 -2.347
C -32.626 37.742 -2.841
C -28.711 35.411 -0.31
C -28.694 35.394 1.255
C -29.98 36.162 1.789
C -31.284 35.429 -0.293
C -31.265 35.412 1.272
C -30.007 36.19 -0.813
C -28.672 35.369 3.836
C -31.24 35.387 3.854
C -29.965 36.147 3.355
C -28.735 35.44 -2.891
C -30.024 36.208 -2.379
C -31.311 35.458 -2.874
C -28.746 38.457 -0.798
C -28.72 38.429 1.804
C -28.706 38.414 3.371
C -28.762 38.475 -2.364
C -24.874 37.647 -0.312
C -24.856 37.63 1.253
C -27.432 36.168 -0.828
C -27.406 36.14 1.773
C -26.144 38.403 1.788
C -27.449 37.676 -0.295
C -27.433 37.66 1.27
C -26.171 38.43 -0.813
C -24.83 37.605 3.833
C -27.392 36.125 3.34
C -27.41 37.634 3.852
C -26.129 38.387 3.355
C -24.902 37.675 -2.894
C -27.448 36.185 -2.395
C -26.187 38.448 -2.38
C -27.474 37.705 -2.876
C -23.56 35.352 -0.347
C -23.54 35.336 1.218
C -24.828 36.111 1.755
C -26.136 35.384 -0.326
C -26.119 35.368 1.239
C -24.857 36.138 -0.846
C -23.511 35.31 3.798
C -26.095 35.342 3.82
C -24.812 36.095 3.322
C -23.59 35.381 -2.928
C -24.875 36.156 -2.412
C -26.161 35.413 -2.907
C -23.596 38.398 -0.834
C -23.564 38.37 1.767
C -23.546 38.354 3.334
C -23.615 38.416 -2.401
C -22.282 36.103 -0.871
C -22.247 36.076 1.73
C -20.982 38.334 1.736
C -22.298 37.612 -0.338
C -22.276 37.596 1.227
C -21.02 38.361 -0.864
C -22.227 36.06 3.296
C -22.243 37.57 3.808
C -20.959 38.317 3.303
C -22.303 36.121 -2.437
C -21.044 38.379 -2.431
C -22.332 37.64 -2.919
C -20.983 35.316 -0.377
C -20.959 35.3 1.188
C -20.922 35.274 3.767
C -21.021 35.344 -2.958
H -35.089 37.668 5.001
H -37.635 37.662 5.042
H -35.22 37.764 -3.894
H -37.802 37.759 -3.853
H -33.789 35.391 4.961
H -36.338 35.391 4.996
H -33.902 35.486 -3.933
H -36.485 35.487 -3.899
H -29.976 37.651 4.95
H -32.537 37.664 4.971
H -30.056 37.745 -3.942
H -32.637 37.759 -3.923
H -28.665 35.363 4.918
H -31.232 35.381 4.936
H -28.741 35.456 -3.973
H -31.32 35.475 -3.956
H -24.82 37.599 4.915
H -27.404 37.629 4.934
H -24.909 37.691 -3.976
H -27.48 37.722 -3.958
H -23.499 35.303 4.88
H -26.087 35.336 4.902
H -23.599 35.396 -4.01
H -26.168 35.429 -3.989
H -22.229 37.563 4.889
H -22.343 37.655 -4.001
H -20.905 35.266 4.849
H -21.034 35.358 -4.04
H -41.644 35.463 -3.793
H -42.957 37.719 -3.734
H -44.216 35.436 -3.723
H -45.524 37.681 -3.659
H -46.779 35.397 -3.647
H -48.067 37.62 -3.588
H -49.32 35.335 -3.574
H -50.567 37.523 -3.596
H -51.818 35.238 -3.583
H -40.382 37.745 -3.799
H -39.066 35.479 -3.852
H -47.79 37.509 5.325
H -50.273 37.402 5.496
H -38.883 35.382 5.043
H -41.425 35.363 5.103
H -51.526 35.115 5.509
H -42.721 37.617 5.162
H -45.263 37.575 5.237
H -46.512 35.289 5.249
H -49.041 35.221 5.339
H -40.178 37.645 5.097
H -43.969 35.333 5.172
C 7.237 38.205 -1.667
C 7.313 38.177 0.936
C 7.359 38.162 2.502
C 7.191 38.221 -3.232
C 11.1 37.444 -1.265
C 11.144 37.427 0.3
C 8.544 35.931 -1.726
C 8.619 35.904 0.876
C 9.872 38.183 0.863
C 8.54 37.438 -1.192
C 8.585 37.422 0.372
C 9.799 38.21 -1.74
C 11.216 37.401 2.883
C 8.664 35.888 2.442
C 8.659 37.396 2.956
C 9.917 38.167 2.429
C 11.028 37.471 -3.848
C 8.499 35.947 -3.292
C 9.754 38.227 -3.306
C 8.465 37.466 -3.775
C 12.407 35.169 -1.324
C 12.45 35.153 0.241
C 11.178 35.909 0.803
C 9.846 35.164 -1.252
C 9.891 35.147 0.313
C 11.105 35.936 -1.799
C 12.521 35.126 2.824
C 9.964 35.121 2.896
C 11.221 35.893 2.37
C 12.336 35.196 -3.906
C 11.062 35.953 -3.365
C 9.773 35.191 -3.834
C 12.359 38.216 -1.813
C 12.431 38.188 0.79
C 12.474 38.172 2.357
C 12.316 38.232 -3.378
C 16.221 37.455 -1.409
C 16.26 37.438 0.156
C 13.666 35.942 -1.871
C 13.736 35.915 0.731
C 14.989 38.194 0.718
C 13.661 37.449 -1.337
C 13.702 37.433 0.227
C 14.92 38.222 -1.885
C 16.327 37.412 2.74
C 13.778 35.899 2.298
C 13.772 37.407 2.812
C 15.03 38.178 2.285
C 16.154 37.482 -3.991
C 13.624 35.958 -3.437
C 14.879 38.238 -3.45
C 13.59 37.477 -3.92
C 17.528 35.18 -1.466
C 17.566 35.163 0.098
C 16.294 35.92 0.66
C 14.967 35.175 -1.396
C 15.008 35.158 0.169
C 16.227 35.947 -1.943
C 17.631 35.136 2.682
C 15.077 35.132 2.752
C 16.334 35.904 2.226
C 17.463 35.207 -4.048
C 16.187 35.963 -3.509
C 14.898 35.201 -3.978
C 17.482 38.227 -1.955
C 17.546 38.199 0.648
C 17.584 38.183 2.214
C 17.443 38.244 -3.521
C 21.344 37.464 -1.541
C 21.375 37.446 0.024
C 18.79 35.952 -2.011
C 18.851 35.924 0.591
C 20.101 38.203 0.582
C 18.782 37.46 -1.477
C 18.818 37.443 0.087
C 20.044 38.232 -2.021
C 21.429 37.42 2.609
C 18.888 35.909 2.158
C 18.88 37.416 2.672
C 20.136 38.187 2.148
C 21.289 37.492 -4.123
C 18.752 35.968 -3.577
C 20.009 38.248 -3.588
C 18.72 37.488 -4.06
C 22.653 35.188 -1.592
C 22.682 35.17 -0.027
C 21.407 35.928 0.528
C 20.09 35.184 -1.533
C 20.124 35.167 0.032
C 21.353 35.956 -2.074
C 22.732 35.143 2.558
C 20.183 35.141 2.616
C 21.439 35.912 2.095
C 22.603 35.215 -4.173
C 21.32 35.972 -3.641
C 20.031 35.212 -4.114
C 22.608 38.235 -2.08
C 22.657 38.206 0.523
C 22.686 38.19 2.09
C 22.578 38.252 -3.646
C 26.47 37.467 -1.635
C 26.489 37.447 -0.071
C 23.919 35.959 -2.128
C 23.963 35.93 0.475
C 25.211 38.206 0.476
C 23.906 37.467 -1.594
C 23.932 37.448 -0.029
C 25.174 38.236 -2.128
C 26.521 37.42 2.515
C 23.989 35.914 2.041
C 23.976 37.421 2.556
C 25.234 38.19 2.042
C 26.438 37.496 -4.217
C 23.892 35.975 -3.695
C 25.15 38.253 -3.694
C 23.862 37.495 -4.176
C 27.783 35.19 -1.675
C 27.798 35.171 -0.11
C 26.518 35.93 0.433
C 25.217 35.19 -1.64
C 25.24 35.171 -0.075
C 26.486 35.96 -2.17
C 27.824 35.143 2.476
C 25.278 35.145 2.51
C 26.538 35.914 2
C 27.756 35.219 -4.256
C 26.466 35.976 -3.737
C 25.178 35.218 -4.222
C 27.741 38.234 -2.161
C 27.767 38.203 0.442
C 27.782 38.187 2.008
C 27.725 38.251 -3.728
C 31.603 37.456 -1.671
C 31.608 37.436 -0.106
C 29.055 35.957 -2.197
C 29.075 35.927 0.407
C 30.323 38.196 0.424
C 29.036 37.463 -1.661
C 29.048 37.443 -0.097
C 30.31 38.228 -2.179
C 31.612 37.406 2.479
C 29.086 35.91 1.973
C 29.066 37.415 2.489
C 30.33 38.18 1.991
C 31.596 37.487 -4.253
C 29.043 35.975 -3.763
C 30.301 38.246 -3.745
C 29.016 37.493 -4.244
C 32.918 35.18 -1.696
C 32.92 35.159 -0.132
C 31.633 35.92 0.396
C 30.35 35.187 -1.693
C 30.358 35.167 -0.129
C 31.626 35.952 -2.207
C 32.918 35.128 2.453
C 30.37 35.138 2.457
C 31.636 35.903 1.962
C 32.917 35.211 -4.278
C 31.621 35.97 -3.773
C 30.337 35.217 -4.275
C 32.881 38.218 -2.18
C 32.882 38.186 0.422
C 32.88 38.167 1.988
C 32.877 38.236 -3.746
C 34.198 35.942 -2.201
C 34.193 35.908 0.4
C 35.445 38.169 0.438
C 34.173 37.445 -1.665
C 34.171 37.424 -0.101
C 35.453 38.204 -2.169
C 34.188 35.889 1.966
C 34.159 37.391 2.484
C 35.433 38.148 2.003
C 34.198 35.96 -3.768
C 35.452 38.22 -3.735
C 34.173 37.475 -4.247
C 35.489 35.168 -1.685
C 35.484 35.146 -0.12
C 35.468 35.112 2.464
C 35.494 35.2 -4.267
C 2.111 38.197 -1.509
C 2.192 38.169 1.093
C 2.242 38.154 2.659
C 2.062 38.213 -3.075
C 5.978 37.434 -1.117
C 6.025 37.417 0.447
C 3.419 35.922 -1.573
C 3.499 35.895 1.029
C 4.753 38.173 1.012
C 3.416 37.43 -1.039
C 3.464 37.413 0.526
C 4.675 38.2 -1.59
C 6.102 37.391 3.03
C 3.548 35.879 2.595
C 3.544 37.387 3.108
C 4.801 38.157 2.578
C 5.901 37.461 -3.7
C 3.371 35.938 -3.139
C 4.627 38.216 -3.156
C 3.336 37.457 -3.621
C 7.285 35.159 -1.178
C 7.331 35.142 0.386
C 6.06 35.899 0.951
C 4.723 35.154 -1.102
C 4.771 35.138 0.463
C 5.982 35.926 -1.651
C 7.407 35.116 2.969
C 4.849 35.112 3.045
C 6.106 35.883 2.517
C 7.21 35.185 -3.76
C 5.936 35.942 -3.217
C 4.645 35.181 -3.684
C -3.019 38.197 -1.335
C -2.936 38.17 1.266
C -2.886 38.154 2.832
C -3.069 38.213 -2.901
C 0.852 37.427 -0.955
C 0.901 37.411 0.609
C -1.71 35.92 -1.402
C -1.627 35.893 1.199
C -0.37 38.168 1.178
C -1.713 37.428 -0.868
C -1.664 37.411 0.696
C -0.454 38.195 -1.423
C 0.984 37.385 3.191
C -1.576 35.877 2.765
C -1.579 37.385 3.278
C -0.32 38.152 2.744
C 0.769 37.454 -3.538
C -1.76 35.936 -2.968
C -0.504 38.211 -2.989
C -1.797 37.454 -3.45
C 2.16 35.151 -1.021
C 2.209 35.135 0.544
C 0.937 35.893 1.112
C -0.404 35.15 -0.935
C -0.355 35.134 0.629
C 0.855 35.92 -1.489
C 2.291 35.109 3.126
C -0.271 35.107 3.21
C 0.987 35.877 2.678
C 2.079 35.178 -3.603
C 0.805 35.936 -3.055
C -0.488 35.176 -3.517
C -8.155 38.214 -1.164
C -8.078 38.188 1.436
C -8.032 38.171 3.003
C -8.201 38.231 -2.73
C -4.28 37.431 -0.78
C -4.231 37.415 0.784
C -6.844 35.932 -1.228
C -6.765 35.906 1.372
C -5.506 38.176 1.353
C -6.849 37.44 -0.695
C -6.802 37.424 0.87
C -5.586 38.203 -1.248
C -4.148 37.389 3.365
C -6.717 35.889 2.938
C -6.722 37.397 3.45
C -5.456 38.159 2.919
C -4.363 37.458 -3.362
C -6.892 35.948 -2.794
C -5.635 38.219 -2.814
C -6.928 37.466 -3.276
C -2.97 35.152 -0.847
C -2.921 35.136 0.717
C -4.194 35.897 1.287
C -5.538 35.158 -0.76
C -5.49 35.142 0.804
C -4.277 35.923 -1.314
C -2.837 35.109 3.298
C -5.408 35.116 3.385
C -4.144 35.88 2.853
C -3.054 35.178 -3.429
C -4.326 35.94 -2.88
C -5.619 35.184 -3.341
C -13.297 38.258 -1.018
C -13.234 38.231 1.582
C -13.195 38.213 3.149
C -13.335 38.274 -2.584
C -9.42 37.455 -0.614
C -9.376 37.439 0.95
C -11.985 35.969 -1.075
C -11.918 35.942 1.525
C -10.655 38.206 1.513
C -11.993 37.477 -0.541
C -11.953 37.461 1.023
C -10.725 38.233 -1.088
C -9.302 37.412 3.53
C -11.877 35.925 3.092
C -11.886 37.434 3.603
C -10.612 38.189 3.079
C -9.493 37.481 -3.196
C -12.025 35.985 -2.641
C -10.767 38.249 -2.654
C -12.06 37.503 -3.123
C -8.108 35.17 -0.677
C -8.063 35.154 0.888
C -9.34 35.92 1.452
C -10.68 35.188 -0.6
C -10.638 35.173 0.965
C -9.413 35.947 -1.148
C -7.985 35.127 3.467
C -10.567 35.145 3.544
C -9.295 35.903 3.018
C -8.184 35.196 -3.258
C -9.458 35.963 -2.714
C -10.75 35.214 -3.181
C -18.445 38.324 -0.906
C -18.398 38.297 1.695
C -18.37 38.28 3.262
C -18.473 38.341 -2.472
C -14.568 37.505 -0.476
C -14.532 37.489 1.089
C -17.131 36.03 -0.953
C -17.08 36.003 1.647
C -15.815 38.261 1.643
C -17.144 37.538 -0.42
C -17.113 37.522 1.145
C -15.87 38.288 -0.957
C -14.473 37.462 3.668
C -17.05 35.986 3.214
C -17.062 37.496 3.725
C -15.782 38.244 3.21
C -14.627 37.532 -3.058
C -17.162 36.047 -2.519
C -15.904 38.306 -2.523
C -17.195 37.565 -3.001
C -13.254 35.213 -0.531
C -13.216 35.198 1.034
C -14.498 35.97 1.591
C -15.829 35.244 -0.47
C -15.796 35.228 1.095
C -14.557 35.997 -1.009
C -13.153 35.17 3.613
C -15.741 35.201 3.674
C -14.462 35.952 3.157
C -13.317 35.24 -3.112
C -14.593 36.013 -2.576
C -15.884 35.271 -3.051
C -19.721 37.575 -0.373
C -19.695 37.559 1.192
C -19.653 37.532 3.772
C -19.763 37.603 -2.955
C -18.406 35.279 -0.418
C -18.378 35.263 1.147
C -19.664 36.039 1.694
C -19.706 36.066 -0.906
C -18.331 35.237 3.726
C -19.638 36.022 3.26
C -18.453 35.306 -2.999
C -19.732 36.084 -2.473
H 26.537 37.412 3.597
H 23.997 37.414 3.638
H 26.425 37.512 -5.299
H 23.842 37.51 -5.258
H 27.837 35.135 3.558
H 25.297 35.137 3.592
H 27.746 35.235 -5.338
H 25.161 35.234 -5.303
H 31.614 37.398 3.561
H 29.075 37.408 3.571
H 31.597 37.505 -5.335
H 29.01 37.51 -5.325
H 32.918 35.12 3.535
H 30.377 35.13 3.539
H 32.921 35.23 -5.36
H 30.334 35.235 -5.357
H 34.154 37.382 3.566
H 34.18 37.494 -5.329
H 35.46 35.102 3.546
H 35.503 35.22 -5.349
H -1.54 37.377 4.359
H -1.832 37.468 -4.532
H -4.109 37.38 4.446
H -6.685 37.389 4.532
H -4.397 37.471 -4.443
H -6.96 37.479 -4.358
H -2.797 35.101 4.379
H -5.37 35.107 4.466
H -3.088 35.191 -4.51
H -5.652 35.197 -4.423
H -9.267 37.403 4.612
H -11.854 37.425 4.685
H -9.522 37.494 -4.277
H -12.085 37.516 -4.204
H -7.949 35.118 4.549
H -10.534 35.136 4.625
H -8.215 35.208 -4.339
H -10.777 35.227 -4.263
H -14.444 37.453 4.75
H -17.038 37.487 4.806
H -14.649 37.544 -4.139
H -17.214 37.579 -4.083
H -13.122 35.161 4.694
H -15.715 35.192 4.756
H -13.341 35.252 -4.194
H -15.905 35.284 -4.133
H -19.634 37.525 4.853
H -19.778 37.617 -4.036
H -18.309 35.228 4.808
H -18.47 35.32 -4.081
H 20.005 35.226 -5.196
H 5.871 37.475 -4.781
H 7.18 35.2 -4.842
H 18.692 37.502 -5.141
H 17.435 35.221 -5.13
H 4.614 35.195 -4.765
H 16.125 37.497 -5.072
H 14.869 35.216 -5.059
H 3.303 37.471 -4.702
H 2.046 35.192 -4.684
H 13.561 37.491 -5.001
H 0.735 37.468 -4.619
H 12.306 35.211 -4.988
H -0.522 35.19 -4.598
H 10.999 37.486 -4.929
H 9.744 35.205 -4.915
H 21.265 37.507 -5.204
H 22.58 35.231 -5.255
H 8.436 37.48 -4.856
H 13.803 37.4 3.893
H 11.247 37.394 3.965
H 22.755 35.136 3.64
H -0.232 35.099 4.292
H 8.691 37.389 4.037
H 20.21 35.133 3.698
H 9.995 35.114 3.978
H 7.439 35.109 4.051
H 3.58 37.38 4.19
H 4.884 35.104 4.127
H 18.908 37.409 3.754
H 16.358 37.405 3.822
H 1.022 37.377 4.272
H 15.108 35.124 3.834
H 12.552 35.119 3.906
H 21.455 37.413 3.691
H 6.135 37.384 4.112
H 17.661 35.129 3.764
H 2.327 35.101 4.207
C 36.745 37.43 -1.652
C 36.739 37.408 -0.077
C 36.708 37.367 2.51
C 36.745 37.457 -4.237
C 38.062 35.152 -1.668
C 38.053 35.129 -0.093
C 36.757 35.891 0.421
C 36.77 35.927 -2.186
C 38.019 35.085 2.494
C 36.743 35.868 1.986
C 38.065 35.181 -4.253
C 36.772 35.945 -3.752
C 38.027 38.184 -2.166
C 38.013 38.148 0.481
C 37.996 38.123 2.064
C 38.029 38.204 -3.748
C 39.345 35.906 -2.18
C 39.327 35.868 0.467
C 39.288 37.39 -1.617
C 39.279 37.367 -0.061
C 39.308 35.842 2.05
C 39.237 37.318 2.631
C 39.349 35.927 -3.762
C 39.289 37.42 -4.301
C 40.605 35.11 -1.631
C 40.594 35.086 -0.075
C 40.55 35.035 2.615
C 40.608 35.142 -4.316
H 36.68 37.347 3.592
H 36.739 37.466 -5.319
H 37.99 35.064 3.575
H 38.061 35.192 -5.335
H 39.163 37.272 3.709
H 39.252 37.41 -5.383
H 40.477 34.988 3.693
H 40.571 35.134 -5.397
C -49.266 39.789 0.159
C -49.22 39.769 1.714
C -49.116 39.728 4.404
C -49.329 39.816 -2.529
C -45.477 42.15 0.054
C -45.433 42.131 1.628
C -48.04 40.597 -0.419
C -47.961 40.565 2.229
C -46.71 42.85 2.213
C -48.013 42.074 0.143
C -47.968 42.055 1.698
C -46.785 42.881 -0.435
C -45.344 42.097 4.216
C -47.907 40.544 3.811
C -47.867 42.014 4.388
C -46.657 42.83 3.795
C -45.536 42.175 -2.535
C -48.08 40.616 -2.001
C -46.824 42.899 -2.017
C -48.073 42.1 -2.545
C -44.166 39.914 -0.006
C -44.124 39.896 1.558
C -45.398 40.623 2.128
C -46.731 39.867 0.068
C -46.685 39.847 1.642
C -45.472 40.654 -0.481
C -44.047 39.866 4.143
C -46.593 39.811 4.231
C -45.348 40.604 3.693
C -44.233 39.944 -2.59
C -45.511 40.67 -2.046
C -46.793 39.893 -2.52
C -44.217 42.936 -0.494
C -44.147 42.907 2.115
C -44.098 42.889 3.68
C -44.254 42.952 -2.059
C -40.347 42.231 -0.084
C -40.312 42.213 1.48
C -42.907 40.698 -0.554
C -42.84 40.668 2.049
C -41.588 42.95 2.04
C -42.911 42.197 -0.017
C -42.871 42.178 1.547
C -41.651 42.979 -0.563
C -40.252 42.187 4.065
C -42.797 40.652 3.615
C -42.798 42.15 4.132
C -41.547 42.935 3.606
C -40.406 42.261 -2.668
C -42.946 40.715 -2.119
C -41.687 42.996 -2.129
C -42.975 42.225 -2.601
C -39.039 39.975 -0.139
C -39.007 39.957 1.426
C -40.282 40.701 1.983
C -41.602 39.951 -0.078
C -41.565 39.932 1.486
C -40.341 40.73 -0.621
C -38.953 39.931 4.011
C -41.5 39.905 4.072
C -40.246 40.686 3.548
C -39.094 40.005 -2.722
C -40.376 40.748 -2.187
C -41.666 39.981 -2.661
C -39.084 43.008 -0.625
C -39.03 42.98 1.979
C -38.997 42.966 3.544
C -39.116 43.025 -2.191
C -35.216 42.262 -0.183
C -35.191 42.244 1.382
C -37.774 40.75 -0.676
C -37.724 40.721 1.928
C -36.471 42.997 1.93
C -37.782 42.253 -0.14
C -37.753 42.235 1.424
C -36.515 43.025 -0.674
C -35.154 42.22 3.967
C -37.695 40.707 3.494
C -37.704 42.21 4.01
C -36.445 42.983 3.496
C -35.255 42.292 -2.766
C -37.804 40.767 -2.242
C -36.542 43.042 -2.241
C -37.832 42.282 -2.724
C -33.906 39.99 -0.223
C -33.884 39.973 1.342
C -35.164 40.729 1.886
C -36.474 39.988 -0.187
C -36.447 39.97 1.378
C -35.204 40.758 -0.718
C -33.851 39.948 3.926
C -36.404 39.945 3.962
C -35.141 40.715 3.452
C -33.941 40.02 -2.805
C -35.229 40.775 -2.284
C -36.518 40.018 -2.77
C -33.944 43.029 -0.71
C -33.909 43.001 1.893
C -33.889 42.986 3.46
C -33.966 43.046 -2.277
C -30.075 42.247 -0.233
C -30.057 42.229 1.332
C -32.633 40.755 -0.747
C -32.601 40.727 1.856
C -31.343 42.993 1.869
C -32.646 42.26 -0.212
C -32.627 42.242 1.353
C -31.371 43.021 -0.734
C -30.034 42.204 3.916
C -32.583 40.712 3.422
C -32.598 42.217 3.937
C -31.326 42.978 3.435
C -30.1 42.277 -2.815
C -32.652 40.772 -2.313
C -31.389 43.039 -2.301
C -32.677 42.29 -2.795
C -28.762 39.964 -0.264
C -28.746 39.947 1.301
C -30.032 40.713 1.836
C -31.335 39.982 -0.247
C -31.317 39.964 1.318
C -30.059 40.742 -0.767
C -28.723 39.922 3.884
C -31.291 39.94 3.902
C -30.017 40.698 3.402
C -28.787 39.993 -2.846
C -30.075 40.759 -2.333
C -31.363 40.011 -2.829
C -28.797 43.003 -0.752
C -28.771 42.974 1.851
C -28.757 42.959 3.417
C -28.813 43.022 -2.318
C -24.925 42.194 -0.267
C -24.907 42.177 1.298
C -27.484 40.719 -0.783
C -27.458 40.691 1.82
C -26.195 42.948 1.834
C -27.501 42.224 -0.249
C -27.484 42.207 1.316
C -26.222 42.976 -0.768
C -24.881 42.152 3.88
C -27.444 40.675 3.386
C -27.462 42.182 3.899
C -26.18 42.931 3.401
C -24.953 42.224 -2.849
C -27.5 40.737 -2.349
C -26.238 42.995 -2.335
C -27.525 42.254 -2.831
C -23.612 39.905 -0.301
C -23.592 39.889 1.264
C -24.88 40.661 1.801
C -26.188 39.938 -0.28
C -26.171 39.921 1.285
C -24.909 40.689 -0.8
C -23.563 39.863 3.845
C -26.147 39.895 3.867
C -24.864 40.645 3.368
C -23.642 39.934 -2.883
C -24.927 40.707 -2.367
C -26.213 39.967 -2.862
C -23.646 42.943 -0.789
C -23.615 42.914 1.813
C -23.597 42.898 3.38
C -23.665 42.962 -2.356
C -22.334 40.654 -0.826
C -22.299 40.626 1.776
C -21.032 42.877 1.783
C -22.349 42.159 -0.292
C -22.327 42.142 1.273
C -21.071 42.905 -0.82
C -22.279 40.609 3.343
C -22.294 42.116 3.855
C -21.01 42.86 3.349
C -22.355 40.672 -2.392
C -21.094 42.924 -2.386
C -22.383 42.188 -2.875
C -21.035 39.868 -0.331
C -21.011 39.852 1.234
C -20.974 39.826 3.814
C -21.073 39.897 -2.913
H -35.14 42.215 5.049
H -37.685 42.205 5.092
H -35.272 42.311 -3.847
H -37.855 42.302 -3.805
H -33.84 39.943 5.008
H -36.388 39.94 5.044
H -33.954 40.038 -3.887
H -36.537 40.037 -3.852
H -30.028 42.2 4.998
H -32.589 42.213 5.019
H -30.108 42.295 -3.897
H -32.689 42.309 -3.877
H -28.717 39.917 4.966
H -31.284 39.935 4.984
H -28.793 40.011 -3.928
H -31.372 40.029 -3.911
H -24.872 42.147 4.962
H -27.455 42.177 4.981
H -24.961 42.241 -3.931
H -27.531 42.272 -3.913
H -23.552 39.857 4.927
H -26.139 39.89 4.949
H -23.652 39.95 -3.965
H -26.22 39.984 -3.944
H -22.281 42.11 4.937
H -22.394 42.204 -3.956
H -20.958 39.819 4.896
H -21.086 39.912 -3.995
H -41.697 40.001 -3.743
H -43.006 42.245 -3.683
H -44.266 39.964 -3.671
H -45.554 42.186 -3.616
H -46.812 39.903 -3.602
H -48.058 42.091 -3.627
H -49.313 39.807 -3.611
H -40.434 42.281 -3.75
H -39.119 40.025 -3.804
H -47.775 41.976 5.466
H -38.931 39.926 5.093
H -41.474 39.9 5.153
H -42.768 42.144 5.214
H -45.293 42.081 5.297
H -46.541 39.795 5.311
H -49.024 39.689 5.482
H -40.227 42.182 5.147
H -44.015 39.86 5.225
C 7.186 42.749 -1.622
C 7.262 42.72 0.982
C 7.308 42.704 2.548
C 7.14 42.766 -3.188
C 11.049 41.991 -1.22
C 11.093 41.974 0.345
C 8.492 40.481 -1.681
C 8.567 40.453 0.922
C 9.821 42.726 0.909
C 8.488 41.985 -1.147
C 8.533 41.968 0.418
C 9.748 42.754 -1.696
C 11.165 41.947 2.93
C 8.612 40.437 2.488
C 8.608 41.941 3.003
C 9.866 42.71 2.475
C 10.977 42.02 -3.803
C 8.447 40.498 -3.247
C 9.703 42.772 -3.261
C 8.414 42.013 -3.731
C 12.355 39.722 -1.279
C 12.397 39.705 0.286
C 11.126 40.459 0.849
C 9.794 39.716 -1.206
C 9.838 39.699 0.359
C 11.053 40.487 -1.754
C 12.468 39.679 2.871
C 9.912 39.673 2.943
C 11.169 40.443 2.416
C 12.283 39.75 -3.861
C 11.01 40.504 -3.32
C 9.721 39.744 -3.789
C 12.309 42.761 -1.768
C 12.38 42.732 0.836
C 12.423 42.716 2.402
C 12.266 42.779 -3.334
C 16.171 42.005 -1.364
C 16.209 41.986 0.2
C 13.614 40.493 -1.826
C 13.684 40.465 0.777
C 14.938 42.739 0.763
C 13.61 41.998 -1.292
C 13.651 41.98 0.272
C 14.87 42.768 -1.841
C 16.276 41.959 2.786
C 13.726 40.449 2.343
C 13.721 41.953 2.858
C 14.979 42.722 2.33
C 16.104 42.034 -3.947
C 13.572 40.51 -3.392
C 14.829 42.786 -3.407
C 13.54 42.026 -3.876
C 17.476 39.734 -1.421
C 17.513 39.716 0.143
C 16.241 40.471 0.705
C 14.915 39.728 -1.351
C 14.956 39.711 0.214
C 16.175 40.5 -1.898
C 17.577 39.69 2.729
C 15.024 39.684 2.799
C 16.281 40.455 2.272
C 17.411 39.762 -4.004
C 16.135 40.517 -3.464
C 14.846 39.756 -3.933
C 17.432 42.776 -1.912
C 17.495 42.745 0.693
C 17.533 42.728 2.259
C 17.393 42.794 -3.477
C 21.292 42.016 -1.496
C 21.322 41.996 0.068
C 18.737 40.505 -1.967
C 18.797 40.476 0.637
C 20.05 42.751 0.626
C 18.731 42.011 -1.433
C 18.766 41.992 0.131
C 19.994 42.783 -1.978
C 21.375 41.967 2.655
C 18.834 40.46 2.203
C 18.827 41.964 2.717
C 20.084 42.733 2.193
C 21.238 42.046 -4.079
C 18.7 40.523 -3.533
C 19.959 42.801 -3.544
C 18.669 42.041 -4.016
C 22.598 39.742 -1.546
C 22.626 39.723 0.019
C 21.352 40.48 0.574
C 20.036 39.739 -1.488
C 20.07 39.72 0.077
C 21.3 40.51 -2.03
C 22.675 39.696 2.604
C 20.128 39.694 2.663
C 21.384 40.463 2.14
C 22.548 39.771 -4.129
C 21.267 40.527 -3.596
C 19.978 39.767 -4.07
C 22.556 42.787 -2.036
C 22.604 42.753 0.568
C 22.632 42.735 2.134
C 22.527 42.807 -3.602
C 26.414 42.016 -1.589
C 26.433 41.994 -0.024
C 23.863 40.512 -2.083
C 23.906 40.481 0.521
C 25.157 42.752 0.522
C 23.853 42.018 -1.549
C 23.877 41.997 0.016
C 25.12 42.787 -2.082
C 26.464 41.964 2.563
C 23.932 40.464 2.087
C 23.92 41.968 2.602
C 25.178 42.733 2.088
C 26.381 42.048 -4.171
C 23.837 40.53 -3.649
C 25.096 42.807 -3.649
C 23.808 42.049 -4.132
C 27.724 39.74 -1.626
C 27.739 39.719 -0.062
C 26.46 40.478 0.481
C 25.16 39.743 -1.594
C 25.182 39.723 -0.029
C 26.429 40.51 -2.123
C 27.764 39.691 2.525
C 25.22 39.695 2.558
C 26.479 40.462 2.047
C 27.697 39.77 -4.209
C 26.409 40.528 -3.69
C 25.121 39.772 -4.176
C 27.684 42.782 -2.114
C 27.71 42.746 0.49
C 27.725 42.727 2.056
C 27.667 42.802 -3.68
C 31.543 41.997 -1.621
C 31.55 41.975 -0.057
C 28.996 40.505 -2.148
C 29.015 40.472 0.456
C 30.266 42.735 0.473
C 28.977 42.009 -1.613
C 28.99 41.987 -0.048
C 30.251 42.77 -2.13
C 31.551 41.943 2.529
C 29.026 40.455 2.022
C 29.007 41.956 2.538
C 30.272 42.716 2.039
C 31.529 42.026 -4.204
C 28.983 40.523 -3.714
C 30.239 42.789 -3.696
C 28.956 42.04 -4.195
C 32.857 39.721 -1.644
C 32.859 39.7 -0.08
C 31.573 40.461 0.446
C 30.289 39.732 -1.643
C 30.298 39.712 -0.079
C 31.565 40.494 -2.156
C 32.854 39.668 2.505
C 30.308 39.682 2.507
C 31.574 40.443 2.012
C 32.851 39.75 -4.227
C 31.557 40.511 -3.722
C 30.275 39.763 -4.226
C 32.82 42.754 -2.134
C 32.826 42.72 0.474
C 32.822 42.698 2.04
C 32.81 42.77 -3.7
C 34.135 40.479 -2.153
C 34.134 40.446 0.455
C 35.392 42.7 0.504
C 34.113 41.981 -1.621
C 34.116 41.96 -0.046
C 35.392 42.734 -2.144
C 34.126 40.425 2.02
C 34.097 41.921 2.542
C 35.383 42.676 2.088
C 34.131 40.495 -3.718
C 35.385 42.752 -3.727
C 34.099 42.005 -4.207
C 35.428 39.706 -1.637
C 35.426 39.684 -0.062
C 35.4 39.646 2.526
C 35.422 39.731 -4.223
C 2.06 42.74 -1.464
C 2.142 42.711 1.139
C 2.191 42.695 2.705
C 2.011 42.757 -3.03
C 5.927 41.98 -1.072
C 5.974 41.962 0.493
C 3.367 40.472 -1.528
C 3.447 40.444 1.075
C 4.703 42.715 1.059
C 3.365 41.975 -0.993
C 3.413 41.958 0.571
C 4.624 42.744 -1.545
C 6.05 41.936 3.077
C 3.496 40.428 2.641
C 3.493 41.932 3.156
C 4.75 42.699 2.625
C 5.85 42.008 -3.656
C 3.319 40.488 -3.094
C 4.576 42.761 -3.111
C 3.285 42.004 -3.577
C 7.233 39.711 -1.132
C 7.279 39.694 0.432
C 6.008 40.448 0.997
C 4.671 39.706 -1.056
C 4.718 39.689 0.509
C 5.93 40.476 -1.606
C 7.354 39.668 3.016
C 4.797 39.663 3.092
C 6.054 40.432 2.563
C 7.158 39.738 -3.715
C 5.884 40.493 -3.172
C 4.593 39.733 -3.639
C -3.07 42.739 -1.29
C -2.987 42.711 1.312
C -2.936 42.694 2.878
C -3.12 42.756 -2.856
C 0.801 41.973 -0.91
C 0.85 41.956 0.654
C -1.762 40.469 -1.357
C -1.679 40.441 1.245
C -0.421 42.71 1.225
C -1.764 41.973 -0.823
C -1.715 41.956 0.742
C -0.504 42.738 -1.379
C 0.933 41.929 3.238
C -1.628 40.425 2.811
C -1.63 41.929 3.325
C -0.371 42.693 2.791
C 0.718 42.001 -3.493
C -1.812 40.485 -2.923
C -0.554 42.755 -2.945
C -1.848 42 -3.406
C 2.108 39.703 -0.975
C 2.157 39.686 0.59
C 0.886 40.441 1.158
C -0.456 39.701 -0.889
C -0.407 39.685 0.675
C 0.803 40.469 -1.444
C 2.239 39.66 3.173
C -0.323 39.659 3.258
C 0.936 40.425 2.724
C 2.027 39.73 -3.558
C 0.753 40.485 -3.01
C -0.54 39.728 -3.472
C -8.205 42.756 -1.12
C -8.128 42.728 1.483
C -8.082 42.711 3.049
C -8.251 42.774 -2.686
C -4.331 41.976 -0.735
C -4.282 41.959 0.83
C -6.896 40.481 -1.183
C -6.817 40.453 1.419
C -5.556 42.717 1.4
C -6.899 41.985 -0.649
C -6.853 41.968 0.915
C -5.636 42.745 -1.203
C -4.199 41.933 3.412
C -6.769 40.437 2.985
C -6.773 41.941 3.498
C -5.507 42.7 2.966
C -4.413 42.004 -3.318
C -6.943 40.497 -2.749
C -5.685 42.762 -2.769
C -6.979 42.012 -3.232
C -3.022 39.703 -0.801
C -2.973 39.686 0.763
C -4.246 40.445 1.333
C -5.59 39.709 -0.714
C -5.542 39.693 0.85
C -4.328 40.472 -1.269
C -2.889 39.66 3.345
C -5.46 39.666 3.432
C -4.196 40.428 2.899
C -3.106 39.73 -3.384
C -4.378 40.489 -2.835
C -5.671 39.736 -3.296
C -13.347 42.799 -0.973
C -13.284 42.771 1.629
C -13.246 42.754 3.195
C -13.385 42.817 -2.54
C -9.47 41.999 -0.569
C -9.427 41.983 0.996
C -12.036 40.517 -1.029
C -11.969 40.49 1.572
C -10.705 42.746 1.559
C -12.043 42.021 -0.496
C -12.004 42.005 1.069
C -10.775 42.774 -1.043
C -9.352 41.956 3.577
C -11.929 40.472 3.138
C -11.936 41.977 3.65
C -10.662 42.729 3.126
C -9.544 42.027 -3.152
C -12.076 40.534 -2.595
C -10.817 42.792 -2.609
C -12.11 42.049 -3.079
C -8.16 39.721 -0.631
C -8.114 39.705 0.934
C -9.392 40.468 1.499
C -10.732 39.739 -0.554
C -10.69 39.723 1.011
C -9.465 40.495 -1.103
C -8.037 39.678 3.515
C -10.619 39.696 3.591
C -9.347 40.451 3.065
C -8.236 39.747 -3.213
C -9.509 40.512 -2.669
C -10.802 39.766 -3.136
C -18.495 42.867 -0.861
C -18.449 42.839 1.741
C -18.421 42.821 3.308
C -18.524 42.886 -2.427
C -14.618 42.049 -0.431
C -14.583 42.033 1.134
C -17.183 40.579 -0.908
C -17.132 40.551 1.694
C -15.865 42.803 1.69
C -17.195 42.083 -0.374
C -17.164 42.067 1.191
C -15.921 42.831 -0.912
C -14.524 42.006 3.715
C -17.102 40.534 3.26
C -17.113 42.04 3.772
C -15.832 42.785 3.256
C -14.678 42.078 -3.013
C -17.214 40.597 -2.474
C -15.954 42.849 -2.479
C -17.246 42.112 -2.957
C -13.306 39.764 -0.485
C -13.268 39.748 1.08
C -14.55 40.518 1.637
C -15.881 39.795 -0.424
C -15.848 39.779 1.141
C -14.609 40.545 -0.964
C -13.205 39.721 3.66
C -15.793 39.752 3.721
C -14.514 40.501 3.203
C -13.369 39.791 -3.067
C -14.645 40.563 -2.53
C -15.937 39.823 -3.006
C -19.772 42.121 -0.328
C -19.746 42.104 1.237
C -19.704 42.078 3.819
C -19.814 42.15 -2.91
C -18.458 39.831 -0.372
C -18.43 39.815 1.193
C -19.716 40.589 1.74
C -19.758 40.616 -0.861
C -18.384 39.788 3.773
C -19.69 40.572 3.307
C -18.505 39.859 -2.954
C -19.784 40.634 -2.427
H 26.478 41.957 3.645
H 23.94 41.961 3.684
H 26.368 42.064 -5.253
H 23.789 42.065 -5.213
H 27.775 39.684 3.607
H 25.238 39.688 3.639
H 27.688 39.787 -5.291
H 25.105 39.788 -5.258
H 31.551 41.935 3.611
H 29.015 41.949 3.62
H 31.529 42.043 -5.286
H 28.95 42.058 -5.277
H 32.85 39.66 3.587
H 30.313 39.675 3.589
H 32.854 39.768 -5.309
H 30.273 39.781 -5.307
H 34.073 41.904 3.624
H 34.086 42.011 -5.289
H 35.374 39.627 3.607
H 35.413 39.738 -5.305
H -1.591 41.922 4.406
H -1.883 42.015 -4.487
H -4.16 41.926 4.494
H -6.736 41.934 4.579
H -4.448 42.018 -4.399
H -7.011 42.026 -4.313
H -2.849 39.653 4.426
H -5.422 39.658 4.513
H -3.141 39.744 -4.465
H -5.704 39.749 -4.378
H -9.318 41.948 4.659
H -11.905 41.97 4.732
H -9.573 42.04 -4.233
H -12.137 42.062 -4.16
H -8.001 39.67 4.596
H -10.586 39.687 4.673
H -8.267 39.76 -4.294
H -10.83 39.779 -4.218
H -14.496 41.998 4.797
H -17.089 42.033 4.854
H -14.701 42.091 -4.095
H -17.265 42.126 -4.039
H -13.175 39.712 4.742
H -15.767 39.744 4.803
H -13.393 39.804 -4.149
H -15.958 39.836 -4.088
H -19.685 42.071 4.9
H -19.83 42.165 -3.992
H -18.362 39.781 4.855
H -18.522 39.873 -4.036
H 19.951 39.782 -5.152
H 5.819 42.024 -4.737
H 7.127 39.753 -4.797
H 18.641 42.056 -5.098
H 17.382 39.777 -5.085
H 4.561 39.749 -4.72
H 16.074 42.049 -5.029
H 14.816 39.771 -5.015
H 3.252 42.019 -4.658
H 1.993 39.745 -4.639
H 13.509 42.042 -4.957
H 0.684 42.016 -4.575
H 12.254 39.765 -4.943
H -0.574 39.743 -4.553
H 10.947 42.035 -4.885
H 9.691 39.759 -4.871
H 21.213 42.062 -5.16
H 22.526 39.786 -5.21
H 8.384 42.029 -4.812
H 13.752 41.947 3.939
H 11.196 41.941 4.012
H 22.698 39.689 3.686
H -0.284 39.651 4.339
H 8.639 41.935 4.084
H 20.155 39.687 3.744
H 9.943 39.667 4.025
H 7.387 39.661 4.098
H 3.528 41.926 4.237
H 4.831 39.656 4.174
H 18.855 41.958 3.799
H 16.306 41.953 3.868
H 0.971 41.923 4.32
H 15.055 39.678 3.88
H 12.499 39.672 3.952
H 21.4 41.961 3.737
H 6.083 41.93 4.159
H 17.607 39.683 3.81
H 2.275 39.653 4.254
C 36.655 41.942 -1.597
C 36.654 41.921 -0.041
C 36.623 41.876 2.652
C 36.641 41.968 -4.284
C 37.971 39.667 -1.606
C 37.965 39.645 -0.05
C 36.701 40.425 0.492
C 36.709 40.46 -2.155
C 37.928 39.599 2.642
C 36.688 40.402 2.076
C 37.966 39.695 -4.292
C 36.707 40.478 -3.738
H 36.554 41.835 3.731
H 36.596 41.953 -5.365
H 37.856 39.556 3.72
H 37.925 39.682 -5.373
C -45.504 46.641 0.108
C -45.463 46.623 1.664
C -45.37 46.586 4.354
C -45.557 46.664 -2.579
C -44.222 44.433 0.04
C -44.181 44.415 1.614
C -45.458 45.134 2.197
C -46.759 44.358 0.126
C -46.716 44.339 1.681
C -45.53 45.164 -0.451
C -44.095 44.382 4.203
C -46.618 44.3 4.371
C -45.408 45.115 3.779
C -44.278 44.456 -2.549
C -45.566 45.181 -2.033
C -46.816 44.383 -2.562
C -44.273 47.445 -0.467
C -44.206 47.418 2.181
C -44.159 47.4 3.763
C -44.307 47.46 -2.049
C -40.4 46.756 -0.036
C -40.366 46.74 1.528
C -42.961 45.217 -0.506
C -42.895 45.189 2.103
C -41.643 47.471 2.09
C -42.967 46.714 0.026
C -42.929 46.697 1.6
C -41.704 47.497 -0.519
C -40.303 46.716 4.114
C -42.849 45.173 3.668
C -42.847 46.667 4.189
C -41.601 47.457 3.655
C -40.453 46.781 -2.62
C -42.995 45.232 -2.072
C -41.735 47.509 -2.084
C -43.018 46.735 -2.562
C -39.091 44.509 -0.089
C -39.059 44.492 1.475
C -40.336 45.231 2.033
C -41.656 44.477 -0.027
C -41.619 44.46 1.537
C -40.394 45.258 -0.571
C -39.004 44.467 4.061
C -41.55 44.433 4.123
C -40.298 45.216 3.598
C -39.144 44.538 -2.673
C -40.427 45.273 -2.137
C -41.715 44.505 -2.611
C -39.136 47.534 -0.578
C -39.084 47.509 2.026
C -39.05 47.497 3.591
C -39.165 47.548 -2.144
C -35.267 46.797 -0.135
C -35.244 46.78 1.43
C -37.826 45.284 -0.627
C -37.777 45.257 1.977
C -36.524 47.53 1.977
C -37.834 46.784 -0.092
C -37.806 46.768 1.472
C -36.566 47.556 -0.627
C -35.207 46.757 4.016
C -37.747 45.244 3.543
C -37.757 46.745 4.058
C -36.499 47.518 3.543
C -35.305 46.826 -2.718
C -37.855 45.3 -2.193
C -36.592 47.571 -2.193
C -37.881 46.811 -2.676
C -33.957 44.532 -0.175
C -33.935 44.514 1.39
C -35.217 45.268 1.934
C -36.525 44.527 -0.139
C -36.499 44.51 1.426
C -35.256 45.296 -0.67
C -33.903 44.49 3.975
C -36.456 44.486 4.011
C -35.194 45.255 3.5
C -33.992 44.562 -2.758
C -35.28 45.313 -2.236
C -36.569 44.556 -2.722
C -33.995 47.562 -0.662
C -33.962 47.534 1.942
C -33.942 47.521 3.508
C -34.015 47.579 -2.229
C -30.123 46.782 -0.185
C -30.107 46.764 1.38
C -32.683 45.295 -0.7
C -32.652 45.266 1.904
C -31.393 47.524 1.917
C -32.697 46.796 -0.164
C -32.678 46.778 1.401
C -31.42 47.553 -0.687
C -30.085 46.738 3.965
C -32.635 45.252 3.47
C -32.651 46.754 3.986
C -31.378 47.509 3.484
C -30.148 46.814 -2.769
C -32.703 45.313 -2.266
C -31.437 47.572 -2.253
C -32.726 46.826 -2.748
C -28.813 44.506 -0.217
C -28.796 44.488 1.348
C -30.083 45.252 1.883
C -31.386 44.524 -0.2
C -31.368 44.507 1.365
C -30.109 45.281 -0.72
C -28.774 44.463 3.931
C -31.343 44.482 3.95
C -30.068 45.237 3.45
C -28.837 44.537 -2.801
C -30.125 45.3 -2.287
C -31.414 44.555 -2.783
C -28.844 47.534 -0.704
C -28.819 47.503 1.9
C -28.806 47.487 3.466
C -28.859 47.555 -2.271
C -24.971 46.727 -0.22
C -24.953 46.709 1.345
C -27.534 45.258 -0.737
C -27.508 45.229 1.867
C -26.241 47.475 1.883
C -27.548 46.758 -0.201
C -27.532 46.74 1.364
C -26.267 47.506 -0.721
C -24.928 46.681 3.929
C -27.494 45.212 3.433
C -27.51 46.713 3.948
C -26.226 47.457 3.45
C -24.999 46.76 -2.804
C -27.549 45.278 -2.303
C -26.283 47.528 -2.287
C -27.572 46.791 -2.785
C -23.661 44.445 -0.255
C -23.641 44.428 1.31
C -24.929 45.197 1.848
C -26.237 44.479 -0.234
C -26.22 44.462 1.331
C -24.958 45.227 -0.755
C -23.613 44.401 3.893
C -26.197 44.435 3.914
C -24.913 45.18 3.415
C -23.692 44.476 -2.838
C -24.975 45.247 -2.321
C -26.263 44.51 -2.817
C -23.69 47.471 -0.742
C -23.659 47.44 1.861
C -23.642 47.421 3.428
C -23.71 47.493 -2.309
C -22.382 45.191 -0.78
C -22.347 45.161 1.823
C -21.076 47.401 1.831
C -22.394 46.69 -0.245
C -22.373 46.672 1.32
C -21.114 47.433 -0.773
C -22.327 45.143 3.389
C -22.34 46.643 3.903
C -21.053 47.382 3.397
C -22.403 45.211 -2.347
C -21.138 47.454 -2.339
C -22.428 46.723 -2.829
C -21.084 44.408 -0.286
C -21.06 44.391 1.279
C -21.023 44.363 3.862
C -21.122 44.438 -2.869
H -35.194 46.753 5.098
H -37.738 46.742 5.14
H -35.322 46.846 -3.8
H -37.905 46.831 -3.757
H -33.891 44.486 5.057
H -36.439 44.481 5.093
H -34.006 44.581 -3.84
H -36.589 44.576 -3.804
H -30.078 46.733 5.047
H -32.641 46.749 5.068
H -30.156 46.834 -3.851
H -32.738 46.846 -3.83
H -28.768 44.458 5.013
H -31.335 44.477 5.032
H -28.844 44.556 -3.882
H -31.423 44.574 -3.865
H -24.919 46.676 5.011
H -27.504 46.708 5.03
H -25.008 46.779 -3.885
H -27.579 46.811 -3.867
H -23.601 44.396 4.975
H -26.19 44.431 4.996
H -23.701 44.494 -3.92
H -26.27 44.528 -3.899
H -22.327 46.638 4.985
H -22.441 46.741 -3.911
H -21.007 44.358 4.944
H -21.136 44.454 -3.951
H -41.745 44.524 -3.693
H -43.033 46.745 -3.644
H -44.295 44.466 -3.63
H -45.54 46.654 -3.66
H -46.799 44.373 -3.643
H -40.481 46.8 -3.702
H -39.171 44.558 -3.754
H -38.982 44.463 5.142
H -41.522 44.428 5.204
H -42.8 46.653 5.27
H -45.282 46.55 5.432
H -46.529 44.264 5.449
H -40.277 46.711 5.196
H -44.046 44.367 5.284
C 7.14 47.276 -1.575
C 7.216 47.244 1.03
C 7.261 47.226 2.596
C 7.094 47.296 -3.141
C 11.003 46.523 -1.174
C 11.046 46.503 0.391
C 8.443 45.018 -1.636
C 8.518 44.988 0.968
C 9.775 47.25 0.956
C 8.441 46.516 -1.101
C 8.486 46.497 0.464
C 9.702 47.282 -1.649
C 11.117 46.474 2.978
C 8.563 44.971 2.535
C 8.56 46.468 3.051
C 9.819 47.232 2.522
C 10.931 46.555 -3.759
C 8.398 45.036 -3.202
C 9.657 47.303 -3.215
C 8.367 46.548 -3.686
C 12.306 44.263 -1.234
C 12.348 44.244 0.331
C 11.077 44.994 0.895
C 9.745 44.256 -1.161
C 9.789 44.238 0.404
C 11.005 45.024 -1.71
C 12.419 44.217 2.917
C 9.862 44.211 2.99
C 11.12 44.977 2.462
C 12.235 44.293 -3.818
C 10.961 45.043 -3.276
C 9.672 44.286 -3.745
C 12.264 47.29 -1.723
C 12.334 47.257 0.883
C 12.376 47.238 2.449
C 12.221 47.311 -3.289
C 16.128 46.542 -1.32
C 16.165 46.52 0.245
C 13.567 45.032 -1.782
C 13.636 45.001 0.822
C 14.893 47.266 0.81
C 13.565 46.531 -1.247
C 13.606 46.511 0.317
C 14.827 47.301 -1.796
C 16.229 46.488 2.833
C 13.677 44.984 2.389
C 13.674 46.481 2.905
C 14.933 47.246 2.376
C 16.062 46.576 -3.904
C 13.524 45.052 -3.348
C 14.787 47.322 -3.361
C 13.495 46.564 -3.832
C 17.429 44.279 -1.378
C 17.465 44.259 0.187
C 16.193 45.009 0.75
C 14.867 44.271 -1.307
C 14.907 44.252 0.258
C 16.129 45.041 -1.855
C 17.528 44.23 2.774
C 14.975 44.224 2.845
C 16.232 44.991 2.317
C 17.364 44.311 -3.961
C 16.089 45.061 -3.421
C 14.799 44.301 -3.89
C 17.392 47.313 -1.867
C 17.451 47.275 0.738
C 17.487 47.254 2.305
C 17.354 47.336 -3.433
C 21.252 46.563 -1.451
C 21.279 46.536 0.114
C 18.691 45.051 -1.924
C 18.75 45.016 0.681
C 20.007 47.284 0.672
C 18.691 46.553 -1.389
C 18.723 46.529 0.175
C 19.956 47.327 -1.932
C 21.328 46.499 2.702
C 18.785 44.997 2.247
C 18.781 46.495 2.763
C 20.038 47.26 2.239
C 21.201 46.604 -4.033
C 18.655 45.072 -3.49
C 19.924 47.353 -3.498
C 18.631 46.59 -3.972
C 22.55 44.292 -1.502
C 22.576 44.269 0.063
C 21.304 45.022 0.618
C 19.99 44.287 -1.444
C 20.021 44.265 0.12
C 21.254 45.06 -1.986
C 22.623 44.236 2.65
C 20.077 44.235 2.708
C 21.334 45.001 2.185
C 22.501 44.327 -4.084
C 21.222 45.082 -3.552
C 19.932 44.32 -4.027
C 22.519 47.339 -1.988
C 22.561 47.29 0.616
C 22.586 47.263 2.182
C 22.492 47.368 -3.554
C 26.368 46.564 -1.538
C 26.386 46.534 0.026
C 23.816 45.064 -2.038
C 23.856 45.023 0.566
C 25.112 47.289 0.574
C 23.811 46.568 -1.501
C 23.833 46.539 0.063
C 25.079 47.342 -2.03
C 26.414 46.489 2.614
C 23.881 45.001 2.133
C 23.872 46.497 2.651
C 25.132 47.258 2.139
C 26.335 46.61 -4.119
C 23.79 45.088 -3.604
C 25.057 47.374 -3.596
C 23.769 46.612 -4.083
C 27.669 44.285 -1.578
C 27.685 44.261 -0.014
C 26.409 45.019 0.528
C 25.109 44.292 -1.548
C 25.13 44.267 0.017
C 26.377 45.061 -2.075
C 27.709 44.226 2.573
C 25.166 44.233 2.605
C 26.426 44.995 2.094
C 27.641 44.322 -4.161
C 26.357 45.085 -3.642
C 25.071 44.328 -4.13
C 27.638 47.332 -2.058
C 27.665 47.279 0.544
C 27.678 47.246 2.11
C 27.618 47.364 -3.624
C 31.492 46.531 -1.577
C 31.505 46.504 -0.003
C 28.941 45.049 -2.098
C 28.963 45.008 0.505
C 30.223 47.261 0.53
C 28.927 46.551 -1.561
C 28.943 46.522 0.004
C 30.2 47.31 -2.079
C 31.503 46.456 2.588
C 28.973 44.984 2.07
C 28.958 46.476 2.591
C 30.227 47.229 2.095
C 31.46 46.564 -4.163
C 28.924 45.072 -3.664
C 30.18 47.338 -3.644
C 28.898 46.594 -4.143
C 32.8 44.255 -1.603
C 32.808 44.233 -0.028
C 31.522 44.992 0.497
C 30.232 44.273 -1.595
C 30.244 44.249 -0.03
C 31.507 45.03 -2.111
C 32.797 44.192 2.562
C 30.253 44.213 2.557
C 31.522 44.967 2.063
C 32.777 44.281 -4.189
C 31.492 45.05 -3.676
C 30.211 44.306 -4.177
C 32.768 47.283 -2.108
C 32.787 47.239 0.542
C 32.787 47.21 2.125
C 32.75 47.307 -3.691
C 34.078 45.008 -2.13
C 34.087 44.971 0.519
C 34.031 46.488 -1.571
C 34.042 46.465 -0.015
C 34.082 44.946 2.102
C 34.028 46.415 2.68
C 34.065 45.027 -3.713
C 33.997 46.518 -4.26
C 35.341 44.216 -1.587
C 35.345 44.194 -0.03
C 35.323 44.149 2.663
C 35.317 44.241 -4.275
C 2.014 47.266 -1.418
C 2.095 47.234 1.188
C 2.144 47.216 2.753
C 1.965 47.286 -2.984
C 5.88 46.51 -1.025
C 5.926 46.491 0.539
C 3.318 45.007 -1.483
C 3.398 44.977 1.122
C 4.656 47.238 1.107
C 3.317 46.505 -0.947
C 3.365 46.486 0.618
C 4.577 47.27 -1.499
C 6.003 46.462 3.126
C 3.447 44.961 2.688
C 3.445 46.458 3.204
C 4.703 47.22 2.673
C 5.803 46.542 -3.611
C 3.27 45.026 -3.049
C 4.529 47.29 -3.065
C 3.237 46.537 -3.532
C 7.184 44.25 -1.087
C 7.229 44.232 0.478
C 5.959 44.982 1.043
C 4.622 44.245 -1.01
C 4.669 44.227 0.554
C 5.881 45.012 -1.561
C 7.305 44.205 3.064
C 4.747 44.2 3.14
C 6.005 44.965 2.609
C 7.108 44.28 -3.671
C 5.834 45.03 -3.127
C 4.543 44.274 -3.595
C -3.115 47.264 -1.244
C -3.032 47.233 1.361
C -2.982 47.214 2.926
C -3.165 47.284 -2.81
C 0.754 46.502 -0.863
C 0.803 46.483 0.701
C -1.81 45.003 -1.312
C -1.727 44.974 1.292
C -0.467 47.232 1.273
C -1.81 46.501 -0.776
C -1.761 46.483 0.788
C -0.55 47.263 -1.332
C 0.886 46.455 3.287
C -1.677 44.957 2.858
C -1.677 46.454 3.374
C -0.417 47.214 2.839
C 0.671 46.533 -3.449
C -1.861 45.021 -2.878
C -0.6 47.283 -2.898
C -1.895 46.532 -3.361
C 2.059 44.241 -0.929
C 2.107 44.223 0.635
C 0.837 44.974 1.205
C -0.505 44.239 -0.844
C -0.456 44.221 0.721
C 0.754 45.004 -1.399
C 2.189 44.196 3.22
C -0.372 44.194 3.305
C 0.887 44.958 2.771
C 1.977 44.27 -3.514
C 0.704 45.022 -2.965
C -0.589 44.268 -3.428
C -8.249 47.279 -1.074
C -8.173 47.248 1.531
C -8.126 47.229 3.097
C -8.295 47.299 -2.639
C -4.377 46.504 -0.688
C -4.328 46.486 0.876
C -6.944 45.014 -1.138
C -6.865 44.985 1.465
C -5.6 47.238 1.448
C -6.945 46.512 -0.603
C -6.898 46.494 0.962
C -5.681 47.269 -1.157
C -4.245 46.457 3.461
C -6.817 44.967 3.031
C -6.819 46.465 3.546
C -5.552 47.219 3.014
C -4.46 46.535 -3.273
C -6.991 45.033 -2.704
C -5.73 47.288 -2.723
C -7.024 46.543 -3.188
C -3.071 44.24 -0.756
C -3.022 44.223 0.809
C -4.294 44.977 1.38
C -5.639 44.246 -0.669
C -5.591 44.229 0.896
C -4.376 45.006 -1.224
C -2.938 44.196 3.393
C -5.509 44.201 3.479
C -4.244 44.959 2.946
C -3.155 44.269 -3.34
C -4.426 45.024 -2.79
C -5.72 44.275 -3.252
C -13.39 47.323 -0.927
C -13.327 47.291 1.676
C -13.289 47.272 3.243
C -13.429 47.343 -2.494
C -9.515 46.526 -0.522
C -9.472 46.508 1.042
C -12.084 45.05 -0.985
C -12.017 45.021 1.618
C -10.748 47.266 1.607
C -12.088 46.548 -0.449
C -12.048 46.53 1.115
C -10.819 47.297 -0.997
C -9.398 46.479 3.626
C -11.977 45.003 3.185
C -11.981 46.501 3.699
C -10.706 47.247 3.174
C -9.589 46.557 -3.107
C -12.124 45.069 -2.551
C -10.861 47.317 -2.563
C -12.155 46.579 -3.034
C -8.208 44.257 -0.585
C -8.163 44.24 0.979
C -9.439 44.999 1.545
C -10.78 44.275 -0.509
C -10.738 44.258 1.056
C -9.513 45.028 -1.058
C -8.086 44.212 3.562
C -10.668 44.231 3.639
C -9.395 44.981 3.112
C -8.285 44.286 -3.169
C -9.557 45.047 -2.624
C -10.851 44.304 -3.092
C -18.539 47.393 -0.815
C -18.492 47.361 1.789
C -18.464 47.342 3.356
C -18.568 47.414 -2.381
C -14.663 46.577 -0.384
C -14.627 46.559 1.18
C -17.231 45.113 -0.863
C -17.18 45.084 1.74
C -15.909 47.324 1.737
C -17.239 46.612 -0.328
C -17.209 46.594 1.237
C -15.964 47.355 -0.866
C -14.568 46.53 3.764
C -17.149 45.066 3.307
C -17.158 46.565 3.82
C -15.876 47.304 3.304
C -14.723 46.608 -2.969
C -17.262 45.133 -2.429
C -15.998 47.376 -2.433
C -17.291 46.644 -2.912
C -13.354 44.301 -0.439
C -13.316 44.284 1.125
C -14.597 45.049 1.684
C -15.93 44.332 -0.378
C -15.897 44.315 1.186
C -14.657 45.079 -0.919
C -13.253 44.256 3.708
C -15.842 44.288 3.769
C -14.562 45.031 3.25
C -13.418 44.33 -3.023
C -14.693 45.098 -2.486
C -15.985 44.362 -2.962
C -19.816 46.651 -0.281
C -19.791 46.633 1.284
C -19.749 46.604 3.867
C -19.859 46.683 -2.866
C -18.507 44.369 -0.327
C -18.478 44.352 1.238
C -19.763 45.122 1.787
C -19.806 45.152 -0.816
C -18.432 44.324 3.82
C -19.738 45.104 3.353
C -18.554 44.399 -2.91
C -19.832 45.172 -2.382
H 26.426 46.481 3.696
H 23.889 46.49 3.733
H 26.321 46.63 -5.201
H 23.749 46.631 -5.165
H 27.719 44.219 3.655
H 25.183 44.227 3.686
H 27.631 44.339 -5.242
H 25.054 44.345 -5.211
H 31.485 46.438 3.669
H 28.963 46.467 3.673
H 31.438 46.572 -5.245
H 28.889 46.612 -5.225
H 32.776 44.175 3.643
H 30.255 44.205 3.638
H 32.76 44.288 -5.271
H 30.206 44.323 -5.259
H 33.966 46.375 3.759
H 33.939 46.5 -5.341
H 35.257 44.109 3.742
H 35.265 44.224 -5.356
H -1.638 46.448 4.455
H -1.93 46.549 -4.443
H -4.207 46.45 4.542
H -6.782 46.458 4.628
H -4.495 46.551 -4.355
H -7.057 46.558 -4.269
H -2.899 44.189 4.474
H -5.471 44.194 4.561
H -3.19 44.285 -4.421
H -5.754 44.289 -4.334
H -9.364 46.472 4.708
H -11.951 46.493 4.78
H -9.619 46.572 -4.189
H -12.182 46.594 -4.116
H -8.05 44.205 4.644
H -10.635 44.223 4.72
H -8.316 44.3 -4.251
H -10.879 44.318 -4.174
H -14.541 46.522 4.845
H -17.135 46.558 4.902
H -14.746 46.624 -4.051
H -17.311 46.66 -3.994
H -13.224 44.248 4.789
H -15.816 44.281 4.85
H -13.442 44.344 -4.105
H -16.007 44.377 -4.044
H -19.731 46.598 4.949
H -19.876 46.7 -3.947
H -18.411 44.318 4.902
H -18.572 44.414 -3.992
H 19.904 44.336 -5.108
H 5.771 46.559 -4.692
H 7.077 44.296 -4.753
H 18.601 46.606 -5.054
H 17.334 44.326 -5.042
H 4.511 44.291 -4.676
H 16.03 46.592 -4.985
H 14.768 44.317 -4.972
H 3.204 46.554 -4.613
H 1.943 44.287 -4.595
H 13.464 46.581 -4.913
H 0.636 46.55 -4.53
H 12.204 44.309 -4.899
H -0.624 44.284 -4.509
H 10.9 46.572 -4.841
H 9.641 44.302 -4.827
H 21.175 46.62 -5.115
H 22.478 44.343 -5.166
H 8.336 46.565 -4.767
H 13.704 46.476 3.987
H 11.148 46.469 4.06
H 22.645 44.23 3.732
H -0.334 44.188 4.386
H 8.591 46.462 4.133
H 20.104 44.229 3.789
H 9.893 44.205 4.072
H 7.336 44.199 4.145
H 3.48 46.452 4.286
H 4.781 44.194 4.221
H 18.808 46.489 3.845
H 16.259 46.483 3.914
H 0.923 46.449 4.368
H 15.005 44.218 3.926
H 12.449 44.212 3.999
H 21.351 46.492 3.783
H 6.035 46.457 4.207
H 17.557 44.224 3.856
H 2.225 44.19 4.302
C -44.248 48.922 0.09
C -44.211 48.906 1.645
C -44.123 48.872 4.335
C -44.297 48.943 -2.597
C -40.453 51.274 -0.008
C -40.424 51.26 1.566
C -43.016 49.724 -0.486
C -42.954 49.701 2.162
C -41.704 51.985 2.137
C -42.991 51.202 0.067
C -42.958 51.188 1.622
C -41.758 52.003 -0.511
C -40.356 51.24 4.155
C -42.911 49.686 3.744
C -42.876 51.159 4.313
C -41.665 51.973 3.719
C -40.493 51.283 -2.596
C -43.047 49.737 -2.068
C -41.784 52.011 -2.092
C -43.035 51.217 -2.619
C -39.143 49.033 -0.045
C -39.114 49.018 1.519
C -40.392 49.753 2.076
C -41.71 48.994 0.011
C -41.676 48.978 1.585
C -40.446 49.775 -0.533
C -39.058 48.998 4.105
C -41.6 48.952 4.174
C -40.353 49.741 3.641
C -39.19 49.054 -2.63
C -40.473 49.784 -2.098
C -41.757 49.011 -2.577
C -39.187 52.054 -0.551
C -39.143 52.037 2.057
C -39.11 52.029 3.623
C -39.21 52.058 -2.116
C -35.317 51.322 -0.092
C -35.299 51.307 1.472
C -37.877 49.809 -0.584
C -37.833 49.787 2.019
C -36.584 52.061 2.011
C -37.886 51.31 -0.056
C -37.863 51.296 1.508
C -36.617 52.08 -0.59
C -35.268 51.288 4.057
C -37.804 49.777 3.584
C -37.817 51.28 4.094
C -36.561 52.052 3.577
C -35.348 51.344 -2.676
C -37.902 49.82 -2.15
C -36.637 52.087 -2.156
C -37.924 51.325 -2.639
C -34.007 49.061 -0.127
C -33.988 49.044 1.437
C -35.272 49.798 1.979
C -36.576 49.056 -0.093
C -36.553 49.041 1.471
C -35.305 49.823 -0.624
C -33.958 49.022 4.023
C -36.512 49.02 4.057
C -35.25 49.787 3.545
C -34.038 49.089 -2.711
C -35.327 49.837 -2.191
C -36.616 49.081 -2.677
C -34.039 52.078 -0.617
C -34.014 52.054 1.985
C -33.999 52.04 3.551
C -34.056 52.091 -2.183
C -30.161 51.297 -0.132
C -30.148 51.277 1.433
C -32.73 49.819 -0.651
C -32.703 49.791 1.952
C -31.437 52.033 1.969
C -32.741 51.315 -0.116
C -32.727 51.298 1.449
C -31.457 52.064 -0.635
C -30.13 51.247 4.018
C -32.688 49.776 3.519
C -32.705 51.272 4.034
C -31.425 52.015 3.535
C -30.183 51.331 -2.717
C -32.747 49.836 -2.218
C -31.472 52.082 -2.201
C -32.765 51.343 -2.7
C -28.856 49.031 -0.167
C -28.841 49.012 1.398
C -30.129 49.772 1.934
C -31.432 49.051 -0.15
C -31.417 49.033 1.414
C -30.152 49.803 -0.67
C -28.821 48.983 3.983
C -31.395 49.007 4
C -30.116 49.754 3.5
C -28.879 49.066 -2.752
C -30.167 49.823 -2.236
C -31.458 49.083 -2.735
C -28.876 52.043 -0.648
C -28.856 52.008 1.956
C -28.844 51.986 3.522
C -28.89 52.064 -2.215
C -25.002 51.239 -0.164
C -24.985 51.217 1.401
C -27.573 49.779 -0.685
C -27.55 49.745 1.919
C -26.272 51.977 1.941
C -27.582 51.271 -0.146
C -27.567 51.251 1.419
C -26.296 52.014 -0.663
C -24.961 51.181 3.986
C -27.537 49.726 3.485
C -27.548 51.216 4.004
C -26.259 51.953 3.507
C -25.03 51.277 -2.75
C -27.589 49.801 -2.252
C -26.312 52.038 -2.23
C -27.604 51.309 -2.731
C -23.7 48.967 -0.205
C -23.681 48.948 1.36
C -24.968 49.712 1.9
C -26.278 49.003 -0.184
C -26.262 48.983 1.381
C -24.996 49.746 -0.704
C -23.653 48.916 3.944
C -26.24 48.953 3.966
C -24.952 49.691 3.467
C -23.731 49.004 -2.79
C -25.013 49.77 -2.27
C -26.303 49.038 -2.768
C -23.718 51.978 -0.685
C -23.687 51.94 1.919
C -23.67 51.915 3.486
C -23.737 52.002 -2.251
C -22.419 49.708 -0.73
C -22.384 49.674 1.874
C -21.102 51.899 1.888
C -22.424 51.2 -0.19
C -22.402 51.179 1.375
C -21.141 51.937 -0.716
C -22.365 49.652 3.441
C -22.371 51.142 3.96
C -21.08 51.873 3.454
C -22.44 49.732 -2.296
C -21.165 51.961 -2.283
C -22.459 51.239 -2.776
C -21.123 48.928 -0.236
C -21.099 48.908 1.329
C -21.063 48.877 3.913
C -21.162 48.964 -2.821
H -35.258 51.287 5.139
H -37.797 51.281 5.176
H -35.362 51.362 -3.757
H -37.944 51.339 -3.721
H -33.948 49.018 5.105
H -36.496 49.018 5.139
H -34.052 49.11 -3.793
H -36.636 49.1 -3.759
H -30.126 51.241 5.1
H -32.699 51.268 5.116
H -30.19 51.354 -3.798
H -32.775 51.364 -3.782
H -28.816 48.978 5.065
H -31.388 49.003 5.082
H -28.886 49.087 -3.834
H -31.467 49.104 -3.817
H -24.954 51.174 5.068
H -27.544 51.21 5.086
H -25.04 51.3 -3.831
H -27.612 51.332 -3.813
H -23.643 48.911 5.026
H -26.233 48.947 5.048
H -23.742 49.024 -3.872
H -26.312 49.06 -3.85
H -22.359 51.134 5.042
H -22.472 51.261 -3.858
H -21.047 48.87 4.995
H -21.177 48.983 -3.903
H -41.77 49.019 -3.659
H -43.018 51.204 -3.701
H -44.279 48.931 -3.679
H -40.504 51.287 -3.678
H -39.215 49.072 -3.711
H -39.034 48.996 5.187
H -41.555 48.94 5.255
H -42.789 51.128 5.391
H -40.313 51.232 5.236
H -44.036 48.838 5.413
C 7.101 51.781 -1.519
C 7.176 51.743 1.088
C 7.221 51.718 2.653
C 7.055 51.803 -3.085
C 10.964 51.033 -1.12
C 11.006 51.01 0.445
C 8.4 49.535 -1.586
C 8.474 49.5 1.02
C 9.736 51.749 1.013
C 8.402 51.025 -1.046
C 8.446 51.003 0.518
C 9.664 51.788 -1.593
C 11.076 50.972 3.034
C 8.519 49.479 2.586
C 8.519 50.966 3.107
C 9.779 51.724 2.579
C 10.893 51.071 -3.706
C 8.355 49.557 -3.152
C 9.619 51.81 -3.159
C 8.327 51.062 -3.633
C 12.264 48.786 -1.185
C 12.305 48.764 0.379
C 11.034 49.507 0.946
C 9.701 48.777 -1.112
C 9.745 48.756 0.453
C 10.963 49.542 -1.66
C 12.375 48.731 2.968
C 9.817 48.724 3.041
C 11.077 49.485 2.512
C 12.193 48.821 -3.771
C 10.919 49.565 -3.226
C 9.628 48.812 -3.698
C 12.228 51.797 -1.666
C 12.296 51.757 0.94
C 12.337 51.731 2.506
C 12.186 51.82 -3.232
C 16.097 51.058 -1.265
C 16.129 51.03 0.299
C 13.527 49.552 -1.733
C 13.594 49.515 0.873
C 14.856 51.767 0.867
C 13.529 51.043 -1.193
C 13.567 51.019 0.371
C 14.795 51.81 -1.739
C 16.189 50.987 2.889
C 13.634 49.493 2.439
C 13.634 50.979 2.961
C 14.894 51.739 2.433
C 16.035 51.1 -3.85
C 13.486 49.575 -3.299
C 14.756 51.834 -3.305
C 13.461 51.082 -3.779
C 17.394 48.811 -1.33
C 17.426 48.784 0.235
C 16.153 49.525 0.8
C 14.828 48.796 -1.259
C 14.866 48.773 0.306
C 16.093 49.566 -1.805
C 17.485 48.746 2.823
C 14.931 48.739 2.895
C 16.19 49.501 2.366
C 17.333 48.851 -3.913
C 16.055 49.59 -3.371
C 14.761 48.833 -3.843
C 17.367 51.829 -1.807
C 17.417 51.779 0.798
C 17.449 51.748 2.364
C 17.334 51.857 -3.373
C 21.239 51.105 -1.382
C 21.254 51.063 0.181
C 18.662 49.585 -1.873
C 18.712 49.537 0.732
C 19.977 51.796 0.74
C 18.668 51.079 -1.33
C 18.692 51.045 0.234
C 19.943 51.859 -1.863
C 21.289 50.999 2.769
C 18.744 49.51 2.298
C 18.741 50.995 2.823
C 20.001 51.757 2.305
C 21.201 51.169 -3.963
C 18.629 49.613 -3.438
C 19.917 51.895 -3.429
C 18.617 51.129 -3.913
C 22.522 48.842 -1.447
C 22.541 48.806 0.117
C 21.269 49.55 0.674
C 19.959 48.827 -1.394
C 19.985 48.796 0.17
C 21.23 49.607 -1.929
C 22.58 48.753 2.705
C 20.035 48.752 2.759
C 21.294 49.516 2.24
C 22.48 48.897 -4.028
C 21.203 49.642 -3.495
C 19.908 48.874 -3.976
C 22.518 51.897 -1.9
C 22.537 51.814 0.7
C 22.552 51.762 2.264
C 22.499 51.946 -3.466
C 26.354 51.124 -1.44
C 26.364 51.071 0.123
C 23.793 49.624 -1.972
C 23.822 49.556 0.63
C 25.092 51.82 0.678
C 23.803 51.126 -1.418
C 23.812 51.076 0.145
C 25.08 51.92 -1.92
C 26.377 50.976 2.708
C 23.841 49.514 2.195
C 23.833 50.994 2.731
C 25.1 51.753 2.24
C 26.325 51.218 -4.02
C 23.771 49.666 -3.538
C 25.064 51.985 -3.486
C 23.775 51.209 -3.996
C 27.632 48.834 -1.513
C 27.648 48.795 0.051
C 26.374 49.549 0.6
C 25.078 48.845 -1.486
C 25.094 48.806 0.078
C 26.348 49.623 -2.002
C 27.667 48.731 2.638
C 25.122 48.746 2.665
C 26.387 49.502 2.164
C 27.599 48.896 -4.094
C 26.328 49.669 -3.568
C 25.044 48.908 -4.066
C 27.627 51.902 -1.94
C 27.645 51.8 0.664
C 27.649 51.728 2.226
C 27.607 51.972 -3.506
C 31.435 51.036 -1.488
C 31.456 50.997 0.069
C 28.903 49.598 -2.027
C 28.93 49.529 0.58
C 30.209 51.763 0.658
C 28.905 51.096 -1.467
C 28.921 51.047 0.107
C 30.18 51.852 -1.991
C 31.458 50.916 2.76
C 28.937 49.482 2.144
C 28.926 50.951 2.695
C 30.212 51.704 2.237
C 31.381 51.1 -4.18
C 28.881 49.642 -3.593
C 30.157 51.909 -3.573
C 28.861 51.18 -4.052
C 32.728 48.761 -1.543
C 32.744 48.732 0.013
C 31.494 49.503 0.581
C 30.191 48.809 -1.537
C 30.209 48.775 0.037
C 31.466 49.562 -2.068
C 32.74 48.673 2.707
C 30.213 48.71 2.627
C 31.497 49.463 2.163
C 32.683 48.801 -4.234
C 31.444 49.598 -3.651
C 30.151 48.86 -4.123
C 1.976 51.77 -1.362
C 2.057 51.733 1.244
C 2.106 51.709 2.81
C 1.927 51.791 -2.928
C 5.84 51.019 -0.971
C 5.886 50.997 0.593
C 3.275 49.523 -1.433
C 3.355 49.489 1.173
C 4.617 51.737 1.164
C 3.278 51.014 -0.892
C 3.325 50.992 0.672
C 4.538 51.775 -1.443
C 5.962 50.96 3.182
C 3.403 49.469 2.739
C 3.405 50.956 3.26
C 4.664 51.713 2.729
C 5.763 51.055 -3.558
C 3.227 49.544 -2.999
C 4.491 51.796 -3.009
C 3.197 51.05 -3.48
C 7.139 48.77 -1.038
C 7.185 48.75 0.527
C 5.915 49.494 1.095
C 4.577 48.765 -0.961
C 4.624 48.744 0.603
C 5.838 49.528 -1.511
C 7.26 48.718 3.115
C 4.703 48.713 3.191
C 5.961 49.473 2.661
C 7.064 48.805 -3.624
C 5.791 49.55 -3.077
C 4.499 48.799 -3.547
C -3.15 51.766 -1.189
C -3.067 51.729 1.417
C -3.017 51.705 2.982
C -3.201 51.787 -2.755
C 0.715 51.01 -0.809
C 0.764 50.988 0.755
C -1.852 49.518 -1.262
C -1.769 49.484 1.343
C -0.504 51.73 1.329
C -1.848 51.008 -0.722
C -1.799 50.986 0.842
C -0.587 51.767 -1.277
C 0.847 50.952 3.343
C -1.718 49.463 2.909
C -1.715 50.951 3.429
C -0.454 51.706 2.895
C 0.632 51.045 -3.397
C -1.903 49.538 -2.828
C -0.637 51.788 -2.843
C -1.932 51.043 -3.31
C 2.015 48.76 -0.88
C 2.063 48.74 0.684
C 0.794 49.485 1.256
C -0.548 48.758 -0.795
C -0.499 48.738 0.77
C 0.712 49.519 -1.349
C 2.145 48.709 3.272
C -0.416 48.707 3.357
C 0.844 49.465 2.822
C 1.933 48.794 -3.466
C 0.662 49.54 -2.915
C -0.632 48.791 -3.381
C -8.28 51.779 -1.019
C -8.204 51.743 1.587
C -8.158 51.717 3.152
C -8.327 51.801 -2.585
C -4.413 51.009 -0.634
C -4.364 50.988 0.93
C -6.983 49.526 -1.089
C -6.904 49.493 1.516
C -5.634 51.733 1.504
C -6.979 51.016 -0.549
C -6.932 50.995 1.015
C -5.715 51.77 -1.102
C -4.281 50.952 3.517
C -6.857 49.472 3.082
C -6.853 50.959 3.602
C -5.585 51.708 3.069
C -4.496 51.045 -3.222
C -7.031 49.548 -2.655
C -5.764 51.791 -2.668
C -7.059 51.051 -3.136
C -3.113 48.758 -0.707
C -3.064 48.738 0.858
C -4.335 49.486 1.431
C -5.68 48.763 -0.62
C -5.632 48.743 0.945
C -4.417 49.519 -1.174
C -2.98 48.707 3.444
C -5.55 48.712 3.531
C -4.285 49.465 2.997
C -3.197 48.791 -3.293
C -4.467 49.54 -2.74
C -5.761 48.796 -3.206
C -13.418 51.822 -0.873
C -13.355 51.785 1.732
C -13.317 51.759 3.298
C -13.457 51.844 -2.439
C -9.548 51.03 -0.469
C -9.504 51.009 1.095
C -12.121 49.562 -0.935
C -12.054 49.528 1.669
C -10.778 51.76 1.663
C -12.119 51.051 -0.396
C -12.079 51.031 1.168
C -10.848 51.797 -0.942
C -9.431 50.972 3.682
C -12.014 49.506 3.235
C -12.013 50.994 3.754
C -10.736 51.734 3.229
C -9.622 51.065 -3.056
C -12.162 49.583 -2.502
C -10.891 51.818 -2.508
C -12.187 51.087 -2.983
C -8.248 48.773 -0.536
C -8.203 48.754 1.028
C -9.477 49.507 1.596
C -10.819 48.791 -0.46
C -10.778 48.772 1.105
C -9.551 49.54 -1.009
C -8.126 48.722 3.614
C -10.707 48.74 3.69
C -9.433 49.485 3.162
C -8.325 48.806 -3.123
C -9.596 49.562 -2.575
C -10.89 48.824 -3.046
C -18.565 51.895 -0.759
C -18.518 51.857 1.846
C -18.49 51.831 3.412
C -18.594 51.918 -2.325
C -14.693 51.081 -0.331
C -14.657 51.06 1.234
C -17.267 49.627 -0.813
C -17.216 49.593 1.791
C -15.935 51.818 1.794
C -17.268 51.118 -0.274
C -17.237 51.096 1.29
C -15.99 51.856 -0.811
C -14.598 51.023 3.819
C -17.186 49.571 3.357
C -17.187 51.059 3.876
C -15.902 51.792 3.359
C -14.753 51.117 -2.918
C -17.299 49.65 -2.38
C -16.025 51.878 -2.378
C -17.321 51.154 -2.861
C -13.393 48.817 -0.391
C -13.355 48.797 1.174
C -14.634 49.557 1.734
C -15.968 48.849 -0.33
C -15.935 48.83 1.235
C -14.693 49.591 -0.87
C -13.292 48.765 3.759
C -15.881 48.798 3.82
C -14.599 49.535 3.3
C -13.457 48.85 -2.977
C -14.73 49.613 -2.436
C -16.024 48.884 -2.915
C -19.845 51.158 -0.227
C -19.82 51.137 1.338
C -19.779 51.1 3.923
C -19.889 51.196 -2.813
C -18.545 48.888 -0.278
C -18.517 48.868 1.287
C -19.8 49.633 1.838
C -19.843 49.667 -0.766
C -18.471 48.836 3.871
C -19.775 49.611 3.404
C -18.593 48.922 -2.863
C -19.869 49.69 -2.332
H 26.381 50.949 3.789
H 23.842 50.973 3.813
H 26.31 51.256 -5.101
H 23.758 51.242 -5.078
H 27.673 48.716 3.72
H 25.135 48.733 3.747
H 27.586 48.921 -5.176
H 25.027 48.932 -5.148
H 31.415 50.865 3.84
H 28.916 50.914 3.776
H 31.296 51.093 -5.259
H 28.827 51.207 -5.133
H 32.685 48.631 3.787
H 30.199 48.687 3.709
H 32.614 48.786 -5.313
H 30.123 48.873 -5.204
H -1.677 50.943 4.511
H -1.969 51.064 -4.391
H -4.244 50.944 4.598
H -6.818 50.95 4.683
H -4.532 51.065 -4.303
H -7.093 51.071 -4.218
H -2.942 48.7 4.525
H -5.513 48.704 4.612
H -3.233 48.81 -4.374
H -5.796 48.813 -4.287
H -9.398 50.963 4.763
H -11.983 50.984 4.836
H -9.653 51.084 -4.138
H -12.215 51.106 -4.065
H -8.092 48.715 4.695
H -10.676 48.732 4.771
H -8.358 48.824 -4.204
H -10.92 48.841 -4.127
H -14.573 51.014 4.901
H -17.166 51.051 4.958
H -14.778 51.136 -3.999
H -17.343 51.174 -3.942
H -13.264 48.757 4.84
H -15.856 48.79 4.901
H -13.483 48.867 -4.058
H -16.047 48.901 -3.997
H -19.761 51.092 5.005
H -19.907 51.217 -3.895
H -18.451 48.829 4.953
H -18.612 48.941 -3.945
H 19.879 48.893 -5.058
H 5.73 51.077 -4.639
H 7.032 48.824 -4.705
H 18.587 51.15 -4.995
H 17.301 48.869 -4.995
H 4.466 48.818 -4.629
H 16.003 51.121 -4.931
H 14.729 48.851 -4.925
H 3.163 51.071 -4.561
H 1.899 48.813 -4.548
H 13.428 51.103 -4.86
H 0.596 51.066 -4.478
H 12.161 48.84 -4.852
H -0.668 48.81 -4.462
H 10.86 51.092 -4.788
H 9.597 48.831 -4.779
H 21.178 51.195 -5.044
H 22.457 48.918 -5.11
H 8.296 51.084 -4.714
H 13.663 50.971 4.042
H 11.106 50.964 4.116
H 22.598 48.743 3.787
H -0.378 48.7 4.438
H 8.549 50.958 4.189
H 20.058 48.744 3.84
H 9.847 48.718 4.123
H 7.291 48.712 4.196
H 3.438 50.948 4.342
H 4.736 48.707 4.273
H 18.765 50.983 3.904
H 16.217 50.978 3.97
H 0.883 50.944 4.424
H 14.961 48.732 3.976
H 12.405 48.725 4.049
H 21.305 50.984 3.85
H 5.993 50.953 4.264
H 17.513 48.739 3.905
H 2.18 48.702 4.353
C -40.497 55.775 -0.015
C -40.48 55.765 1.542
C -40.417 55.747 4.242
C -40.521 55.765 -2.704
C -39.199 53.558 -0.033
C -39.178 53.547 1.54
C -40.459 54.276 2.102
C -41.736 53.483 0.033
C -41.708 53.471 1.589
C -40.502 54.288 -0.547
C -39.12 53.533 4.13
C -41.635 53.449 4.28
C -40.427 54.267 3.686
C -39.228 53.557 -2.621
C -40.521 54.288 -2.129
C -41.771 53.488 -2.651
C -39.269 56.606 -0.601
C -39.252 56.6 2.054
C -39.226 56.596 3.644
C -39.287 56.602 -2.189
C -35.356 55.833 -0.069
C -35.349 55.822 1.497
C -37.932 54.338 -0.572
C -37.903 54.327 2.034
C -36.642 56.592 2.019
C -37.954 55.854 -0.067
C -37.944 55.845 1.513
C -36.655 56.603 -0.591
C -35.334 55.797 4.087
C -37.877 54.319 3.599
C -37.905 55.831 4.097
C -36.626 56.58 3.594
C -35.37 55.834 -2.658
C -37.949 54.335 -2.137
C -36.666 56.594 -2.166
C -37.969 55.837 -2.649
C -34.049 53.573 -0.085
C -34.038 53.559 1.479
C -35.329 54.317 2.01
C -36.63 53.583 -0.066
C -36.615 53.571 1.498
C -35.348 54.335 -0.593
C -34.019 53.534 4.064
C -36.583 53.556 4.082
C -35.313 54.304 3.576
C -34.07 53.593 -2.669
C -35.363 54.34 -2.159
C -36.656 53.591 -2.648
C -34.056 56.562 -0.586
C -34.045 56.54 2.027
C -34.037 56.514 3.598
C -34.065 56.563 -2.159
C -30.173 55.784 -0.07
C -30.164 55.763 1.497
C -32.76 54.317 -0.604
C -32.744 54.289 2.001
C -31.454 56.511 2.032
C -32.761 55.804 -0.068
C -32.754 55.788 1.498
C -31.466 56.544 -0.582
C -30.154 55.711 4.09
C -32.733 54.268 3.567
C -32.746 55.747 4.09
C -31.447 56.475 3.606
C -30.187 55.809 -2.663
C -32.772 54.328 -2.17
C -31.475 56.552 -2.155
C -32.774 55.819 -2.661
C -28.88 53.532 -0.107
C -28.869 53.511 1.458
C -30.158 54.263 1.994
C -31.463 53.554 -0.097
C -31.453 53.536 1.468
C -30.174 54.298 -0.611
C -28.853 53.47 4.044
C -31.439 53.502 4.054
C -30.149 54.236 3.56
C -28.899 53.567 -2.693
C -30.186 54.315 -2.178
C -31.482 53.583 -2.683
C -28.879 56.525 -0.583
C -28.864 56.484 2.031
C -28.856 56.444 3.604
C -28.891 56.537 -2.157
C -25.004 55.726 -0.092
C -24.988 55.701 1.474
C -27.591 54.274 -0.622
C -27.571 54.235 1.984
C -26.273 56.452 2.021
C -27.587 55.759 -0.077
C -27.576 55.735 1.49
C -26.295 56.497 -0.594
C -24.966 55.641 4.067
C -27.56 54.204 3.551
C -27.561 55.678 4.083
C -26.262 56.41 3.594
C -25.03 55.759 -2.686
C -27.605 54.295 -2.188
C -26.309 56.512 -2.167
C -27.607 55.79 -2.67
C -23.718 53.466 -0.142
C -23.699 53.443 1.423
C -24.984 54.2 1.967
C -26.298 53.503 -0.12
C -26.284 53.48 1.444
C -25.01 54.242 -0.638
C -23.672 53.398 4.009
C -26.264 53.436 4.03
C -24.97 54.168 3.534
C -23.749 53.505 -2.729
C -25.027 54.264 -2.205
C -26.322 53.541 -2.707
C -23.712 56.46 -0.614
C -23.683 56.414 2
C -23.667 56.37 3.574
C -23.732 56.476 -2.188
C -22.431 54.202 -0.665
C -22.397 54.16 1.941
C -21.094 56.372 1.968
C -22.422 55.686 -0.119
C -22.401 55.661 1.448
C -21.133 56.417 -0.647
C -22.378 54.127 3.508
C -22.37 55.6 4.041
C -21.073 56.327 3.541
C -22.453 54.224 -2.231
C -21.158 56.433 -2.22
C -22.458 55.719 -2.713
C -21.138 53.425 -0.173
C -21.115 53.401 1.391
C -21.079 53.356 3.977
C -21.178 53.463 -2.761
H -35.336 55.793 5.169
H -37.876 55.826 5.179
H -35.37 55.839 -3.74
H -37.956 55.817 -3.73
H -34.015 53.531 5.146
H -36.571 53.559 5.164
H -34.077 53.61 -3.751
H -36.668 53.603 -3.73
H -30.156 55.696 5.172
H -32.75 55.735 5.172
H -30.192 55.83 -3.745
H -32.776 55.834 -3.742
H -28.851 53.461 5.126
H -31.438 53.494 5.136
H -28.906 53.592 -3.775
H -31.488 53.605 -3.764
H -24.96 55.624 5.149
H -27.559 55.661 5.165
H -25.042 55.782 -3.768
H -27.614 55.813 -3.752
H -23.663 53.387 5.091
H -26.259 53.426 5.112
H -23.761 53.53 -3.811
H -26.331 53.566 -3.789
H -22.359 55.582 5.123
H -22.473 55.741 -3.795
H -21.065 53.345 5.059
H -21.195 53.487 -3.843
H -41.756 53.468 -3.733
H -40.504 55.737 -3.786
H -39.232 53.556 -3.703
H -39.081 53.53 5.211
H -41.548 53.422 5.359
H -40.324 55.726 5.32
C 7.073 56.262 -1.451
C 7.148 56.218 1.167
C 7.192 56.177 2.739
C 7.027 56.274 -3.024
C 10.935 55.519 -1.049
C 10.976 55.492 0.518
C 8.367 54.028 -1.522
C 8.44 53.986 1.086
C 9.707 56.224 1.094
C 8.372 55.511 -0.976
C 8.416 55.485 0.591
C 9.635 56.269 -1.524
C 11.045 55.432 3.115
C 8.484 53.955 2.652
C 8.488 55.426 3.188
C 9.749 56.182 2.667
C 10.864 55.549 -3.644
C 8.322 54.047 -3.089
C 9.592 56.282 -3.097
C 8.298 55.541 -3.572
C 12.231 53.283 -1.123
C 12.27 53.258 0.441
C 11 53.993 1.013
C 9.667 53.275 -1.049
C 9.709 53.25 0.515
C 10.93 54.036 -1.595
C 12.338 53.211 3.032
C 9.78 53.204 3.106
C 11.041 53.961 2.579
C 12.162 53.322 -3.71
C 10.887 54.056 -3.162
C 9.594 53.312 -3.638
C 12.2 56.277 -1.597
C 12.266 56.231 1.021
C 12.306 56.188 2.594
C 12.159 56.29 -3.17
C 16.073 55.545 -1.188
C 16.1 55.513 0.378
C 13.497 54.046 -1.668
C 13.56 54.001 0.94
C 14.826 56.24 0.951
C 13.501 55.529 -1.121
C 13.537 55.501 0.445
C 14.77 56.289 -1.667
C 16.152 55.446 2.976
C 13.598 53.968 2.506
C 13.6 55.439 3.043
C 14.86 56.197 2.524
C 16.019 55.58 -3.782
C 13.457 54.067 -3.234
C 14.734 56.303 -3.24
C 13.436 55.56 -3.716
C 17.373 53.317 -1.26
C 17.397 53.283 0.303
C 16.121 54.012 0.871
C 14.799 53.296 -1.195
C 14.833 53.268 0.369
C 16.069 54.063 -1.737
C 17.446 53.226 2.894
C 14.894 53.218 2.96
C 16.153 53.977 2.437
C 17.322 53.363 -3.846
C 16.035 54.085 -3.303
C 14.736 53.337 -3.782
C 17.348 56.311 -1.725
C 17.387 56.253 0.891
C 17.412 56.206 2.464
C 17.321 56.327 -3.299
C 21.248 55.624 -1.252
C 21.243 55.564 0.312
C 18.65 54.092 -1.792
C 18.683 54.029 0.813
C 19.951 56.273 0.86
C 18.654 55.574 -1.238
C 18.668 55.532 0.328
C 19.939 56.354 -1.752
C 21.245 55.457 2.903
C 18.707 53.986 2.379
C 18.699 55.453 2.924
C 19.963 56.216 2.431
C 21.246 55.699 -3.838
C 18.625 54.12 -3.359
C 19.927 56.379 -3.327
C 18.621 55.619 -3.83
C 22.535 53.393 -1.334
C 22.533 53.334 0.228
C 21.248 54.052 0.78
C 19.953 53.349 -1.31
C 19.964 53.305 0.253
C 21.239 54.14 -1.821
C 22.543 53.234 2.812
C 19.995 53.232 2.841
C 21.26 53.995 2.343
C 22.521 53.485 -3.911
C 21.225 54.184 -3.387
C 19.92 53.412 -3.892
C 22.548 56.431 -1.725
C 22.524 56.307 0.878
C 22.519 56.224 2.445
C 22.551 56.485 -3.296
C 26.433 55.735 -1.161
C 26.405 55.639 0.406
C 23.827 54.204 -1.817
C 23.815 54.081 0.777
C 25.114 56.363 0.954
C 23.853 55.701 -1.217
C 23.829 55.616 0.345
C 25.168 56.545 -1.635
C 26.355 55.424 2.978
C 23.815 53.999 2.338
C 23.798 55.457 2.924
C 25.091 56.238 2.518
C 26.452 55.94 -3.725
C 23.821 54.277 -3.382
C 25.18 56.656 -3.203
C 23.877 55.835 -3.79
C 27.645 53.399 -1.346
C 27.648 53.33 0.225
C 26.376 54.084 0.794
C 25.101 53.423 -1.336
C 25.095 53.353 0.225
C 26.388 54.23 -1.802
C 27.638 53.181 2.809
C 25.089 53.219 2.805
C 26.368 53.979 2.354
C 27.616 53.539 -3.926
C 26.381 54.332 -3.366
C 25.093 53.552 -3.91
C 27.751 56.537 -1.573
C 27.702 56.334 1.043
C 27.662 56.191 2.609
C 27.771 56.687 -3.142
C 28.925 54.163 -1.841
C 28.937 54.025 0.801
C 28.946 55.621 -1.161
C 28.937 55.539 0.39
C 28.926 53.932 2.376
C 28.901 55.343 3.055
C 28.915 54.259 -3.422
C 28.922 55.817 -3.844
C 30.164 53.318 -1.375
C 30.18 53.262 0.181
C 30.178 53.139 2.864
C 30.111 53.429 -4.069
C 1.95 56.25 -1.297
C 2.031 56.208 1.321
C 2.08 56.168 2.893
C 1.901 56.261 -2.87
C 5.811 55.505 -0.902
C 5.856 55.479 0.665
C 3.242 54.016 -1.37
C 3.322 53.975 1.238
C 4.59 56.213 1.242
C 3.25 55.499 -0.824
C 3.297 55.474 0.742
C 4.512 56.256 -1.376
C 5.932 55.421 3.262
C 3.37 53.945 2.804
C 3.376 55.417 3.339
C 4.636 56.172 2.814
C 5.734 55.533 -3.498
C 3.194 54.034 -2.936
C 4.464 56.267 -2.95
C 3.17 55.526 -3.421
C 7.104 53.268 -0.975
C 7.149 53.244 0.589
C 5.881 53.98 1.161
C 4.543 53.262 -0.899
C 4.589 53.238 0.665
C 5.804 54.021 -1.448
C 7.223 53.199 3.179
C 4.667 53.194 3.255
C 5.926 53.95 2.727
C 7.029 53.304 -3.564
C 5.758 54.04 -3.014
C 4.464 53.297 -3.488
C -3.171 56.245 -1.125
C -3.087 56.203 1.493
C -3.037 56.162 3.066
C -3.221 56.256 -2.698
C 0.689 55.494 -0.742
C 0.738 55.47 0.824
C -1.881 54.008 -1.201
C -1.798 53.969 1.407
C -0.527 56.204 1.405
C -1.872 55.492 -0.655
C -1.822 55.467 0.911
C -0.61 56.246 -1.212
C 0.82 55.413 3.421
C -1.748 53.938 2.973
C -1.739 55.41 3.507
C -0.477 56.164 2.978
C 0.606 55.521 -3.339
C -1.932 54.026 -2.767
C -0.661 56.257 -2.786
C -1.957 55.518 -3.252
C 1.981 53.257 -0.819
C 2.03 53.233 0.745
C 0.763 53.971 1.321
C -0.581 53.253 -0.734
C -0.531 53.23 0.83
C 0.681 54.011 -1.287
C 2.11 53.19 3.335
C -0.448 53.187 3.419
C 0.812 53.941 2.887
C 1.9 53.291 -3.408
C 0.63 54.029 -2.854
C -0.665 53.288 -3.323
C -8.291 56.256 -0.954
C -8.215 56.213 1.663
C -8.169 56.17 3.236
C -8.338 56.267 -2.528
C -4.433 55.492 -0.568
C -4.384 55.468 0.999
C -7.007 54.015 -1.027
C -6.928 53.975 1.58
C -5.65 56.205 1.58
C -6.995 55.497 -0.482
C -6.948 55.473 1.084
C -5.731 56.247 -1.037
C -4.301 55.41 3.595
C -6.881 53.943 3.146
C -6.869 55.415 3.68
C -5.601 56.163 3.153
C -4.517 55.519 -3.164
C -7.055 54.033 -2.594
C -5.78 56.259 -2.611
C -7.075 55.525 -3.079
C -3.143 53.252 -0.646
C -3.094 53.229 0.918
C -4.361 53.969 1.495
C -5.707 53.256 -0.559
C -5.659 53.233 1.005
C -4.444 54.009 -1.113
C -3.011 53.186 3.507
C -5.578 53.189 3.594
C -4.312 53.938 3.061
C -3.228 53.287 -3.235
C -4.494 54.027 -2.679
C -5.789 53.29 -3.148
C -13.418 56.297 -0.808
C -13.354 56.254 1.809
C -13.317 56.21 3.382
C -13.457 56.309 -2.382
C -9.559 55.51 -0.402
C -9.515 55.486 1.164
C -12.138 54.049 -0.874
C -12.071 54.008 1.733
C -10.783 56.229 1.74
C -12.125 55.531 -0.329
C -12.085 55.507 1.237
C -10.853 56.272 -0.878
C -9.442 55.426 3.76
C -12.031 53.976 3.299
C -12.019 55.447 3.832
C -10.741 56.186 3.313
C -9.634 55.537 -2.999
C -12.179 54.067 -2.441
C -10.896 56.284 -2.451
C -12.194 55.558 -2.926
C -8.273 53.265 -0.476
C -8.227 53.242 1.088
C -9.498 53.988 1.66
C -10.841 53.282 -0.4
C -10.799 53.259 1.165
C -9.571 54.028 -0.947
C -8.151 53.198 3.676
C -10.729 53.214 3.752
C -9.454 53.955 3.226
C -8.35 53.299 -3.065
C -9.616 54.046 -2.514
C -10.912 53.317 -2.989
C -18.557 56.373 -0.692
C -18.51 56.328 1.924
C -18.483 56.284 3.497
C -18.587 56.387 -2.265
C -14.694 55.561 -0.263
C -14.659 55.536 1.303
C -17.279 54.116 -0.751
C -17.228 54.075 1.856
C -15.93 56.288 1.871
C -17.267 55.599 -0.206
C -17.236 55.574 1.361
C -15.986 56.332 -0.746
C -14.6 55.476 3.897
C -17.198 54.042 3.422
C -17.186 55.514 3.955
C -15.897 56.244 3.444
C -14.756 55.589 -2.86
C -17.311 54.136 -2.318
C -16.021 56.344 -2.32
C -17.321 55.628 -2.802
C -13.411 53.308 -0.33
C -13.374 53.285 1.234
C -14.648 54.038 1.798
C -15.985 53.342 -0.269
C -15.952 53.319 1.295
C -14.707 54.079 -0.809
C -13.311 53.24 3.821
C -15.897 53.273 3.882
C -14.613 54.005 3.365
C -13.476 53.343 -2.919
C -14.744 54.098 -2.375
C -16.042 53.377 -2.858
C -19.843 55.642 -0.157
C -19.817 55.617 1.41
C -19.776 55.556 4.003
C -19.888 55.673 -2.752
C -18.561 53.382 -0.216
C -18.532 53.359 1.348
C -19.811 54.117 1.904
C -19.854 54.159 -0.702
C -18.487 53.313 3.935
C -19.787 54.084 3.47
C -18.609 53.419 -2.804
C -19.881 54.18 -2.269
H 26.31 55.327 4.055
H 23.766 55.392 4.004
H 26.45 56.039 -4.803
H 23.895 55.896 -4.87
H 27.623 53.119 3.89
H 25.081 53.173 3.886
H 27.582 53.596 -5.006
H 25.085 53.608 -4.991
H 28.887 55.238 4.132
H 28.789 55.881 -4.916
H 30.152 53.068 3.943
H 29.999 53.442 -5.145
H -1.702 55.393 4.588
H -1.994 55.538 -4.333
H -4.265 55.392 4.676
H -6.835 55.396 4.761
H -4.554 55.538 -4.246
H -7.111 55.543 -4.16
H -2.974 53.175 4.588
H -5.542 53.177 4.675
H -3.265 53.308 -4.316
H -5.825 53.311 -4.229
H -9.411 55.407 4.841
H -11.991 55.427 4.914
H -9.666 55.555 -4.08
H -12.223 55.576 -4.007
H -8.118 53.186 4.758
H -10.699 53.202 4.834
H -8.384 53.32 -4.147
H -10.943 53.337 -4.07
H -14.576 55.457 4.979
H -17.165 55.495 5.036
H -14.783 55.607 -3.942
H -17.345 55.647 -3.883
H -13.284 53.227 4.903
H -15.874 53.261 4.964
H -13.504 53.363 -4.001
H -16.066 53.398 -3.939
H -19.76 55.537 5.085
H -19.908 55.694 -3.833
H -18.468 53.301 5.017
H -18.63 53.441 -3.886
H 19.899 53.439 -4.974
H 5.701 55.554 -4.579
H 6.997 53.327 -4.645
H 18.601 55.642 -4.911
H 17.292 53.387 -4.927
H 4.431 53.32 -4.569
H 15.988 55.6 -4.863
H 14.703 53.359 -4.863
H 3.135 55.547 -4.502
H 1.864 53.314 -4.489
H 13.403 55.581 -4.797
H 0.569 55.541 -4.42
H 12.129 53.344 -4.792
H -0.702 53.31 -4.404
H 10.832 55.57 -4.725
H 9.562 53.335 -4.719
H 21.245 55.734 -4.92
H 22.51 53.525 -4.993
H 8.266 55.562 -4.653
H 13.628 55.419 4.125
H 11.073 55.413 4.197
H 22.544 53.202 3.893
H -0.412 53.176 4.501
H 8.517 55.408 4.27
H 20.009 53.211 3.923
H 9.81 53.193 4.187
H 7.253 53.188 4.261
H 3.408 55.4 4.42
H 4.699 53.183 4.336
H 18.713 55.427 4.006
H 16.177 55.425 4.057
H 0.855 55.396 4.502
H 14.921 53.206 4.042
H 12.367 53.199 4.114
H 21.239 55.417 3.984
H 5.962 55.404 4.343
H 17.47 53.211 3.975
H 2.145 53.179 4.416
C -39.22 58.117 -0.086
C -39.229 58.109 1.471
C -39.2 58.103 4.208
C -39.232 58.095 -2.817
C -37.955 58.841 -0.664
C -37.955 58.824 2.038
C -37.947 58.819 3.595
C -37.974 58.823 -2.224
C -34.045 58.046 -0.058
C -34.036 58.034 1.522
C -35.315 58.768 2.069
C -36.646 58.114 -0.083
C -36.64 58.104 1.499
C -35.326 58.783 -0.619
C -34.036 57.982 4.136
C -36.631 58.08 4.108
C -35.308 58.745 3.623
C -34.051 58.041 -2.671
C -35.333 58.776 -2.174
C -36.649 58.091 -2.694
C -32.75 58.753 -0.596
C -32.735 58.724 2.097
C -32.73 58.685 3.655
C -32.757 58.754 -2.153
C -28.871 58.009 -0.04
C -28.859 57.985 1.541
C -30.147 58.699 2.109
C -31.458 58.029 -0.044
C -31.448 58.009 1.537
C -30.164 58.739 -0.585
C -28.849 57.908 4.156
C -31.444 57.94 4.153
C -30.141 58.652 3.667
C -28.886 58.024 -2.656
C -30.173 58.745 -2.141
C -31.467 58.035 -2.659
C -27.575 58.717 -0.585
C -27.554 58.67 2.108
C -27.545 58.621 3.665
C -27.587 58.726 -2.142
C -23.696 57.944 -0.068
C -23.677 57.917 1.513
C -24.959 58.635 2.095
C -26.283 57.981 -0.048
C -26.268 57.955 1.533
C -24.987 58.684 -0.599
C -23.651 57.834 4.127
C -26.251 57.874 4.147
C -24.946 58.584 3.652
C -23.727 57.963 -2.684
C -25.003 58.696 -2.156
C -26.305 57.999 -2.664
C -22.402 58.644 -0.626
C -22.367 58.594 2.069
C -22.348 58.542 3.626
C -22.423 58.655 -2.183
C -21.113 57.901 -0.101
C -21.09 57.873 1.48
C -21.054 57.79 4.095
C -21.154 57.918 -2.719
H -34.052 57.977 5.218
H -36.636 58.093 5.19
H -34.047 58.058 -3.753
H -36.624 58.096 -3.776
H -28.852 57.895 5.238
H -31.452 57.93 5.235
H -28.89 58.053 -3.737
H -31.468 58.061 -3.741
H -23.644 57.819 5.209
H -26.249 57.86 5.229
H -23.741 57.993 -3.766
H -26.314 58.03 -3.745
H -21.04 57.775 5.177
H -21.173 57.947 -3.8
H -38.984 57.937 -3.859
H -38.987 58.017 5.266
C 8.344 58.471 -1.487
C 8.419 58.425 1.21
C 8.462 58.376 2.768
C 8.299 58.478 -3.044
C 12.206 57.76 -1.05
C 12.244 57.731 0.531
C 10.977 58.431 1.139
C 9.643 57.752 -0.978
C 9.685 57.724 0.603
C 10.906 58.478 -1.558
C 12.311 57.65 3.151
C 9.756 57.644 3.223
C 11.018 58.381 2.696
C 12.137 57.774 -3.668
C 10.864 58.485 -3.115
C 9.57 57.766 -3.597
C 13.471 58.487 -1.63
C 13.535 58.438 1.068
C 13.572 58.389 2.625
C 13.433 58.494 -3.187
C 17.344 57.792 -1.175
C 17.368 57.755 0.406
C 16.092 58.449 1.003
C 14.772 57.771 -1.12
C 14.804 57.741 0.462
C 16.041 58.502 -1.694
C 17.408 57.667 3.025
C 14.863 57.658 3.082
C 16.122 58.399 2.56
C 17.303 57.81 -3.793
C 16.01 58.508 -3.252
C 14.712 57.786 -3.738
C 18.618 58.531 -1.733
C 18.651 58.463 0.964
C 18.669 58.41 2.519
C 18.601 58.539 -3.293
C 22.534 57.907 -1.138
C 22.525 57.822 0.438
C 21.217 58.487 0.98
C 19.927 57.831 -1.193
C 19.938 57.778 0.387
C 21.21 58.591 -1.71
C 22.487 57.671 3.043
C 19.946 57.673 3.003
C 21.217 58.418 2.533
C 22.574 57.991 -3.744
C 21.212 58.615 -3.271
C 19.92 57.865 -3.81
C 23.833 58.714 -1.578
C 23.801 58.538 1.092
C 23.776 58.43 2.641
C 23.852 58.786 -3.133
C 27.815 58.038 -0.801
C 27.774 57.906 0.778
C 26.473 58.645 1.328
C 25.188 58.049 -0.977
C 25.151 57.924 0.592
C 26.56 58.906 -1.276
C 27.633 57.612 3.352
C 25.058 57.685 3.174
C 26.403 58.483 2.898
C 27.906 58.333 -3.368
C 26.604 59.07 -2.849
C 25.265 58.248 -3.557
C 3.222 58.459 -1.339
C 3.304 58.414 1.358
C 3.351 58.368 2.915
C 3.174 58.464 -2.896
C 7.081 57.745 -0.906
C 7.126 57.718 0.675
C 5.861 58.419 1.283
C 4.521 57.739 -0.832
C 4.568 57.713 0.749
C 5.782 58.465 -1.414
C 7.2 57.639 3.295
C 4.645 57.635 3.368
C 5.907 58.372 2.84
C 7.006 57.758 -3.525
C 5.736 58.47 -2.972
C 4.442 57.75 -3.451
C -1.896 58.451 -1.171
C -1.811 58.406 1.527
C -1.761 58.359 3.083
C -1.947 58.456 -2.728
C 1.961 57.734 -0.753
C 2.01 57.708 0.828
C 0.746 58.41 1.44
C -0.598 57.73 -0.668
C -0.549 57.704 0.912
C 0.662 58.454 -1.257
C 2.091 57.631 3.447
C -0.465 57.627 3.531
C 0.795 58.363 2.997
C 1.879 57.744 -3.372
C 0.612 58.458 -2.815
C -0.683 57.74 -3.288
C -7.01 58.456 -0.996
C -6.93 58.41 1.702
C -6.883 58.36 3.259
C -7.058 58.462 -2.554
C -3.157 57.728 -0.581
C -3.108 57.702 1
C -4.37 58.406 1.615
C -5.715 57.73 -0.493
C -5.668 57.704 1.088
C -4.454 58.451 -1.082
C -3.023 57.624 3.619
C -5.585 57.625 3.707
C -4.321 58.357 3.172
C -3.243 57.738 -3.2
C -4.504 58.456 -2.64
C -5.799 57.741 -3.113
C -12.124 58.488 -0.844
C -12.056 58.441 1.855
C -12.016 58.39 3.412
C -12.165 58.494 -2.401
C -8.274 57.738 -0.41
C -8.229 57.712 1.171
C -9.491 58.421 1.782
C -10.834 57.754 -0.333
C -10.792 57.728 1.248
C -9.566 58.467 -0.916
C -8.152 57.632 3.79
C -10.722 57.647 3.867
C -9.448 58.371 3.339
C -8.353 57.749 -3.03
C -9.611 58.474 -2.474
C -10.907 57.765 -2.954
C -17.251 58.555 -0.718
C -17.198 58.507 1.979
C -17.168 58.456 3.537
C -17.283 58.563 -2.275
C -13.397 57.779 -0.264
C -13.359 57.753 1.318
C -14.624 58.47 1.921
C -15.964 57.814 -0.201
C -15.931 57.787 1.38
C -14.685 58.517 -0.777
C -13.297 57.672 3.936
C -15.876 57.706 3.997
C -14.589 58.419 3.478
C -13.463 57.791 -2.884
C -14.722 58.524 -2.335
C -16.022 57.827 -2.821
C -18.536 57.856 -0.146
C -18.507 57.829 1.435
C -19.779 58.55 2.03
C -19.823 58.599 -0.666
C -18.462 57.746 4.051
C -19.755 58.498 3.587
C -18.586 57.871 -2.765
C -19.85 58.609 -2.223
H 27.536 57.429 4.414
H 24.951 57.576 4.246
H 27.982 58.512 -4.432
H 25.344 58.356 -4.63
H -2.987 57.611 4.701
H -5.55 57.611 4.788
H -3.281 57.764 -4.281
H -5.836 57.767 -4.194
H -8.12 57.617 4.872
H -10.693 57.632 4.948
H -8.388 57.775 -4.111
H -10.938 57.79 -4.035
H -13.271 57.656 5.017
H -15.853 57.69 5.079
H -13.492 57.815 -3.966
H -16.049 57.852 -3.903
H -18.442 57.73 5.133
H -18.609 57.897 -3.847
H 19.918 57.896 -4.891
H 6.974 57.786 -4.606
H 17.279 57.836 -4.875
H 4.409 57.777 -4.532
H 14.68 57.813 -4.819
H 1.843 57.771 -4.453
H 12.104 57.802 -4.749
H -0.721 57.766 -4.369
H 9.538 57.794 -4.678
H 22.612 58.042 -4.824
H 22.443 57.62 4.123
H -0.429 57.614 4.613
H 19.942 57.646 4.084
H 9.785 57.63 4.304
H 7.229 57.626 4.376
H 4.676 57.622 4.45
H 14.89 57.642 4.164
H 12.34 57.635 4.233
H 17.426 57.648 4.107
H 2.124 57.619 4.528
H -57.692 26.576 -0.053
H -57.626 26.549 2.127
H -56.374 28.836 2.12
H -56.441 28.864 -0.061
H -57.562 26.526 4.291
H -56.309 28.812 4.285
H 32.33 51.557 -1.804
H 32.358 51.507 0.38
H 32.37 51.455 2.542
H 32.31 51.618 -3.985
H 33.622 49.284 -1.856
H 33.642 49.247 0.327
H 33.656 49.208 2.497
H 33.604 49.33 -4.027
H -68.958 6.145 -0.028
H -68.916 5.992 2.147
H -68.893 5.864 4.352
H -68.98 6.272 -2.156
H -70.251 3.815 1.912
H -70.25 3.98 -0.257
H -70.273 3.673 4.13
H -70.236 4.118 -2.367
H -56.507 28.897 -2.222
H -42.65 53.985 -0.254
H -42.607 53.97 1.926
H -41.397 56.234 1.875
H -41.427 56.242 -0.31
H -42.573 53.956 4.097
H -41.376 56.216 4.063
H -42.688 54.006 -2.403
H -41.455 56.254 -2.461
H 45.433 28.745 0.181
H 45.449 28.781 -1.997
H 45.419 28.712 2.354
H 45.464 28.82 -4.157
H 46.747 26.457 0.148
H 46.76 26.493 -2.03
H 46.736 26.424 2.32
H 46.773 26.531 -4.192
H -53.939 33.437 -0.078
H -53.87 33.409 2.103
H -53.804 33.384 4.269
H -54.006 33.472 -2.237
H -52.687 35.724 -0.089
H -55.122 31.122 2.112
H -55.19 31.151 -0.069
H -55.057 31.098 4.277
H -55.257 31.185 -2.229
H 58.568 5.929 -2.227
H 58.537 5.892 -0.046
H 58.499 5.837 2.119
H 58.605 5.979 -4.42
H 29.869 55.984 0.712
H 59.8 3.601 2.208
H 29.867 56.103 -1.462
H 60.033 3.8 -4.313
H 29.829 55.852 2.83
H 29.896 56.257 -3.674
H 31.089 53.76 0.493
H 31.062 53.834 -1.689
H 31.085 53.685 2.64
H 31.056 53.924 -3.89
H -67.692 8.359 0.079
H -67.629 8.245 2.257
H -66.369 10.526 2.28
H -66.439 10.6 0.101
H -67.585 8.146 4.438
H -66.313 10.456 4.447
H -67.735 8.465 -2.065
H -66.496 10.679 -2.055
H 59.947 3.73 -2.121
H 59.878 3.672 0.051
H 42.821 33.353 -1.944
H 42.802 33.319 0.234
H 42.786 33.287 2.407
H 42.838 33.391 -4.102
H 44.135 31.068 -1.968
H 44.118 31.033 0.21
H 44.103 31 2.381
H 44.152 31.107 -4.128
H -52.619 35.695 2.091
H -51.367 37.982 2.078
H -51.435 38.01 -0.103
H -52.553 35.671 4.257
H -51.301 37.957 4.245
H -52.754 35.758 -2.248
H -51.501 38.044 -2.26
H 55.914 10.43 -0.083
H 55.919 10.458 -2.265
H 55.924 10.491 -4.439
H 57.221 8.153 -0.082
H 57.234 8.182 -2.264
H 57.204 8.112 2.087
H 57.249 8.22 -4.446
H 55.908 10.397 2.088
H -63.944 15.138 0.046
H -63.873 15.107 2.226
H -63.808 15.075 4.386
H -64.011 15.181 -2.115
H -65.12 12.816 2.26
H -65.191 12.862 0.08
H -65.058 12.769 4.42
H -65.255 12.919 -2.081
H 40.171 37.884 0.268
H 40.187 37.916 -1.911
H 40.158 37.853 2.443
H 40.2 37.953 -4.067
H 41.486 35.602 0.254
H 41.504 35.636 -1.925
H 41.471 35.571 2.429
H 41.521 35.674 -4.081
H -50.115 40.268 2.062
H -50.182 40.295 -0.118
H -50.051 40.243 4.229
H -50.247 40.329 -2.275
H -48.928 42.58 -0.135
H -48.863 42.553 2.045
H -48.802 42.529 4.212
H -48.991 42.614 -2.292
H 53.302 15.035 -2.218
H 53.302 15.006 -0.038
H 53.3 14.977 2.134
H 53.303 15.067 -4.387
H 54.61 12.744 -2.247
H 54.609 12.716 -0.066
H 54.607 12.686 2.105
H 54.611 12.776 -4.418
H -62.695 17.422 0.014
H -62.626 17.397 2.194
H -61.378 19.687 2.168
H -61.445 19.71 -0.012
H -62.561 17.372 4.355
H -61.313 19.664 4.331
H -62.763 17.459 -2.148
H -61.512 19.744 -2.174
H 37.552 42.468 -1.898
H 37.547 42.439 0.282
H 37.544 42.41 2.457
H 37.554 42.504 -4.059
H 38.869 40.193 -1.904
H 38.858 40.163 0.276
H 38.849 40.133 2.451
H 38.877 40.23 -4.062
H -47.673 44.865 -0.154
H -47.612 44.839 2.027
H -46.359 47.123 2.008
H -46.417 47.148 -0.172
H -47.553 44.815 4.193
H -46.305 47.101 4.174
H -47.734 44.898 -2.31
H -46.475 47.18 -2.327
H 50.683 19.587 0.035
H 50.688 19.62 -2.144
H 50.679 19.556 2.208
H 50.692 19.656 -4.309
H 51.993 17.296 -0.003
H 51.995 17.327 -2.182
H 51.991 17.266 2.17
H 51.997 17.361 -4.349
H -58.943 24.288 -0.044
H -58.878 24.262 2.137
H -58.813 24.24 4.3
H -59.009 24.321 -2.205
H -60.129 21.975 2.15
H -60.194 21.999 -0.031
H -60.064 21.953 4.312
H -60.26 22.032 -2.193
H 34.937 46.982 0.303
H 34.927 47.012 -1.88
H 34.947 46.949 2.477
H 34.914 47.051 -4.046
H 36.24 44.712 0.29
H 36.237 44.741 -1.892
H 36.243 44.682 2.465
H 36.232 44.777 -4.056
H -45.107 49.406 1.987
H -45.161 49.429 -0.193
H -45.057 49.386 4.153
H -45.214 49.46 -2.347
H -43.904 51.709 -0.218
H -43.854 51.689 1.962
H -43.811 51.672 4.13
H -43.951 51.736 -2.369
H 48.07 24.203 -2.067
H 48.06 24.167 0.111
H 48.052 24.135 2.282
H 48.08 24.241 -4.231
H 49.379 21.912 -2.106
H 49.373 21.877 0.073
H 49.366 21.845 2.244
H 49.386 21.949 -4.271
H -57.758 26.609 -2.215
H -35.274 59.82 -0.315
H -35.25 59.809 1.781
H -35.251 59.755 4.007
H -35.283 59.793 -2.541
H -30.162 59.775 -0.273
H -30.141 59.746 1.836
H -32.749 59.791 -0.288
H -32.725 59.77 1.82
H -30.134 59.66 4.061
H -32.721 59.694 4.045
H -30.172 59.767 -2.497
H -32.756 59.774 -2.512
H -24.973 59.72 -0.284
H -24.95 59.683 1.825
H -27.568 59.752 -0.271
H -27.546 59.718 1.837
H -24.932 59.59 4.048
H -27.535 59.628 4.061
H -24.995 59.718 -2.509
H -27.582 59.749 -2.496
H -22.384 59.679 -0.311
H -22.356 59.642 1.799
H -22.33 59.548 4.023
H -22.413 59.677 -2.537
H -19.802 59.634 -0.352
H -19.769 59.597 1.758
H -19.734 59.505 3.983
H -19.84 59.631 -2.579
H 10.91 59.514 -1.244
H 10.964 59.477 0.865
H 8.348 59.507 -1.173
H 8.407 59.471 0.936
H 11.025 59.388 3.094
H 8.47 59.383 3.164
H 10.849 59.507 -3.472
H 8.284 59.499 -3.401
H 16.037 59.538 -1.383
H 16.078 59.495 0.728
H 13.473 59.523 -1.316
H 13.521 59.485 0.794
H 16.126 59.406 2.957
H 13.578 59.395 3.023
H 15.99 59.529 -3.61
H 13.416 59.515 -3.544
H 21.168 59.626 -1.398
H 21.204 59.535 0.711
H 18.601 59.568 -1.424
H 18.638 59.509 0.687
H 21.208 59.423 2.935
H 18.669 59.417 2.915
H 21.168 59.637 -3.623
H 18.574 59.56 -3.651
H 23.749 59.739 -1.242
H 23.768 59.592 0.851
H 23.73 59.425 3.064
H 23.774 59.816 -3.457
H 5.787 59.501 -1.102
H 5.849 59.465 1.007
H 3.228 59.495 -1.027
H 3.292 59.46 1.081
H 5.915 59.379 3.235
H 3.36 59.375 3.31
H 5.721 59.491 -3.331
H 3.159 59.484 -3.256
H 0.669 59.49 -0.946
H 0.734 59.455 1.163
H -1.888 59.487 -0.859
H -1.824 59.452 1.25
H 0.805 59.371 3.391
H -1.751 59.367 3.478
H 0.597 59.479 -3.175
H -1.962 59.476 -3.088
H -4.444 59.487 -0.77
H -4.381 59.452 1.34
H -6.998 59.491 -0.683
H -6.938 59.457 1.427
H -4.309 59.365 3.568
H -6.869 59.367 3.655
H -4.517 59.477 -2.999
H -7.068 59.483 -2.912
H -9.552 59.503 -0.603
H -9.495 59.468 1.508
H -12.107 59.523 -0.531
H -12.055 59.488 1.581
H -9.432 59.378 3.736
H -11.998 59.397 3.808
H -9.618 59.494 -2.833
H -12.167 59.515 -2.761
H -14.665 59.553 -0.465
H -14.619 59.517 1.647
H -17.229 59.591 -0.405
H -17.19 59.554 1.706
H -14.569 59.426 3.873
H -17.147 59.463 3.932
H -14.718 59.545 -2.694
H -17.275 59.584 -2.633
C -53.978 -5.938 1.419
C -53.987 -5.781 -1.173
C -53.994 -5.693 -2.733
C -53.97 -6.036 2.979
C -50.141 -5.141 0.925
C -50.156 -5.055 -0.646
C -51.439 -5.802 -1.192
C -52.697 -5.132 0.954
C -52.706 -5.04 -0.617
C -51.419 -5.951 1.4
C -50.186 -4.923 -3.214
C -52.725 -4.901 -3.185
C -51.453 -5.719 -2.752
C -50.111 -5.299 3.489
C -51.404 -6.045 2.96
C -52.677 -5.298 3.518
C -48.861 -5.957 1.369
C -48.89 -5.817 -1.223
C -48.909 -5.737 -2.784
C -48.841 -6.047 2.929
C -45.031 -5.145 0.845
C -45.052 -5.069 -0.727
C -46.338 -5.826 -1.261
C -47.586 -5.145 0.887
C -47.605 -5.064 -0.685
C -46.305 -5.959 1.331
C -45.092 -4.952 -3.294
C -47.641 -4.94 -3.252
C -46.361 -5.75 -2.822
C -44.991 -5.286 3.408
C -46.282 -6.044 2.891
C -47.549 -5.294 3.451
C -43.748 -5.957 1.29
C -43.785 -5.832 -1.301
C -43.809 -5.76 -2.862
C -43.724 -6.038 2.851
C -39.918 -5.141 0.758
C -39.941 -5.072 -0.814
C -41.229 -5.835 -1.342
C -42.475 -5.144 0.801
C -42.498 -5.071 -0.771
C -41.191 -5.954 1.25
C -39.981 -4.967 -3.38
C -42.538 -4.961 -3.337
C -41.253 -5.766 -2.903
C -39.877 -5.27 3.322
C -41.167 -6.032 2.811
C -42.434 -5.278 3.365
C -38.633 -5.951 1.209
C -38.672 -5.835 -1.382
C -38.695 -5.769 -2.943
C -38.609 -6.026 2.77
C -34.799 -5.137 0.678
C -34.822 -5.069 -0.894
C -36.112 -5.834 -1.421
C -37.359 -5.139 0.717
C -37.382 -5.071 -0.855
C -36.074 -5.948 1.17
C -34.859 -4.969 -3.459
C -37.421 -4.969 -3.421
C -36.135 -5.769 -2.983
C -34.761 -5.261 3.242
C -36.051 -6.021 2.731
C -37.32 -5.264 3.281
C -33.513 -5.946 1.132
C -33.55 -5.832 -1.459
C -33.572 -5.767 -3.021
C -33.49 -6.02 2.693
C -29.67 -5.138 0.607
C -29.692 -5.069 -0.965
C -30.986 -5.83 -1.496
C -32.236 -5.136 0.641
C -32.258 -5.068 -0.931
C -30.949 -5.946 1.095
C -29.726 -4.963 -3.53
C -32.294 -4.966 -3.496
C -31.007 -5.764 -3.057
C -29.637 -5.266 3.171
C -30.928 -6.02 2.656
C -32.2 -5.262 3.205
C -28.382 -5.948 1.06
C -28.418 -5.829 -1.531
C -28.439 -5.761 -3.092
C -28.362 -6.025 2.621
C -24.529 -5.15 0.543
C -24.551 -5.077 -1.029
C -25.848 -5.831 -1.565
C -27.102 -5.142 0.575
C -27.123 -5.071 -0.997
C -25.812 -5.953 1.026
C -24.584 -4.964 -3.594
C -27.156 -4.962 -3.562
C -25.868 -5.76 -3.125
C -24.495 -5.286 3.106
C -25.792 -6.031 2.587
C -27.068 -5.275 3.138
C -23.238 -5.96 0.992
C -23.274 -5.835 -1.599
C -23.295 -5.763 -3.16
C -23.217 -6.04 2.552
C -20.697 -5.843 -1.636
C -21.953 -5.16 0.509
C -21.975 -5.086 -1.064
C -20.66 -5.968 0.955
C -22.01 -4.972 -3.628
C -20.719 -5.771 -3.196
C -20.638 -6.049 2.516
C -21.917 -5.298 3.072
C -59.105 -5.88 1.402
C -59.084 -5.706 -1.19
C -59.072 -5.61 -2.75
C -59.114 -5.986 2.96
C -55.254 -5.115 0.968
C -55.256 -5.018 -0.603
C -56.535 -5.75 -1.172
C -57.814 -5.088 0.962
C -57.807 -4.985 -0.609
C -56.54 -5.915 1.421
C -55.261 -4.87 -3.171
C -57.794 -4.829 -3.177
C -56.533 -5.658 -2.731
C -55.248 -5.29 3.532
C -56.54 -6.017 2.98
C -57.824 -5.273 3.525
C -64.249 -5.773 1.313
C -64.196 -5.581 -1.284
C -64.158 -5.474 -2.843
C -64.272 -5.885 2.869
C -60.377 -5.05 0.936
C -60.362 -4.941 -0.635
C -61.638 -5.649 -1.228
C -62.948 -5.001 0.892
C -62.922 -4.885 -0.678
C -61.674 -5.832 1.363
C -60.33 -4.775 -3.203
C -62.869 -4.708 -3.247
C -61.613 -5.549 -2.787
C -60.403 -5.243 3.498
C -61.692 -5.941 2.921
C -62.985 -5.201 3.454
C -65.526 -4.946 0.84
C -65.491 -4.823 -0.741
C -66.76 -5.512 -1.37
C -68.075 -4.886 0.763
C -68.032 -4.754 -0.799
C -66.826 -5.718 1.268
C -65.412 -4.631 -3.313
C -67.933 -4.547 -3.477
C -66.713 -5.397 -2.945
C -65.57 -5.15 3.406
C -66.858 -5.837 2.839
C -68.137 -5.106 3.422
H -34.874 -4.945 -4.541
H -37.437 -4.946 -4.502
H -34.744 -5.338 4.321
H -37.302 -5.342 4.36
H -29.739 -4.935 -4.611
H -32.308 -4.941 -4.578
H -29.622 -5.346 4.25
H -32.185 -5.339 4.284
H -24.597 -4.931 -4.675
H -27.169 -4.931 -4.643
H -24.481 -5.372 4.184
H -27.055 -5.358 4.217
H -22.024 -4.938 -4.71
H -21.902 -5.387 4.15
H -62.844 -4.647 -4.327
H -63.008 -5.324 4.529
H -65.362 -4.555 -4.391
H -67.834 -4.445 -4.549
H -65.582 -5.267 4.481
H -68.132 -5.214 4.498
H -55.247 -5.399 4.608
H -42.415 -5.361 4.444
H -44.972 -5.374 4.487
H -57.833 -5.387 4.601
H -47.532 -5.386 4.529
H -60.421 -5.362 4.573
H -50.096 -5.396 4.567
H -39.859 -5.35 4.401
H -52.668 -5.401 4.595
H -47.658 -4.904 -4.333
H -50.2 -4.884 -4.295
H -52.734 -4.858 -4.266
H -57.786 -4.779 -4.258
H -42.555 -4.933 -4.419
H -45.109 -4.921 -4.375
H -60.313 -4.72 -4.284
H -39.998 -4.942 -4.461
H -55.262 -4.824 -4.252
C 7.676 -5.945 0.53
C 7.638 -5.913 -2.07
C 7.614 -5.9 -3.632
C 7.702 -5.97 2.092
C 11.515 -5.16 -0.038
C 11.492 -5.149 -1.612
C 10.202 -5.915 -2.107
C 8.952 -5.166 0.003
C 8.929 -5.15 -1.571
C 10.239 -5.937 0.493
C 11.451 -5.15 -4.187
C 8.889 -5.141 -4.146
C 10.177 -5.907 -3.67
C 11.558 -5.19 2.536
C 10.265 -5.956 2.055
C 8.995 -5.205 2.577
C 12.802 -5.93 0.455
C 12.764 -5.916 -2.145
C 12.74 -5.914 -3.707
C 12.827 -5.943 2.017
C 16.638 -5.149 -0.121
C 16.615 -5.147 -1.695
C 15.325 -5.917 -2.183
C 14.077 -5.154 -0.079
C 14.054 -5.148 -1.654
C 15.364 -5.922 0.417
C 16.575 -5.165 -4.27
C 14.013 -5.158 -4.229
C 15.301 -5.92 -3.746
C 16.681 -5.161 2.453
C 15.389 -5.931 1.979
C 14.12 -5.175 2.495
C 17.925 -5.916 0.379
C 17.887 -5.918 -2.222
C 17.863 -5.925 -3.784
C 17.951 -5.92 1.941
C 21.762 -5.138 -0.203
C 21.739 -5.144 -1.778
C 20.449 -5.918 -2.26
C 19.2 -5.143 -0.162
C 19.177 -5.146 -1.737
C 20.487 -5.909 0.34
C 21.699 -5.174 -4.353
C 19.137 -5.171 -4.312
C 20.425 -5.928 -3.823
C 21.803 -5.138 2.37
C 20.513 -5.91 1.902
C 19.242 -5.149 2.411
C 23.093 -2.896 2.425
C 23.05 -5.904 0.301
C 23.011 -5.916 -2.299
C 22.988 -5.93 -3.862
C 23.074 -5.902 1.863
C 26.887 -5.129 -0.283
C 26.864 -5.136 -1.857
C 25.574 -5.913 -2.338
C 24.325 -5.134 -0.244
C 24.301 -5.141 -1.818
C 25.612 -5.899 0.262
C 26.828 -5.171 -4.431
C 24.263 -5.175 -4.393
C 25.551 -5.928 -3.9
C 26.926 -5.125 2.291
C 25.636 -5.896 1.824
C 24.365 -5.13 2.33
C 25.652 -2.889 2.382
C 28.175 -5.895 0.224
C 28.137 -5.908 -2.376
C 28.116 -5.922 -3.938
C 28.198 -5.892 1.786
C 32.013 -5.121 -0.354
C 31.991 -5.125 -1.928
C 30.701 -5.902 -2.413
C 29.45 -5.125 -0.319
C 29.428 -5.131 -1.894
C 30.738 -5.892 0.187
C 31.958 -5.152 -4.503
C 29.393 -5.163 -4.468
C 30.68 -5.914 -3.976
C 32.048 -5.124 2.22
C 30.76 -5.891 1.749
C 29.487 -5.123 2.254
C 33.301 -5.889 0.151
C 33.264 -5.894 -2.449
C 33.244 -5.902 -4.011
C 33.322 -5.892 1.713
C 35.826 -5.884 -2.483
C 34.576 -5.118 -0.385
C 34.554 -5.117 -1.96
C 35.863 -5.887 0.117
C 34.523 -5.137 -4.535
C 35.807 -5.888 -4.046
C 35.884 -5.894 1.679
C 34.61 -5.127 2.188
C 2.545 -5.962 0.607
C 2.507 -5.91 -1.992
C 2.482 -5.883 -3.554
C 2.572 -6 2.169
C 6.389 -5.172 0.045
C 6.365 -5.15 -1.53
C 5.074 -5.912 -2.031
C 3.823 -5.179 0.087
C 3.8 -5.151 -1.487
C 5.111 -5.954 0.568
C 6.325 -5.132 -4.104
C 3.758 -5.122 -4.061
C 5.049 -5.892 -3.593
C 6.432 -5.222 2.618
C 5.138 -5.984 2.13
C 3.868 -5.239 2.66
C -2.596 -5.979 0.687
C -2.635 -5.904 -1.91
C -2.66 -5.864 -3.472
C -2.569 -6.031 2.248
C 1.256 -5.186 0.131
C 1.232 -5.152 -1.443
C -0.063 -5.907 -1.952
C -1.315 -5.192 0.176
C -1.338 -5.151 -1.398
C -0.024 -5.971 0.647
C 1.19 -5.111 -4.016
C -1.381 -5.098 -3.97
C -0.088 -5.874 -3.513
C 1.301 -5.257 2.703
C 0.003 -6.016 2.208
C -1.269 -5.276 2.747
C -7.75 -5.991 0.765
C -7.788 -5.893 -1.83
C -7.812 -5.84 -3.391
C -7.724 -6.056 2.326
C -3.888 -5.198 0.221
C -3.912 -5.15 -1.352
C -5.21 -5.899 -1.87
C -6.465 -5.201 0.266
C -6.488 -5.147 -1.308
C -5.172 -5.986 0.726
C -3.954 -5.085 -3.924
C -6.529 -5.07 -3.878
C -5.235 -5.852 -3.431
C -3.842 -5.293 2.791
C -5.145 -6.045 2.288
C -6.42 -5.308 2.834
C -12.914 -5.99 0.841
C -12.952 -5.876 -1.752
C -12.975 -5.812 -3.313
C -12.889 -6.065 2.401
C -9.044 -5.202 0.308
C -9.067 -5.142 -1.265
C -10.369 -5.886 -1.791
C -11.626 -5.198 0.35
C -11.649 -5.134 -1.223
C -10.331 -5.992 0.803
C -9.107 -5.055 -3.834
C -11.688 -5.037 -3.791
C -10.393 -5.826 -3.352
C -9.001 -5.319 2.876
C -10.306 -6.063 2.364
C -11.584 -5.325 2.916
C -18.08 -5.977 0.917
C -18.117 -5.853 -1.674
C -18.14 -5.783 -3.235
C -18.057 -6.057 2.478
C -14.209 -5.192 0.391
C -14.231 -5.123 -1.182
C -15.535 -5.865 -1.713
C -16.792 -5.182 0.431
C -16.814 -5.111 -1.141
C -15.497 -5.985 0.879
C -14.27 -5.019 -3.749
C -16.852 -5.001 -3.707
C -15.558 -5.797 -3.274
C -14.168 -5.325 2.956
C -15.473 -6.063 2.439
C -16.752 -5.32 2.995
C -19.373 -5.171 0.471
C -19.396 -5.098 -1.101
C -19.433 -4.985 -3.666
C -19.336 -5.31 3.035
H 26.814 -5.22 -5.512
H 24.248 -5.223 -5.473
H 26.944 -5.139 3.373
H 24.383 -5.145 3.411
H 25.67 -3.128 3.437
H 31.947 -5.196 -5.584
H 29.38 -5.211 -5.549
H 32.065 -5.142 3.301
H 29.504 -5.138 3.336
H 34.513 -5.178 -5.616
H 34.625 -5.15 3.269
H -1.395 -5.101 -5.052
H -1.245 -5.337 3.827
H -3.968 -5.08 -5.006
H -6.543 -5.059 -4.96
H -3.819 -5.361 3.871
H -6.397 -5.383 3.913
H -9.12 -5.038 -4.916
H -11.701 -5.015 -4.873
H -8.979 -5.399 3.954
H -11.563 -5.409 3.994
H -14.284 -4.993 -4.83
H -16.867 -4.971 -4.788
H -14.148 -5.412 4.034
H -16.734 -5.408 4.074
H -19.447 -4.952 -4.748
H -19.319 -5.4 4.113
H 6.453 -5.265 3.699
H 19.262 -5.168 3.493
H 16.701 -5.185 3.535
H 3.89 -5.287 3.74
H 14.139 -5.204 3.576
H 1.324 -5.312 3.783
H 11.578 -5.223 3.617
H 21.822 -5.155 3.452
H 23.113 -3.136 3.479
H 9.016 -5.243 3.658
H 13.998 -5.192 -5.31
H 11.437 -5.179 -5.269
H 8.875 -5.166 -5.228
H 3.744 -5.137 -5.143
H 19.121 -5.214 -5.393
H 16.559 -5.204 -5.351
H 1.175 -5.119 -5.098
H 21.684 -5.221 -5.433
H 6.31 -5.152 -5.186
C 37.139 -5.115 -0.416
C 37.116 -5.11 -1.991
C 37.086 -5.121 -4.565
C 37.172 -5.133 2.158
C 38.425 -5.886 0.083
C 38.388 -5.875 -2.517
C 38.369 -5.874 -4.08
C 38.446 -5.898 1.645
C 40.949 -5.865 -2.553
C 39.701 -5.113 -0.447
C 39.678 -5.102 -2.022
C 40.988 -5.885 0.047
C 39.647 -5.105 -4.597
C 40.929 -5.859 -4.116
C 41.009 -5.903 1.609
C 39.735 -5.14 2.126
H 37.076 -5.157 -5.647
H 37.188 -5.16 3.239
H 39.636 -5.136 -5.678
H 39.752 -5.172 3.208
C 42.263 -5.11 -0.482
C 42.241 -5.095 -2.056
C 42.207 -5.089 -4.632
C 42.299 -5.147 2.092
C 43.55 -5.884 0.007
C 43.511 -5.855 -2.593
C 43.49 -5.844 -4.155
C 43.572 -5.906 1.569
C 46.076 -5.843 -2.638
C 44.826 -5.108 -0.521
C 44.804 -5.088 -2.096
C 46.113 -5.88 -0.037
C 44.769 -5.074 -4.671
C 46.054 -5.827 -4.199
C 46.135 -5.909 1.525
C 44.863 -5.153 2.053
H 42.195 -5.116 -5.713
H 42.317 -5.184 3.173
H 44.754 -5.097 -5.753
H 44.882 -5.195 3.134
C 47.391 -5.104 -0.565
C 47.371 -5.079 -2.14
C 47.336 -5.056 -4.714
C 47.425 -5.157 2.01
C 48.678 -5.875 -0.085
C 48.644 -5.829 -2.685
C 48.624 -5.807 -4.246
C 48.696 -5.909 1.477
C 51.22 -5.812 -2.729
C 49.959 -5.098 -0.61
C 49.943 -5.068 -2.184
C 51.244 -5.868 -0.13
C 49.913 -5.035 -4.757
C 51.204 -5.782 -4.29
C 51.255 -5.907 1.431
C 49.985 -5.161 1.965
H 47.32 -5.077 -5.796
H 47.446 -5.203 3.09
H 49.897 -5.052 -5.839
H 50.004 -5.211 3.046
C 52.532 -5.091 -0.646
C 52.523 -5.055 -2.22
C 52.503 -5.008 -4.793
C 52.541 -5.164 1.929
C 53.814 -5.861 -0.16
C 53.803 -5.793 -2.764
C 53.792 -5.754 -4.326
C 53.812 -5.905 1.4
C 56.388 -5.783 -2.796
C 55.111 -5.088 -0.658
C 55.112 -5.044 -2.242
C 56.384 -5.864 -0.153
C 55.102 -4.979 -4.818
C 56.388 -5.743 -4.374
C 56.374 -5.912 1.422
C 55.092 -5.17 1.92
C 56.461 -2.896 -0.584
C 56.391 -2.978 2.113
H 52.489 -5.019 -5.875
H 52.553 -5.219 3.009
H 55.081 -4.969 -5.899
H 55.08 -5.225 3
H 56.359 -3.265 3.156
C 57.66 -5.084 -0.655
C 57.671 -5.03 -2.219
C 57.679 -4.963 -4.894
C 57.626 -5.177 2.01
C 58.954 -3.007 2.243
H 57.631 -4.917 -5.974
H 57.587 -5.241 3.089
H 59.012 -3.393 3.253
C -54.012 -10.553 1.111
C -54.011 -10.408 -1.482
C -54.011 -10.325 -3.047
C -54.012 -10.639 2.675
C -50.17 -9.779 0.627
C -50.178 -9.695 -0.935
C -52.714 -8.258 1.255
C -52.722 -8.108 -1.336
C -51.461 -10.438 -1.489
C -52.727 -9.76 0.641
C -52.729 -9.673 -0.921
C -51.453 -10.578 1.104
C -50.194 -9.556 -3.508
C -52.729 -8.021 -2.9
C -52.735 -9.529 -3.495
C -51.468 -10.357 -3.054
C -50.155 -9.922 3.199
C -52.707 -8.35 2.818
C -51.446 -10.662 2.667
C -52.72 -9.909 3.213
C -48.877 -7.467 0.758
C -48.889 -7.383 -0.804
C -50.173 -8.129 -1.355
C -51.432 -7.456 0.783
C -51.44 -7.368 -0.778
C -50.155 -8.273 1.237
C -48.915 -7.243 -3.375
C -51.458 -7.221 -3.35
C -50.186 -8.045 -2.918
C -48.851 -7.614 3.327
C -50.142 -8.361 2.799
C -51.414 -7.611 3.352
C -48.894 -10.593 1.088
C -48.91 -10.459 -1.505
C -48.922 -10.38 -3.07
C -48.883 -10.674 2.651
C -45.058 -9.797 0.581
C -45.072 -9.72 -0.981
C -47.598 -8.28 1.21
C -47.622 -8.144 -1.381
C -46.358 -10.473 -1.526
C -47.615 -9.79 0.606
C -47.626 -9.71 -0.956
C -46.337 -10.602 1.067
C -45.099 -9.593 -3.554
C -47.639 -8.063 -2.945
C -47.648 -9.577 -3.529
C -46.373 -10.398 -3.091
C -45.032 -9.926 3.153
C -47.581 -8.364 2.773
C -46.322 -10.679 2.63
C -47.593 -9.927 3.178
C -43.765 -7.473 0.692
C -43.783 -7.398 -0.87
C -45.07 -8.153 -1.411
C -46.321 -7.472 0.726
C -46.337 -7.392 -0.836
C -45.041 -8.283 1.18
C -43.817 -7.272 -3.441
C -46.368 -7.26 -3.407
C -45.089 -8.077 -2.975
C -43.731 -7.605 3.261
C -45.021 -8.363 2.743
C -46.29 -7.611 3.295
C -43.779 -10.605 1.043
C -43.804 -10.483 -1.55
C -43.821 -10.41 -3.115
C -43.762 -10.679 2.607
C -39.943 -9.799 0.524
C -39.962 -9.728 -1.038
C -42.484 -8.283 1.147
C -42.516 -8.159 -1.443
C -41.249 -10.488 -1.576
C -42.501 -9.799 0.554
C -42.518 -9.726 -1.008
C -41.22 -10.606 1.017
C -39.994 -9.612 -3.61
C -42.536 -8.086 -3.008
C -42.547 -9.605 -3.581
C -41.268 -10.419 -3.141
C -39.911 -9.917 3.095
C -42.463 -8.359 2.711
C -41.202 -10.677 2.581
C -42.472 -9.922 3.125
C -38.65 -7.471 0.62
C -38.671 -7.401 -0.943
C -39.96 -8.162 -1.477
C -41.208 -7.473 0.656
C -41.228 -7.401 -0.906
C -39.925 -8.281 1.113
C -38.707 -7.286 -3.512
C -41.263 -7.281 -3.476
C -39.981 -8.092 -3.041
C -38.613 -7.592 3.188
C -39.903 -8.354 2.677
C -41.172 -7.598 3.225
C -38.66 -10.605 0.987
C -38.693 -10.49 -1.606
C -38.714 -10.423 -3.171
C -38.64 -10.673 2.551
C -34.822 -9.794 0.454
C -34.844 -9.726 -1.109
C -37.366 -8.278 1.077
C -37.402 -8.162 -1.513
C -36.135 -10.489 -1.64
C -37.383 -9.797 0.491
C -37.404 -9.728 -1.072
C -36.099 -10.602 0.952
C -34.882 -9.613 -3.68
C -37.424 -8.094 -3.077
C -37.439 -9.615 -3.643
C -36.157 -10.423 -3.205
C -34.784 -9.908 3.025
C -37.343 -8.349 2.641
C -36.077 -10.669 2.516
C -37.348 -9.912 3.062
C -33.528 -7.466 0.543
C -33.551 -7.397 -1.019
C -34.842 -8.16 -1.551
C -36.09 -7.469 0.582
C -36.112 -7.4 -0.98
C -34.804 -8.275 1.039
C -33.589 -7.284 -3.588
C -36.149 -7.286 -3.55
C -34.865 -8.092 -3.115
C -33.49 -7.585 3.112
C -34.782 -8.346 2.603
C -36.052 -7.587 3.151
C -33.536 -10.598 0.912
C -33.575 -10.485 -1.679
C -33.599 -10.418 -3.244
C -33.512 -10.665 2.477
C -29.693 -9.786 0.369
C -29.718 -9.716 -1.193
C -32.241 -8.272 1
C -32.28 -8.156 -1.59
C -31.012 -10.479 -1.722
C -32.259 -9.79 0.413
C -32.283 -9.721 -1.15
C -30.971 -10.593 0.869
C -29.759 -9.6 -3.764
C -32.303 -8.087 -3.154
C -32.323 -9.608 -3.721
C -31.037 -10.411 -3.287
C -29.653 -9.904 2.94
C -32.219 -8.344 2.563
C -30.947 -10.662 2.433
C -32.219 -9.905 2.983
C -28.397 -7.464 0.465
C -28.421 -7.392 -1.096
C -29.715 -8.152 -1.631
C -30.964 -7.464 0.504
C -30.987 -7.395 -1.058
C -29.676 -8.27 0.959
C -28.458 -7.273 -3.665
C -31.025 -7.278 -3.627
C -29.738 -8.081 -3.195
C -28.36 -7.588 3.034
C -29.654 -8.343 2.523
C -30.926 -7.585 3.072
C -28.405 -10.588 0.824
C -28.446 -10.471 -1.768
C -28.471 -10.402 -3.333
C -28.38 -10.658 2.388
C -24.555 -9.78 0.282
C -24.579 -9.707 -1.28
C -27.108 -8.27 0.919
C -27.147 -8.148 -1.671
C -25.877 -10.464 -1.813
C -27.126 -9.782 0.325
C -27.15 -9.711 -1.237
C -25.836 -10.583 0.778
C -24.619 -9.583 -3.85
C -27.17 -8.075 -3.235
C -27.191 -9.591 -3.807
C -25.901 -10.392 -3.378
C -24.516 -9.904 2.853
C -27.086 -8.344 2.482
C -25.812 -10.655 2.342
C -27.085 -9.904 2.896
C -23.254 -7.468 0.39
C -23.277 -7.394 -1.172
C -24.576 -8.146 -1.71
C -25.828 -7.465 0.427
C -25.851 -7.392 -1.134
C -24.537 -8.27 0.879
C -23.314 -7.267 -3.741
C -25.888 -7.268 -3.703
C -24.598 -8.071 -3.274
C -23.218 -7.6 2.958
C -24.515 -8.347 2.442
C -25.791 -7.593 2.995
C -23.264 -10.579 0.735
C -23.304 -10.458 -1.856
C -23.327 -10.385 -3.421
C -23.241 -10.652 2.299
C -21.963 -8.272 0.841
C -22.001 -8.146 -1.749
C -20.726 -10.453 -1.897
C -21.981 -9.778 0.242
C -22.004 -9.704 -1.321
C -20.69 -10.576 0.695
C -22.023 -8.071 -3.313
C -22.042 -9.579 -3.891
C -20.749 -10.38 -3.462
C -21.941 -8.35 2.404
C -20.668 -10.649 2.259
C -21.944 -9.904 2.812
C -20.678 -7.473 0.352
C -20.7 -7.399 -1.21
C -20.736 -7.271 -3.779
C -20.642 -7.606 2.921
C -59.138 -10.461 1.083
C -59.112 -10.31 -1.511
C -59.093 -10.225 -3.074
C -59.151 -10.548 2.645
C -55.284 -9.731 0.643
C -55.28 -9.64 -0.919
C -57.837 -8.196 1.246
C -57.819 -8.034 -1.345
C -56.561 -10.367 -1.488
C -57.843 -9.688 0.629
C -57.832 -9.594 -0.932
C -56.574 -10.514 1.105
C -55.273 -9.493 -3.493
C -57.808 -7.942 -2.908
C -57.809 -9.445 -3.507
C -56.552 -10.283 -3.053
C -55.289 -9.883 3.215
C -57.846 -8.292 2.808
C -56.581 -10.602 2.668
C -57.861 -9.842 3.201
C -53.989 -7.438 0.797
C -53.991 -7.345 -0.764
C -55.271 -8.077 -1.332
C -56.546 -7.409 0.794
C -56.541 -7.312 -0.766
C -55.274 -8.233 1.259
C -53.995 -7.192 -3.336
C -56.53 -7.154 -3.339
C -55.269 -7.988 -2.895
C -53.983 -7.599 3.366
C -55.275 -8.328 2.822
C -56.555 -7.576 3.364
C -64.275 -10.308 1.014
C -64.227 -10.143 -1.625
C -64.191 -10.047 -3.205
C -64.296 -10.402 2.592
C -60.404 -9.629 0.597
C -60.386 -9.533 -0.964
C -62.97 -8.077 1.167
C -62.924 -7.904 -1.429
C -61.667 -10.236 -1.552
C -62.97 -9.557 0.554
C -62.945 -9.456 -1.016
C -61.704 -10.391 1.047
C -60.345 -9.38 -3.539
C -62.889 -7.804 -2.991
C -62.881 -9.294 -3.594
C -61.637 -10.148 -3.115
C -60.434 -9.784 3.17
C -62.991 -8.176 2.728
C -61.722 -10.478 2.609
C -63.002 -9.709 3.132
C -59.106 -7.367 0.772
C -59.092 -7.265 -0.788
C -60.37 -7.976 -1.377
C -61.67 -7.311 0.731
C -61.648 -7.205 -0.828
C -60.402 -8.143 1.213
C -59.064 -7.102 -3.361
C -61.599 -7.035 -3.402
C -60.347 -7.882 -2.94
C -59.13 -7.538 3.341
C -60.419 -8.241 2.775
C -61.705 -7.485 3.301
C -65.509 -9.455 0.486
C -65.478 -9.348 -1.065
C -65.397 -9.164 -3.748
C -65.544 -9.622 3.165
C -64.238 -7.245 0.68
C -64.208 -7.133 -0.889
C -65.484 -7.818 -1.511
C -66.778 -7.158 0.606
C -66.742 -7.039 -0.944
C -65.541 -8.004 1.126
C -64.135 -6.951 -3.465
C -66.649 -6.833 -3.628
C -65.442 -7.71 -3.09
C -64.276 -7.42 3.254
C -65.566 -8.11 2.702
C -66.823 -7.351 3.279
H -34.899 -9.567 -4.761
H -37.453 -9.569 -4.724
H -34.767 -9.963 4.105
H -37.333 -9.968 4.143
H -33.605 -7.234 -4.669
H -36.165 -7.238 -4.631
H -33.473 -7.641 4.192
H -36.035 -7.643 4.231
H -29.778 -9.55 -4.844
H -32.341 -9.561 -4.801
H -29.633 -9.961 4.02
H -32.2 -9.961 4.064
H -28.474 -7.218 -4.746
H -31.041 -7.227 -4.708
H -28.343 -7.648 4.114
H -30.909 -7.642 4.153
H -24.637 -9.527 -4.931
H -27.21 -9.538 -4.888
H -24.497 -9.965 3.933
H -27.066 -9.963 3.976
H -23.329 -7.206 -4.821
H -25.903 -7.21 -4.783
H -23.202 -7.664 4.038
H -25.774 -7.656 4.075
H -22.058 -9.521 -4.972
H -21.926 -9.966 3.892
H -20.751 -7.209 -4.859
H -20.625 -7.672 4
H -62.838 -9.225 -4.673
H -63.01 -9.771 4.212
H -65.304 -9.068 -4.821
H -65.521 -9.661 4.246
H -64.086 -6.864 -4.543
H -66.543 -6.712 -4.698
H -64.287 -7.494 4.334
H -66.803 -7.404 4.36
H -41.157 -7.658 4.305
H -55.294 -9.962 4.294
H -53.981 -7.681 4.445
H -42.461 -9.983 4.206
H -43.717 -7.669 4.341
H -56.563 -7.661 4.442
H -45.022 -9.99 4.233
H -46.276 -7.679 4.375
H -57.874 -9.921 4.28
H -59.147 -7.624 4.42
H -47.584 -9.995 4.257
H -60.453 -9.859 4.249
H -48.839 -7.687 4.406
H -61.728 -7.57 4.379
H -50.148 -9.995 4.278
H -51.406 -7.689 4.431
H -39.898 -9.975 4.176
H -38.597 -7.649 4.269
H -52.718 -9.985 4.292
H -47.657 -9.521 -4.61
H -50.201 -9.497 -4.589
H -38.722 -7.236 -4.593
H -61.574 -6.961 -4.481
H -52.739 -9.467 -4.575
H -41.277 -7.229 -4.557
H -51.466 -7.154 -4.43
H -53.998 -7.122 -4.416
H -57.8 -9.383 -4.587
H -56.524 -7.082 -4.418
H -42.558 -9.555 -4.661
H -45.109 -9.54 -4.634
H -60.326 -9.319 -4.619
H -46.381 -7.2 -4.487
H -48.927 -7.179 -4.455
H -40.006 -9.565 -4.691
H -55.271 -9.43 -4.573
H -43.831 -7.217 -4.521
H -59.048 -7.03 -4.44
C 7.64 -10.511 0.484
C 7.62 -10.469 -2.117
C 7.606 -10.444 -3.682
C 7.655 -10.537 2.051
C 11.486 -9.73 -0.055
C 11.473 -9.713 -1.619
C 8.942 -8.225 0.496
C 8.913 -8.194 -2.103
C 10.183 -10.471 -2.134
C 8.923 -9.735 -0.034
C 8.91 -9.713 -1.598
C 10.205 -10.505 0.467
C 11.449 -9.689 -4.202
C 8.894 -8.176 -3.668
C 8.887 -9.68 -4.181
C 10.169 -10.45 -3.7
C 11.512 -9.756 2.526
C 8.962 -8.246 2.062
C 10.22 -10.526 2.034
C 8.947 -9.769 2.547
C 12.784 -7.444 -0.062
C 12.765 -7.434 -1.625
C 11.476 -8.196 -2.13
C 10.221 -7.45 -0.031
C 10.203 -7.434 -1.594
C 11.505 -8.218 0.469
C 12.733 -7.424 -4.206
C 10.171 -7.415 -4.175
C 11.457 -8.184 -3.695
C 12.818 -7.461 2.517
C 11.526 -8.233 2.035
C 10.255 -7.476 2.548
C 12.769 -10.499 0.449
C 12.746 -10.473 -2.153
C 12.731 -10.457 -3.718
C 12.785 -10.516 2.016
C 16.612 -9.721 -0.099
C 16.597 -9.713 -1.663
C 14.068 -8.211 0.442
C 14.038 -8.197 -2.158
C 15.308 -10.474 -2.172
C 14.05 -9.726 -0.076
C 14.035 -9.713 -1.641
C 15.332 -10.493 0.43
C 16.57 -9.704 -4.246
C 14.018 -8.19 -3.723
C 14.01 -9.697 -4.224
C 15.292 -10.462 -3.737
C 16.64 -9.732 2.482
C 14.089 -8.222 2.007
C 15.349 -10.506 1.996
C 14.076 -9.743 2.505
C 17.908 -7.434 -0.126
C 17.889 -7.432 -1.689
C 16.599 -8.198 -2.187
C 15.346 -7.439 -0.093
C 15.327 -7.433 -1.657
C 16.631 -8.205 0.413
C 17.855 -7.439 -4.269
C 15.294 -7.432 -4.237
C 16.579 -8.196 -3.752
C 17.944 -7.435 2.453
C 16.652 -8.211 1.979
C 15.381 -7.447 2.486
C 17.895 -10.488 0.409
C 17.869 -10.476 -2.193
C 17.852 -10.467 -3.758
C 17.913 -10.497 1.976
C 21.739 -9.714 -0.151
C 21.72 -9.711 -1.716
C 19.194 -8.199 0.383
C 19.161 -8.199 -2.216
C 20.43 -10.476 -2.217
C 19.175 -9.717 -0.124
C 19.158 -9.713 -1.688
C 20.459 -10.483 0.385
C 21.688 -9.714 -4.298
C 19.14 -8.201 -3.782
C 19.129 -9.71 -4.271
C 20.411 -10.471 -3.782
C 21.771 -9.712 2.429
C 19.215 -8.201 1.949
C 20.478 -10.489 1.952
C 19.205 -9.721 2.457
C 23.034 -7.426 -0.194
C 23.012 -7.429 -1.757
C 21.722 -8.199 -2.248
C 20.471 -7.43 -0.159
C 20.45 -7.431 -1.722
C 21.757 -8.194 0.351
C 22.976 -7.447 -4.337
C 20.415 -7.445 -4.303
C 21.701 -8.203 -3.813
C 23.071 -7.415 2.385
C 21.779 -8.192 1.917
C 20.507 -7.424 2.42
C 23.024 -10.479 0.357
C 22.99 -10.475 -2.244
C 22.97 -10.472 -3.81
C 23.044 -10.483 1.924
C 26.866 -9.706 -0.22
C 26.843 -9.706 -1.784
C 24.32 -8.189 0.316
C 24.284 -8.197 -2.283
C 25.551 -10.473 -2.278
C 24.302 -9.71 -0.183
C 24.281 -9.709 -1.747
C 25.588 -10.475 0.323
C 26.804 -9.712 -4.366
C 24.261 -8.203 -3.848
C 24.246 -9.715 -4.33
C 25.529 -10.471 -3.843
C 26.906 -9.701 2.36
C 24.343 -8.186 1.882
C 25.611 -10.478 1.89
C 24.338 -9.706 2.397
C 28.16 -7.417 -0.269
C 28.137 -7.421 -1.833
C 26.845 -8.193 -2.32
C 25.597 -7.421 -0.231
C 25.574 -7.426 -1.794
C 26.884 -8.185 0.279
C 28.099 -7.441 -4.413
C 25.537 -7.446 -4.374
C 26.823 -8.2 -3.885
C 28.2 -7.405 2.309
C 26.908 -8.181 1.845
C 25.636 -7.409 2.348
C 28.153 -10.472 0.284
C 28.112 -10.469 -2.317
C 28.088 -10.467 -3.882
C 28.178 -10.475 1.851
C 31.993 -9.699 -0.307
C 31.965 -9.695 -1.872
C 29.448 -8.181 0.239
C 29.407 -8.188 -2.36
C 30.672 -10.463 -2.362
C 29.43 -9.703 -0.262
C 29.404 -9.701 -1.826
C 30.718 -10.469 0.239
C 31.921 -9.695 -4.454
C 29.384 -8.194 -3.925
C 29.362 -9.705 -4.408
C 30.646 -10.459 -3.927
C 32.039 -9.7 2.273
C 29.472 -8.179 1.805
C 30.745 -10.474 1.806
C 29.473 -9.7 2.319
C 33.287 -7.41 -0.35
C 33.261 -7.409 -1.913
C 31.969 -8.181 -2.402
C 30.724 -7.414 -0.309
C 30.699 -7.416 -1.873
C 32.011 -8.179 0.196
C 33.222 -7.418 -4.493
C 30.66 -7.432 -4.453
C 31.945 -8.184 -3.968
C 33.327 -7.407 2.228
C 32.036 -8.179 1.762
C 30.764 -7.405 2.269
C 33.282 -10.466 0.189
C 33.233 -10.455 -2.412
C 33.205 -10.448 -3.977
C 33.31 -10.474 1.756
C 34.574 -8.176 0.153
C 34.53 -8.172 -2.446
C 35.793 -10.446 -2.464
C 34.556 -9.695 -0.356
C 34.526 -9.687 -1.92
C 35.844 -10.463 0.137
C 34.507 -8.171 -4.011
C 34.48 -9.681 -4.503
C 35.764 -10.435 -4.03
C 34.599 -8.181 1.719
C 35.874 -10.475 1.703
C 34.604 -9.703 2.224
C 35.849 -7.406 -0.391
C 35.822 -7.401 -1.954
C 35.783 -7.403 -4.534
C 35.89 -7.412 2.188
C 2.506 -10.525 0.515
C 2.488 -10.465 -2.085
C 2.475 -10.429 -3.651
C 2.521 -10.562 2.081
C 6.358 -9.74 -0.014
C 6.345 -9.713 -1.578
C 3.811 -8.241 0.549
C 3.783 -8.19 -2.049
C 5.055 -10.467 -2.1
C 3.791 -9.746 0.005
C 3.779 -9.713 -1.559
C 5.074 -10.518 0.5
C 6.323 -9.671 -4.16
C 3.764 -8.16 -3.614
C 3.758 -9.661 -4.141
C 5.042 -10.436 -3.666
C 6.382 -9.784 2.567
C 3.831 -8.273 2.114
C 5.089 -10.549 2.067
C 3.814 -9.799 2.585
C 7.657 -7.456 -0.001
C 7.64 -7.434 -1.564
C 6.349 -8.192 -2.076
C 5.092 -7.462 0.03
C 5.075 -7.435 -1.533
C 6.377 -8.233 0.523
C 7.608 -7.406 -4.144
C 5.043 -7.396 -4.113
C 6.33 -8.169 -3.641
C 7.691 -7.491 2.578
C 6.398 -8.259 2.088
C 5.126 -7.508 2.608
C -2.637 -10.541 0.54
C -2.656 -10.461 -2.058
C -2.668 -10.412 -3.624
C -2.623 -10.59 2.106
C 1.222 -9.752 0.022
C 1.21 -9.713 -1.541
C -1.329 -8.257 0.601
C -1.357 -8.184 -1.996
C -0.082 -10.463 -2.071
C -1.35 -9.758 0.039
C -1.361 -9.713 -1.524
C -0.064 -10.533 0.528
C 1.19 -9.65 -4.122
C -1.376 -8.142 -3.561
C -1.382 -9.639 -4.104
C -0.095 -10.42 -3.637
C 1.245 -9.816 2.602
C -1.308 -8.304 2.166
C -0.05 -10.576 2.094
C -1.327 -9.833 2.619
C 2.525 -7.468 0.06
C 2.508 -7.435 -1.503
C 1.214 -8.187 -2.023
C -0.045 -7.474 0.091
C -0.062 -7.435 -1.472
C 1.242 -8.249 0.575
C 2.476 -7.384 -4.082
C -0.093 -7.372 -4.05
C 1.196 -8.151 -3.587
C 2.559 -7.526 2.638
C 1.263 -8.288 2.14
C -0.011 -7.544 2.668
C -7.791 -10.555 0.567
C -7.812 -10.456 -2.029
C -7.826 -10.396 -3.595
C -7.776 -10.615 2.132
C -3.924 -9.764 0.056
C -3.936 -9.713 -1.507
C -6.481 -8.272 0.652
C -6.509 -8.177 -1.943
C -5.232 -10.458 -2.044
C -6.501 -9.769 0.074
C -6.514 -9.713 -1.489
C -5.213 -10.548 0.553
C -3.957 -9.628 -4.085
C -6.528 -8.121 -3.507
C -6.536 -9.617 -4.066
C -5.245 -10.404 -3.61
C -3.901 -9.85 2.634
C -6.46 -8.332 2.216
C -5.199 -10.603 2.118
C -6.477 -9.866 2.651
C -2.618 -7.48 0.121
C -2.635 -7.434 -1.441
C -3.931 -8.181 -1.97
C -5.193 -7.485 0.152
C -5.211 -7.433 -1.41
C -3.903 -8.265 0.626
C -2.666 -7.36 -4.018
C -5.242 -7.346 -3.986
C -3.95 -8.132 -3.534
C -2.583 -7.563 2.698
C -3.883 -8.318 2.191
C -5.159 -7.58 2.727
C -12.952 -10.565 0.604
C -12.978 -10.452 -1.99
C -12.995 -10.384 -3.555
C -12.935 -10.634 2.168
C -9.081 -9.773 0.093
C -9.095 -9.711 -1.47
C -11.642 -8.279 0.705
C -11.673 -8.167 -1.887
C -10.394 -10.454 -2.011
C -11.662 -9.775 0.115
C -11.677 -9.709 -1.448
C -10.371 -10.561 0.584
C -9.118 -9.606 -4.046
C -11.692 -8.1 -3.451
C -11.703 -9.596 -4.022
C -10.409 -10.389 -3.577
C -9.056 -9.879 2.669
C -11.621 -8.35 2.269
C -10.355 -10.626 2.148
C -11.635 -9.89 2.689
C -7.772 -7.489 0.182
C -7.789 -7.43 -1.38
C -9.09 -8.172 -1.916
C -10.353 -7.49 0.213
C -10.371 -7.426 -1.349
C -9.06 -8.277 0.678
C -7.821 -7.332 -3.954
C -10.403 -7.318 -3.922
C -9.109 -8.111 -3.48
C -7.738 -7.594 2.756
C -9.04 -8.342 2.242
C -10.318 -7.605 2.786
C -18.112 -10.572 0.66
C -18.146 -10.451 -1.933
C -18.166 -10.378 -3.498
C -18.092 -10.646 2.224
C -14.244 -9.776 0.14
C -14.261 -9.707 -1.423
C -16.806 -8.278 0.768
C -16.84 -8.154 -1.823
C -15.563 -10.451 -1.964
C -16.825 -9.777 0.17
C -16.844 -9.705 -1.393
C -15.533 -10.569 0.63
C -14.29 -9.588 -3.996
C -16.861 -8.081 -3.387
C -16.876 -9.582 -3.965
C -15.581 -10.38 -3.529
C -14.214 -9.897 2.713
C -16.784 -8.354 2.331
C -15.514 -10.641 2.193
C -16.792 -9.901 2.742
C -12.935 -7.488 0.245
C -12.954 -7.42 -1.317
C -14.256 -8.161 -1.856
C -15.517 -7.484 0.279
C -15.537 -7.413 -1.283
C -14.224 -8.279 0.735
C -12.987 -7.305 -3.889
C -15.572 -7.291 -3.854
C -14.277 -8.09 -3.421
C -12.9 -7.611 2.816
C -14.203 -8.354 2.298
C -15.482 -7.613 2.849
C -19.404 -9.777 0.204
C -19.426 -9.704 -1.359
C -19.461 -9.578 -3.93
C -19.369 -9.904 2.775
C -18.099 -7.479 0.315
C -18.12 -7.406 -1.247
C -19.422 -8.149 -1.787
C -19.386 -8.275 0.803
C -18.155 -7.28 -3.817
C -19.444 -8.074 -3.351
C -18.062 -7.611 2.884
C -19.364 -8.353 2.366
H 26.789 -9.725 -5.448
H 24.233 -9.727 -5.412
H 26.924 -9.693 3.442
H 24.354 -9.698 3.479
H 28.084 -7.461 -5.494
H 25.523 -7.466 -5.456
H 28.219 -7.391 3.391
H 25.653 -7.394 3.429
H 31.902 -9.705 -5.536
H 29.345 -9.718 -5.49
H 32.062 -9.696 3.354
H 29.494 -9.692 3.4
H 33.207 -7.433 -5.575
H 30.645 -7.449 -5.534
H 33.347 -7.399 3.31
H 30.784 -7.393 3.351
H 34.46 -9.687 -5.585
H 34.628 -9.702 3.306
H 35.768 -7.412 -5.616
H 35.911 -7.408 3.27
H -1.384 -9.608 -5.185
H -1.317 -9.867 3.7
H -3.959 -9.59 -5.167
H -6.539 -9.573 -5.147
H -3.891 -9.89 3.716
H -6.467 -9.912 3.732
H -2.674 -7.327 -5.1
H -5.25 -7.306 -5.067
H -2.568 -7.6 3.779
H -5.143 -7.624 3.808
H -9.122 -9.558 -5.127
H -11.71 -9.544 -5.103
H -9.045 -9.93 3.749
H -11.623 -9.945 3.77
H -7.829 -7.287 -5.035
H -10.411 -7.267 -5.003
H -7.722 -7.645 3.837
H -10.303 -7.661 3.866
H -14.299 -9.533 -5.076
H -16.888 -9.524 -5.045
H -14.201 -9.956 3.794
H -16.778 -9.962 3.822
H -12.997 -7.249 -4.969
H -15.583 -7.232 -4.934
H -12.884 -7.671 3.896
H -15.466 -7.676 3.929
H -19.475 -9.52 -5.01
H -19.353 -9.966 3.855
H -18.169 -7.218 -4.897
H -18.046 -7.676 3.964
H 20.523 -7.413 3.502
H 6.392 -9.801 3.648
H 7.706 -7.503 3.66
H 19.217 -9.718 3.539
H 17.959 -7.428 3.535
H 5.141 -7.525 3.69
H 16.651 -9.732 3.564
H 15.396 -7.445 3.568
H 3.824 -9.821 3.667
H 2.574 -7.549 3.72
H 14.086 -9.747 3.587
H 1.255 -9.844 3.684
H 12.833 -7.463 3.599
H 0.005 -7.574 3.749
H 11.522 -9.764 3.608
H 10.27 -7.483 3.63
H 21.785 -9.706 3.511
H 23.088 -7.402 3.466
H 8.958 -9.782 3.629
H 14.003 -9.696 -5.306
H 11.442 -9.684 -5.284
H 22.963 -7.466 -5.419
H -0.102 -7.347 -5.132
H 8.881 -9.671 -5.263
H 20.403 -7.461 -5.385
H 10.161 -7.413 -5.257
H 7.599 -7.398 -5.226
H 3.754 -9.642 -5.223
H 5.034 -7.382 -5.195
H 19.12 -9.717 -5.353
H 16.562 -9.708 -5.328
H 1.187 -9.625 -5.204
H 15.283 -7.44 -5.319
H 12.723 -7.427 -5.288
H 21.677 -9.724 -5.38
H 6.318 -9.657 -5.242
H 17.843 -7.451 -5.351
H 2.468 -7.365 -5.164
C 37.118 -9.69 -0.407
C 37.087 -9.679 -1.971
C 37.038 -9.665 -4.554
C 37.167 -9.707 2.173
C 38.411 -7.403 -0.432
C 38.383 -7.393 -1.995
C 37.091 -8.162 -2.491
C 37.136 -8.174 0.109
C 38.343 -7.385 -4.576
C 37.067 -8.156 -4.056
C 38.453 -7.417 2.147
C 37.162 -8.184 1.674
C 38.406 -10.459 0.082
C 38.353 -10.435 -2.519
C 38.323 -10.419 -4.085
C 38.436 -10.476 1.649
C 39.698 -8.172 0.063
C 39.652 -8.151 -2.536
C 40.912 -10.421 -2.575
C 39.679 -9.685 -0.459
C 39.647 -9.669 -2.023
C 40.967 -10.454 0.026
C 39.627 -8.14 -4.101
C 39.597 -9.646 -4.606
C 40.881 -10.402 -4.141
C 39.724 -8.186 1.629
C 40.998 -10.476 1.593
C 39.73 -9.71 2.121
C 40.972 -7.399 -0.475
C 40.944 -7.384 -2.038
C 40.902 -7.367 -4.619
C 41.015 -7.423 2.104
H 37.018 -9.666 -5.636
H 37.192 -9.71 3.255
H 38.328 -7.389 -5.658
H 38.474 -7.419 3.228
H 39.576 -9.643 -5.688
H 39.755 -9.719 3.203
H 40.886 -7.367 -5.701
H 41.037 -7.43 3.186
C 42.239 -9.678 -0.513
C 42.206 -9.657 -2.077
C 42.155 -9.626 -4.66
C 42.291 -9.712 2.068
C 43.533 -7.394 -0.521
C 43.505 -7.374 -2.084
C 42.212 -8.139 -2.584
C 42.259 -8.168 0.016
C 43.462 -7.349 -4.665
C 42.186 -8.123 -4.149
C 43.577 -7.427 2.058
C 42.286 -8.188 1.581
C 43.527 -10.447 -0.031
C 43.472 -10.406 -2.633
C 43.44 -10.381 -4.198
C 43.559 -10.473 1.535
C 44.82 -8.163 -0.035
C 44.773 -8.125 -2.634
C 46.032 -10.387 -2.692
C 44.799 -9.669 -0.569
C 44.767 -9.643 -2.133
C 46.088 -10.436 -0.091
C 44.746 -8.104 -4.199
C 44.714 -9.604 -4.716
C 46 -10.358 -4.257
C 44.847 -8.188 1.531
C 46.119 -10.466 1.475
C 44.852 -9.711 2.012
C 46.094 -7.386 -0.571
C 46.067 -7.362 -2.134
C 46.023 -7.328 -4.714
C 46.139 -7.428 2.009
H 42.134 -9.619 -5.742
H 42.317 -9.725 3.15
H 43.444 -7.344 -5.747
H 43.6 -7.439 3.14
H 44.692 -9.593 -5.798
H 44.878 -9.729 3.094
H 46.003 -7.32 -5.796
H 46.163 -7.444 3.091
C 47.36 -9.656 -0.628
C 47.328 -9.626 -2.191
C 47.274 -9.579 -4.773
C 47.411 -9.705 1.955
C 48.657 -7.377 -0.623
C 48.632 -7.347 -2.186
C 47.336 -8.108 -2.688
C 47.382 -8.154 -0.088
C 48.588 -7.305 -4.765
C 47.309 -8.082 -4.252
C 48.698 -7.426 1.957
C 47.407 -8.184 1.477
C 48.649 -10.421 -0.152
C 48.595 -10.365 -2.753
C 48.561 -10.331 -4.317
C 48.677 -10.455 1.414
C 49.944 -8.142 -0.143
C 49.902 -8.088 -2.742
C 51.161 -10.34 -2.815
C 49.922 -9.64 -0.687
C 49.892 -9.606 -2.25
C 51.211 -10.401 -0.209
C 49.876 -8.056 -4.306
C 49.836 -9.549 -4.832
C 51.125 -10.3 -4.379
C 49.965 -8.177 1.422
C 51.233 -10.437 1.356
C 49.966 -9.694 1.896
C 51.222 -7.364 -0.674
C 51.201 -7.33 -2.236
C 51.159 -7.276 -4.815
C 51.253 -7.421 1.907
H 47.251 -9.565 -5.855
H 47.438 -9.727 3.036
H 48.567 -7.293 -5.847
H 48.722 -7.446 3.039
H 49.811 -9.532 -5.913
H 49.992 -9.718 2.978
H 51.137 -7.26 -5.897
H 51.274 -7.444 2.989
C 52.488 -9.622 -0.738
C 52.461 -9.584 -2.311
C 52.398 -9.515 -4.896
C 52.516 -9.677 1.85
C 53.791 -7.353 -0.711
C 53.775 -7.313 -2.284
C 52.473 -8.066 -2.795
C 52.508 -8.128 -0.191
C 53.732 -7.243 -4.866
C 52.446 -8.027 -4.358
C 53.801 -7.414 1.874
C 52.52 -8.166 1.373
C 53.776 -10.38 -0.243
C 53.729 -10.315 -2.891
C 53.694 -10.273 -4.472
C 53.794 -10.416 1.339
C 55.074 -8.117 -0.211
C 55.045 -8.047 -2.855
C 55.025 -9.585 -0.793
C 55 -9.546 -2.348
C 55.022 -8.005 -4.436
C 54.934 -9.469 -5.038
C 55.08 -8.156 1.37
C 55.043 -9.642 1.896
C 56.331 -7.328 -0.747
C 56.319 -7.285 -2.301
C 56.277 -7.207 -4.987
C 56.328 -7.397 1.937
H 52.356 -9.484 -5.976
H 52.522 -9.692 2.932
H 53.695 -7.211 -5.946
H 53.801 -7.431 2.956
H 54.85 -9.407 -6.115
H 55.007 -9.638 2.978
H 56.198 -7.136 -6.064
H 56.287 -7.401 3.018
C -54.054 -15.152 0.867
C -54.05 -15.034 -1.729
C -54.047 -14.968 -3.294
C -54.055 -15.222 2.431
C -50.208 -14.403 0.38
C -50.211 -14.33 -1.183
C -52.752 -12.871 0.979
C -52.753 -12.741 -1.616
C -51.496 -15.073 -1.731
C -52.765 -14.374 0.386
C -52.765 -14.3 -1.177
C -51.493 -15.188 0.865
C -50.219 -14.217 -3.758
C -52.755 -12.667 -3.181
C -52.765 -14.184 -3.753
C -51.498 -15.007 -3.297
C -50.201 -14.521 2.955
C -52.751 -12.949 2.543
C -51.491 -15.257 2.429
C -52.764 -14.496 2.961
C -48.91 -12.101 0.489
C -48.917 -12.024 -1.074
C -50.202 -12.77 -1.624
C -51.467 -12.082 0.501
C -51.47 -12.001 -1.062
C -50.193 -12.896 0.971
C -48.931 -11.898 -3.648
C -51.477 -11.872 -3.636
C -50.208 -12.697 -3.189
C -48.897 -12.23 3.062
C -50.187 -12.972 2.535
C -51.46 -12.216 3.075
C -48.934 -15.213 0.857
C -48.942 -15.1 -1.738
C -48.948 -15.036 -3.304
C -48.928 -15.28 2.422
C -45.094 -14.434 0.358
C -45.103 -14.366 -1.206
C -47.635 -12.912 0.958
C -47.649 -12.79 -1.637
C -46.389 -15.12 -1.748
C -47.651 -14.422 0.371
C -47.658 -14.351 -1.193
C -46.376 -15.229 0.847
C -45.12 -14.259 -3.78
C -47.659 -12.719 -3.202
C -47.67 -14.241 -3.768
C -46.398 -15.057 -3.314
C -45.078 -14.544 2.932
C -47.625 -12.985 2.522
C -46.367 -15.294 2.412
C -47.639 -14.536 2.945
C -43.797 -12.12 0.453
C -43.81 -12.048 -1.11
C -45.096 -12.804 -1.653
C -46.354 -12.113 0.472
C -46.364 -12.038 -1.091
C -45.077 -12.921 0.941
C -43.832 -11.933 -3.683
C -46.383 -11.918 -3.665
C -45.108 -12.736 -3.218
C -43.774 -12.237 3.026
C -45.064 -12.991 2.506
C -46.335 -12.236 3.045
C -43.817 -15.238 0.835
C -43.834 -15.132 -1.76
C -43.846 -15.072 -3.326
C -43.805 -15.301 2.399
C -39.976 -14.443 0.321
C -39.992 -14.379 -1.242
C -42.518 -12.926 0.922
C -42.541 -12.812 -1.671
C -41.279 -15.14 -1.777
C -42.536 -14.44 0.342
C -42.548 -14.375 -1.221
C -41.256 -15.243 0.818
C -40.018 -14.279 -3.816
C -42.556 -12.747 -3.237
C -42.569 -14.272 -3.796
C -41.294 -15.081 -3.343
C -39.95 -14.546 2.895
C -42.503 -12.993 2.487
C -41.242 -15.304 2.383
C -42.515 -14.547 2.916
C -38.679 -12.122 0.404
C -38.697 -12.055 -1.16
C -39.986 -12.817 -1.694
C -41.239 -12.122 0.431
C -41.254 -12.053 -1.133
C -39.958 -12.927 0.899
C -38.729 -11.947 -3.732
C -41.281 -11.942 -3.706
C -40.003 -12.753 -3.26
C -38.648 -12.232 2.976
C -39.94 -12.992 2.464
C -41.212 -12.236 3.003
C -38.694 -15.244 0.794
C -38.723 -15.143 -1.8
C -38.741 -15.086 -3.365
C -38.677 -15.303 2.359
C -34.852 -14.439 0.258
C -34.875 -14.376 -1.306
C -37.396 -12.925 0.87
C -37.429 -12.817 -1.723
C -36.166 -15.142 -1.831
C -37.415 -14.443 0.294
C -37.434 -14.379 -1.27
C -36.131 -15.241 0.763
C -34.913 -14.279 -3.878
C -37.449 -12.755 -3.289
C -37.467 -14.281 -3.843
C -36.187 -15.085 -3.396
C -34.814 -14.539 2.831
C -37.376 -12.989 2.435
C -36.11 -15.3 2.328
C -37.383 -14.544 2.867
C -33.555 -12.116 0.331
C -33.578 -12.049 -1.233
C -34.87 -12.814 -1.759
C -36.118 -12.12 0.37
C -36.139 -12.054 -1.193
C -34.832 -12.921 0.834
C -33.619 -11.943 -3.804
C -36.175 -11.947 -3.765
C -34.893 -12.752 -3.325
C -33.515 -12.224 2.903
C -34.81 -12.984 2.398
C -36.082 -12.228 2.942
C -33.566 -15.235 0.723
C -33.606 -15.136 -1.871
C -33.63 -15.079 -3.436
C -33.541 -15.294 2.288
C -29.722 -14.423 0.165
C -29.748 -14.359 -1.399
C -32.268 -12.915 0.79
C -32.309 -12.808 -1.802
C -31.043 -15.127 -1.918
C -32.288 -14.432 0.214
C -32.313 -14.369 -1.349
C -30.999 -15.227 0.675
C -29.794 -14.259 -3.971
C -32.334 -12.745 -3.367
C -32.356 -14.271 -3.922
C -31.07 -15.069 -3.484
C -29.676 -14.525 2.737
C -32.243 -12.979 2.355
C -30.973 -15.286 2.24
C -32.245 -14.533 2.787
C -28.424 -12.102 0.237
C -28.449 -12.034 -1.326
C -29.745 -12.799 -1.85
C -30.99 -12.109 0.286
C -31.015 -12.042 -1.278
C -29.701 -12.908 0.742
C -28.494 -11.923 -3.897
C -31.059 -11.934 -3.849
C -29.771 -12.735 -3.415
C -28.38 -12.214 2.809
C -29.675 -12.972 2.307
C -30.947 -12.219 2.857
C -28.431 -15.216 0.623
C -28.477 -15.114 -1.97
C -28.505 -15.055 -3.536
C -28.404 -15.276 2.188
C -24.583 -14.399 0.062
C -24.609 -14.334 -1.501
C -27.133 -12.899 0.693
C -27.177 -12.788 -1.9
C -25.907 -15.099 -2.023
C -27.153 -14.412 0.113
C -27.18 -14.348 -1.451
C -25.862 -15.202 0.571
C -24.653 -14.23 -4.073
C -27.204 -12.722 -3.465
C -27.227 -14.245 -4.022
C -25.934 -15.039 -3.588
C -24.539 -14.506 2.635
C -27.107 -12.965 2.257
C -25.835 -15.264 2.135
C -27.107 -14.516 2.686
C -23.283 -12.087 0.143
C -23.307 -12.017 -1.42
C -24.606 -12.776 -1.948
C -25.855 -12.094 0.189
C -25.88 -12.025 -1.374
C -24.563 -12.889 0.644
C -23.348 -11.9 -3.991
C -25.923 -11.911 -3.945
C -24.631 -12.709 -3.514
C -23.242 -12.204 2.716
C -24.538 -12.957 2.208
C -25.812 -12.209 2.761
C -23.291 -15.188 0.522
C -23.333 -15.084 -2.072
C -23.358 -15.022 -3.638
C -23.266 -15.25 2.086
C -21.991 -12.88 0.6
C -22.03 -12.766 -1.993
C -20.755 -15.069 -2.115
C -22.01 -14.386 0.016
C -22.034 -14.321 -1.547
C -20.718 -15.173 0.479
C -22.054 -12.698 -3.558
C -22.074 -14.215 -4.119
C -20.778 -15.006 -3.681
C -21.968 -12.948 2.164
C -20.696 -15.236 2.043
C -21.971 -14.494 2.59
C -20.708 -12.079 0.102
C -20.73 -12.009 -1.461
C -20.767 -11.892 -4.032
C -20.672 -12.197 2.675
C -59.183 -15.033 0.848
C -59.163 -14.912 -1.752
C -59.145 -14.844 -3.317
C -59.189 -15.102 2.412
C -55.324 -14.333 0.385
C -55.319 -14.257 -1.178
C -57.877 -12.781 0.966
C -57.859 -12.647 -1.629
C -56.605 -14.982 -1.734
C -57.886 -14.277 0.374
C -57.876 -14.2 -1.189
C -56.617 -15.101 0.861
C -55.31 -14.14 -3.754
C -57.844 -12.571 -3.193
C -57.853 -14.081 -3.765
C -56.595 -14.915 -3.299
C -55.33 -14.456 2.96
C -57.886 -12.859 2.529
C -56.621 -15.171 2.425
C -57.898 -14.398 2.95
C -54.024 -12.053 0.506
C -54.022 -11.97 -1.056
C -55.305 -12.701 -1.617
C -56.583 -12.01 0.499
C -56.575 -11.926 -1.062
C -55.313 -12.834 0.978
C -54.02 -11.838 -3.632
C -56.56 -11.792 -3.638
C -55.3 -12.626 -3.181
C -54.026 -12.19 3.08
C -55.317 -12.912 2.542
C -56.595 -12.149 3.074
C -60.452 -14.204 0.356
C -60.438 -14.124 -1.217
C -63.015 -12.625 0.922
C -62.977 -12.48 -1.718
C -61.728 -14.821 -1.799
C -62.991 -14.093 0.312
C -62.973 -14.01 -1.241
C -61.754 -14.948 0.841
C -60.395 -14 -3.796
C -62.948 -12.396 -3.298
C -62.918 -13.872 -3.92
C -61.704 -14.747 -3.38
C -60.464 -14.321 2.936
C -63.03 -12.708 2.502
C -61.763 -15.022 2.422
C -63.005 -14.222 2.994
C -59.144 -11.952 0.479
C -59.131 -11.866 -1.083
C -60.415 -12.574 -1.658
C -61.71 -11.878 0.449
C -61.691 -11.788 -1.123
C -60.443 -12.711 0.942
C -59.099 -11.731 -3.658
C -61.637 -11.647 -3.702
C -60.39 -12.496 -3.222
C -59.165 -12.089 3.054
C -60.455 -12.788 2.505
C -61.733 -12.011 3.028
C -64.249 -11.769 0.392
C -64.225 -11.674 -1.161
C -64.157 -11.515 -3.841
C -64.275 -11.915 3.073
H -34.93 -14.244 -4.96
H -37.48 -14.247 -4.924
H -34.797 -14.588 3.912
H -37.37 -14.593 3.948
H -33.637 -11.902 -4.885
H -36.19 -11.907 -4.846
H -33.496 -12.277 3.983
H -36.067 -12.281 4.023
H -29.816 -14.223 -5.052
H -32.376 -14.236 -5.003
H -29.653 -14.575 3.818
H -32.225 -14.582 3.868
H -28.514 -11.879 -4.978
H -31.079 -11.892 -4.93
H -28.358 -12.269 3.89
H -30.927 -12.273 3.938
H -24.673 -14.189 -5.154
H -27.249 -14.207 -5.104
H -24.517 -14.556 3.716
H -27.084 -14.566 3.766
H -23.366 -11.851 -5.071
H -25.944 -11.864 -5.026
H -23.223 -12.261 3.796
H -25.79 -12.265 3.841
H -22.091 -14.173 -5.2
H -21.952 -14.545 3.671
H -20.783 -11.841 -5.113
H -20.655 -12.254 3.755
H -62.847 -13.806 -4.998
H -62.969 -14.246 4.075
H -64.077 -11.438 -4.917
H -64.246 -11.944 4.154
H -41.203 -12.291 4.084
H -55.335 -14.519 4.041
H -54.028 -12.261 4.16
H -42.509 -14.599 3.997
H -43.767 -12.296 4.106
H -56.603 -12.22 4.154
H -45.073 -14.598 4.013
H -46.329 -12.298 4.126
H -57.906 -14.46 4.03
H -59.179 -12.157 4.134
H -47.636 -14.593 4.026
H -60.461 -14.37 4.017
H -48.892 -12.295 4.142
H -61.735 -12.066 4.109
H -50.199 -14.581 4.036
H -51.457 -12.284 4.154
H -39.941 -14.597 3.976
H -38.636 -12.286 4.057
H -52.765 -14.558 4.042
H -47.675 -14.202 -4.849
H -50.222 -14.176 -4.84
H -38.741 -11.907 -4.813
H -61.602 -11.591 -4.782
H -52.768 -14.143 -4.834
H -41.291 -11.9 -4.787
H -51.481 -11.821 -4.717
H -54.02 -11.786 -4.712
H -57.846 -14.041 -4.846
H -56.555 -11.742 -4.718
H -42.577 -14.236 -4.877
H -45.126 -14.222 -4.862
H -60.366 -13.953 -4.876
H -46.39 -11.871 -4.746
H -48.937 -11.849 -4.729
H -40.028 -14.244 -4.897
H -55.309 -14.1 -4.835
H -43.841 -11.888 -4.764
H -59.086 -11.682 -4.739
C 7.597 -15.075 0.403
C 7.588 -15.019 -2.199
C 7.583 -14.984 -3.765
C 7.603 -15.109 1.97
C 11.447 -14.294 -0.108
C 11.44 -14.267 -1.673
C 8.902 -12.79 0.444
C 8.887 -12.745 -2.158
C 10.152 -15.02 -2.203
C 8.883 -14.297 -0.101
C 8.877 -14.267 -1.666
C 10.162 -15.071 0.399
C 11.428 -14.22 -4.257
C 8.878 -12.716 -3.723
C 8.867 -14.215 -4.25
C 10.145 -14.988 -3.769
C 11.46 -14.34 2.474
C 8.912 -12.819 2.011
C 10.169 -15.103 1.966
C 8.894 -14.348 2.48
C 12.75 -12.01 -0.081
C 12.739 -11.991 -1.646
C 11.45 -12.747 -2.168
C 10.186 -12.014 -0.068
C 10.176 -11.991 -1.633
C 11.466 -12.786 0.434
C 12.721 -11.959 -4.23
C 10.16 -11.952 -4.216
C 11.44 -12.722 -3.734
C 12.768 -12.042 2.5
C 11.477 -12.81 2.001
C 10.203 -12.053 2.514
C 12.726 -15.067 0.393
C 12.714 -15.021 -2.209
C 12.706 -14.992 -3.775
C 12.735 -15.097 1.96
C 16.575 -14.288 -0.126
C 16.564 -14.267 -1.691
C 14.03 -12.781 0.423
C 14.012 -12.748 -2.18
C 15.275 -15.022 -2.217
C 14.011 -14.291 -0.116
C 14.002 -14.267 -1.681
C 15.291 -15.064 0.386
C 16.547 -14.23 -4.275
C 14.001 -12.727 -3.746
C 13.988 -14.226 -4.265
C 15.266 -14.995 -3.783
C 16.591 -14.325 2.455
C 14.042 -12.802 1.989
C 15.3 -15.091 1.952
C 14.025 -14.332 2.465
C 17.876 -12.003 -0.112
C 17.862 -11.991 -1.677
C 16.573 -12.749 -2.193
C 15.313 -12.007 -0.096
C 15.301 -11.991 -1.66
C 16.594 -12.777 0.409
C 17.84 -11.971 -4.261
C 15.281 -11.965 -4.244
C 16.56 -12.731 -3.759
C 17.899 -12.023 2.469
C 16.607 -12.795 1.976
C 15.333 -12.032 2.486
C 17.855 -15.061 0.376
C 17.836 -15.023 -2.227
C 17.825 -14.998 -3.793
C 17.867 -15.086 1.943
C 21.703 -14.283 -0.157
C 21.686 -14.267 -1.722
C 19.158 -12.773 0.393
C 19.134 -12.75 -2.209
C 20.397 -15.024 -2.241
C 19.138 -14.286 -0.139
C 19.125 -14.267 -1.704
C 20.42 -15.059 0.361
C 21.661 -14.236 -4.307
C 19.119 -12.735 -3.775
C 19.105 -14.234 -4.288
C 20.382 -15.001 -3.807
C 21.729 -14.314 2.423
C 19.173 -12.788 1.96
C 20.434 -15.081 1.928
C 19.159 -14.319 2.442
C 23.004 -11.997 -0.157
C 22.985 -11.989 -1.722
C 21.695 -12.75 -2.23
C 20.44 -12 -0.132
C 20.424 -11.99 -1.697
C 21.723 -12.769 0.372
C 22.954 -11.977 -4.306
C 20.398 -11.975 -4.281
C 21.677 -12.737 -3.795
C 23.035 -12.009 2.424
C 21.741 -12.783 1.939
C 20.467 -12.016 2.449
C 22.986 -15.056 0.34
C 22.957 -15.023 -2.262
C 22.939 -15.001 -3.827
C 23.004 -15.077 1.907
C 26.832 -14.278 -0.218
C 26.808 -14.262 -1.783
C 24.289 -12.766 0.345
C 24.255 -12.749 -2.257
C 25.516 -15.021 -2.291
C 24.267 -14.281 -0.183
C 24.247 -14.265 -1.748
C 25.552 -15.053 0.311
C 26.769 -14.235 -4.367
C 24.234 -12.737 -3.822
C 24.215 -14.237 -4.332
C 25.494 -15 -3.857
C 26.872 -14.306 2.362
C 24.309 -12.778 1.912
C 25.575 -15.074 1.878
C 24.3 -14.309 2.397
C 28.133 -11.991 -0.229
C 28.107 -11.983 -1.793
C 26.815 -12.746 -2.292
C 25.568 -11.994 -0.189
C 25.546 -11.986 -1.754
C 26.855 -12.763 0.309
C 28.065 -11.972 -4.377
C 25.51 -11.976 -4.337
C 26.791 -12.735 -3.858
C 28.175 -12.002 2.352
C 26.879 -12.775 1.877
C 25.605 -12.005 2.392
C 28.119 -15.051 0.271
C 28.075 -15.018 -2.331
C 28.049 -14.997 -3.896
C 28.146 -15.072 1.838
C 31.961 -14.271 -0.316
C 31.929 -14.253 -1.88
C 29.42 -12.76 0.266
C 29.374 -12.742 -2.336
C 30.634 -15.013 -2.38
C 29.397 -14.275 -0.262
C 29.369 -14.258 -1.827
C 30.685 -15.047 0.221
C 31.876 -14.221 -4.464
C 29.348 -12.729 -3.901
C 29.322 -14.229 -4.411
C 30.604 -14.991 -3.946
C 32.015 -14.303 2.264
C 29.448 -12.772 1.833
C 30.716 -15.07 1.788
C 29.445 -14.304 2.318
C 33.26 -11.983 -0.329
C 33.229 -11.971 -1.893
C 31.934 -12.735 -2.387
C 30.697 -11.987 -0.275
C 30.668 -11.978 -1.84
C 31.985 -12.757 0.214
C 33.177 -11.953 -4.477
C 30.621 -11.964 -4.424
C 31.904 -12.721 -3.953
C 33.313 -12.001 2.252
C 32.015 -12.771 1.781
C 30.745 -12.001 2.305
C 33.25 -15.043 0.163
C 33.193 -15.006 -2.439
C 33.16 -14.981 -4.004
C 33.285 -15.068 1.73
C 34.549 -12.753 0.157
C 34.494 -12.727 -2.445
C 35.752 -14.996 -2.504
C 34.524 -14.266 -0.376
C 34.489 -14.245 -1.941
C 35.814 -15.038 0.098
C 34.462 -12.709 -4.01
C 34.431 -14.209 -4.525
C 35.716 -14.969 -4.069
C 34.582 -12.771 1.723
C 35.851 -15.065 1.665
C 34.584 -14.302 2.204
C 35.822 -11.978 -0.386
C 35.789 -11.963 -1.951
C 35.734 -11.939 -4.534
C 35.878 -12.003 2.194
C 2.462 -15.084 0.404
C 2.457 -15.016 -2.197
C 2.453 -14.975 -3.763
C 2.466 -15.124 1.97
C 6.317 -14.3 -0.097
C 6.312 -14.266 -1.661
C 3.769 -12.802 0.459
C 3.757 -12.742 -2.142
C 5.024 -15.017 -2.197
C 3.75 -14.304 -0.095
C 3.746 -14.266 -1.659
C 5.03 -15.079 0.405
C 6.304 -14.209 -4.244
C 3.749 -12.705 -3.708
C 3.74 -14.203 -4.241
C 5.019 -14.979 -3.762
C 6.326 -14.357 2.485
C 3.778 -12.838 2.026
C 5.035 -15.116 1.971
C 3.757 -14.367 2.487
C 7.621 -12.018 -0.056
C 7.612 -11.99 -1.621
C 6.323 -12.743 -2.149
C 5.055 -12.023 -0.046
C 5.047 -11.99 -1.611
C 6.336 -12.796 0.453
C 7.597 -11.944 -4.204
C 5.034 -11.936 -4.193
C 6.314 -12.711 -3.714
C 7.637 -12.064 2.525
C 6.346 -12.828 2.02
C 5.07 -12.077 2.535
C -2.682 -15.096 0.395
C -2.686 -15.016 -2.205
C -2.689 -14.968 -3.771
C -2.678 -15.144 1.96
C 1.181 -14.309 -0.095
C 1.177 -14.267 -1.66
C -1.373 -12.815 0.466
C -1.383 -12.739 -2.134
C -0.113 -15.016 -2.201
C -1.391 -14.314 -0.098
C -1.394 -14.268 -1.662
C -0.109 -15.089 0.4
C 1.173 -14.197 -4.241
C -1.39 -12.692 -3.7
C -1.398 -14.191 -4.242
C -0.116 -14.971 -3.766
C 1.187 -14.378 2.486
C -1.364 -12.861 2.032
C -0.105 -15.134 1.966
C -1.385 -14.39 2.483
C 2.487 -12.028 -0.038
C 2.479 -11.99 -1.602
C 1.189 -12.74 -2.137
C -0.084 -12.033 -0.032
C -0.091 -11.99 -1.596
C 1.199 -12.808 0.464
C 2.467 -11.927 -4.184
C -0.102 -11.919 -4.176
C 1.181 -12.698 -3.703
C 2.501 -12.09 2.543
C 1.208 -12.849 2.03
C -0.071 -12.105 2.549
C -7.833 -15.112 0.388
C -7.842 -15.021 -2.21
C -7.848 -14.966 -3.775
C -7.826 -15.166 1.954
C -3.965 -14.32 -0.1
C -3.969 -14.27 -1.665
C -6.523 -12.83 0.471
C -6.536 -12.738 -2.127
C -5.262 -15.018 -2.209
C -6.541 -14.326 -0.102
C -6.547 -14.273 -1.666
C -5.256 -15.103 0.39
C -3.974 -14.186 -4.244
C -6.545 -12.682 -3.692
C -6.554 -14.183 -4.243
C -5.266 -14.966 -3.775
C -3.959 -14.403 2.479
C -6.514 -12.885 2.037
C -5.251 -15.155 1.955
C -6.533 -14.416 2.477
C -2.657 -12.039 -0.026
C -2.664 -11.991 -1.59
C -3.958 -12.738 -2.131
C -5.233 -12.045 -0.02
C -5.24 -11.992 -1.584
C -3.947 -12.822 0.468
C -2.675 -11.91 -4.17
C -5.253 -11.902 -4.162
C -3.965 -12.687 -3.697
C -2.644 -12.12 2.554
C -3.938 -12.873 2.033
C -5.218 -12.135 2.559
C -12.989 -15.133 0.402
C -13.008 -15.033 -2.194
C -13.019 -14.973 -3.76
C -12.977 -15.192 1.966
C -9.12 -14.334 -0.099
C -9.127 -14.277 -1.663
C -11.681 -12.846 0.49
C -11.701 -12.741 -2.106
C -10.424 -15.026 -2.205
C -11.699 -14.342 -0.09
C -11.709 -14.282 -1.654
C -10.41 -15.122 0.392
C -9.138 -14.181 -4.239
C -11.713 -12.677 -3.672
C -11.725 -14.182 -4.229
C -10.432 -14.968 -3.771
C -9.107 -14.429 2.479
C -11.668 -12.908 2.054
C -10.401 -15.179 1.957
C -11.682 -14.442 2.487
C -7.811 -12.051 -0.012
C -7.82 -11.993 -1.576
C -9.117 -12.739 -2.119
C -10.391 -12.056 0
C -10.402 -11.994 -1.564
C -9.102 -12.838 0.478
C -7.835 -11.895 -4.153
C -10.42 -11.89 -4.139
C -9.128 -12.679 -3.685
C -7.794 -12.149 2.566
C -9.09 -12.897 2.043
C -10.371 -12.161 2.576
C -18.143 -15.159 0.445
C -18.174 -15.055 -2.15
C -18.193 -14.992 -3.715
C -18.124 -15.221 2.009
C -14.279 -14.352 -0.075
C -14.292 -14.289 -1.639
C -16.839 -12.862 0.531
C -16.869 -12.749 -2.063
C -15.592 -15.043 -2.176
C -16.858 -14.362 -0.053
C -16.875 -14.298 -1.616
C -15.567 -15.145 0.419
C -14.314 -14.186 -4.213
C -16.887 -12.682 -3.629
C -16.903 -14.192 -4.189
C -15.607 -14.981 -3.742
C -14.256 -14.455 2.501
C -16.821 -12.929 2.095
C -15.551 -15.206 1.984
C -16.83 -14.469 2.522
C -12.971 -12.062 0.016
C -12.985 -11.997 -1.547
C -14.285 -12.744 -2.088
C -15.552 -12.067 0.038
C -15.568 -11.999 -1.525
C -14.261 -12.854 0.507
C -13.007 -11.886 -4.121
C -15.596 -11.885 -4.098
C -14.3 -12.678 -3.654
C -12.948 -12.172 2.592
C -14.245 -12.919 2.071
C -15.524 -12.182 2.613
C -19.435 -14.374 -0.022
C -19.456 -14.309 -1.586
C -19.49 -14.202 -4.158
C -19.401 -14.481 2.552
C -18.131 -12.073 0.067
C -18.151 -12.004 -1.496
C -19.451 -12.757 -2.031
C -19.416 -12.871 0.562
C -18.183 -11.887 -4.068
C -19.472 -12.688 -3.597
C -18.099 -12.19 2.641
C -19.396 -12.939 2.126
H 26.753 -14.226 -5.449
H 24.204 -14.228 -5.414
H 26.89 -14.32 3.444
H 24.314 -14.323 3.479
H 28.048 -11.975 -5.459
H 25.496 -11.979 -5.419
H 28.196 -12.005 3.434
H 25.622 -12.007 3.473
H 31.853 -14.212 -5.546
H 29.302 -14.221 -5.493
H 32.042 -14.319 3.346
H 29.467 -14.319 3.399
H 33.155 -11.953 -5.559
H 30.601 -11.966 -5.505
H 33.339 -12.008 3.333
H 30.768 -12.005 3.387
H 34.405 -14.198 -5.606
H 34.613 -14.32 3.285
H 35.71 -11.935 -5.616
H 35.906 -12.013 3.276
H -1.393 -14.159 -5.324
H -1.384 -14.424 3.564
H -3.969 -14.151 -5.325
H -6.55 -14.145 -5.325
H -3.957 -14.44 3.561
H -6.53 -14.456 3.559
H -2.673 -11.876 -5.251
H -5.252 -11.863 -5.244
H -2.639 -12.157 3.635
H -5.213 -12.176 3.64
H -9.137 -14.141 -5.32
H -11.727 -14.14 -5.311
H -9.103 -14.472 3.56
H -11.675 -14.488 3.568
H -7.835 -11.852 -5.234
H -10.422 -11.844 -5.22
H -7.788 -12.194 3.647
H -10.363 -12.211 3.657
H -14.319 -14.143 -5.294
H -16.912 -14.149 -5.27
H -14.247 -14.503 3.582
H -16.817 -14.518 3.603
H -13.013 -11.838 -5.202
H -15.604 -11.835 -5.179
H -12.938 -12.225 3.672
H -15.512 -12.237 3.693
H -19.503 -14.159 -5.239
H -19.385 -14.532 3.633
H -18.195 -11.836 -5.149
H -18.084 -12.247 3.721
H 20.477 -12.021 3.531
H 6.33 -14.383 3.567
H 7.644 -12.084 3.607
H 19.166 -14.335 3.524
H 17.908 -12.031 3.551
H 5.076 -12.1 3.617
H 16.597 -14.343 3.537
H 15.341 -12.043 3.568
H 3.76 -14.396 3.568
H 2.506 -12.118 3.625
H 14.03 -14.352 3.547
H 1.188 -14.409 3.567
H 12.775 -12.056 3.582
H -0.066 -12.137 3.63
H 11.464 -14.361 3.555
H 10.21 -12.069 3.595
H 21.739 -14.328 3.505
H 23.048 -12.013 3.506
H 8.898 -14.372 3.562
H 13.986 -14.21 -5.347
H 11.427 -14.203 -5.339
H 22.944 -11.978 -5.388
H -0.1 -11.89 -5.258
H 8.866 -14.195 -5.331
H 20.39 -11.974 -5.363
H 10.157 -11.939 -5.298
H 7.595 -11.928 -5.286
H 3.742 -14.178 -5.323
H 5.033 -11.916 -5.275
H 19.1 -14.223 -5.37
H 16.544 -14.217 -5.357
H 1.177 -14.168 -5.322
H 15.276 -11.959 -5.326
H 12.717 -11.949 -5.312
H 21.653 -14.227 -5.388
H 6.305 -14.186 -5.326
H 17.834 -11.968 -5.343
H 2.468 -11.903 -5.266
C 37.087 -14.259 -0.442
C 37.049 -14.235 -2.006
C 36.987 -14.194 -4.59
C 37.149 -14.301 2.139
C 38.384 -11.972 -0.447
C 38.348 -11.953 -2.011
C 37.053 -12.716 -2.506
C 37.112 -12.748 0.095
C 38.291 -11.922 -4.595
C 37.019 -12.695 -4.072
C 38.441 -12.004 2.134
C 37.146 -12.77 1.662
C 38.377 -15.031 0.029
C 38.311 -14.983 -2.572
C 38.273 -14.953 -4.138
C 38.416 -15.061 1.596
C 39.673 -12.742 0.032
C 39.612 -12.703 -2.57
C 40.871 -14.967 -2.643
C 39.648 -14.25 -0.51
C 39.608 -14.222 -2.074
C 40.938 -15.02 -0.041
C 39.577 -12.678 -4.136
C 39.544 -14.175 -4.658
C 40.831 -14.933 -4.209
C 39.708 -12.768 1.598
C 40.978 -15.055 1.525
C 39.713 -14.298 2.071
C 40.944 -11.964 -0.508
C 40.908 -11.94 -2.073
C 40.849 -11.902 -4.656
C 41.003 -12.004 2.073
H 36.96 -14.181 -5.672
H 37.181 -14.322 3.22
H 38.267 -11.914 -5.676
H 38.47 -12.018 3.216
H 39.516 -14.159 -5.74
H 39.745 -14.322 3.152
H 40.824 -11.891 -5.738
H 41.032 -12.022 3.155
C 42.208 -14.237 -0.579
C 42.168 -14.206 -2.144
C 42.101 -14.153 -4.727
C 42.274 -14.293 2.002
C 43.504 -11.953 -0.571
C 43.467 -11.925 -2.135
C 42.171 -12.686 -2.635
C 42.234 -12.733 -0.033
C 43.407 -11.879 -4.719
C 42.135 -12.657 -4.2
C 43.564 -12 2.011
C 42.27 -12.763 1.533
C 43.5 -15.006 -0.113
C 43.431 -14.946 -2.715
C 43.39 -14.909 -4.28
C 43.539 -15.043 1.452
C 44.794 -12.72 -0.099
C 44.731 -12.667 -2.7
C 45.993 -14.921 -2.786
C 44.769 -14.221 -0.65
C 44.728 -14.186 -2.213
C 46.061 -14.986 -0.186
C 44.694 -12.633 -4.266
C 44.66 -14.126 -4.797
C 45.95 -14.88 -4.351
C 44.83 -12.754 1.467
C 46.099 -15.026 1.38
C 44.834 -14.282 1.932
C 46.064 -11.938 -0.636
C 46.028 -11.906 -2.199
C 45.966 -11.852 -4.782
C 46.123 -11.992 1.947
H 42.074 -14.134 -5.809
H 42.307 -14.32 3.083
H 43.382 -11.865 -5.801
H 43.594 -12.022 3.092
H 44.632 -14.104 -5.878
H 44.867 -14.312 3.013
H 45.94 -11.835 -5.864
H 46.153 -12.018 3.028
C 47.331 -14.2 -0.72
C 47.291 -14.162 -2.284
C 47.219 -14.094 -4.866
C 47.392 -14.264 1.862
C 48.626 -11.919 -0.701
C 48.59 -11.883 -2.264
C 47.293 -12.643 -2.767
C 47.355 -12.702 -0.166
C 48.525 -11.822 -4.847
C 47.254 -12.605 -4.331
C 48.68 -11.977 1.882
C 47.388 -12.739 1.4
C 48.624 -14.96 -0.254
C 48.557 -14.892 -2.86
C 48.51 -14.846 -4.424
C 48.658 -15.001 1.311
C 49.917 -12.679 -0.229
C 49.857 -12.615 -2.836
C 51.125 -14.858 -2.95
C 49.896 -14.174 -0.784
C 49.857 -14.134 -2.358
C 51.191 -14.928 -0.302
C 49.815 -12.573 -4.399
C 49.776 -14.056 -4.944
C 51.076 -14.811 -4.531
C 49.946 -12.716 1.336
C 51.224 -14.968 1.28
C 49.945 -14.235 1.803
C 51.191 -11.896 -0.759
C 51.157 -11.858 -2.333
C 51.083 -11.786 -4.918
C 51.231 -11.952 1.829
H 47.189 -14.069 -5.948
H 47.423 -14.296 2.943
H 48.498 -11.801 -5.928
H 48.708 -12.004 2.964
H 49.728 -14.019 -6.024
H 49.958 -14.259 2.884
H 51.038 -11.753 -5.999
H 51.241 -11.972 2.91
C 52.434 -14.123 -0.856
C 52.396 -14.084 -2.412
C 52.307 -14.002 -5.102
C 52.477 -14.183 1.833
C 53.728 -11.85 -0.825
C 53.696 -11.813 -2.381
C 52.425 -12.585 -2.919
C 52.483 -12.651 -0.271
C 53.616 -11.735 -5.071
C 52.382 -12.541 -4.501
C 53.761 -11.906 1.866
C 52.51 -12.688 1.311
H 52.22 -13.939 -6.179
H 52.45 -14.185 2.914
H 53.53 -11.675 -6.148
H 53.729 -11.904 2.947
C -54.097 -19.737 0.687
C -54.094 -19.642 -1.91
C -54.089 -19.588 -3.475
C -54.097 -19.794 2.252
C -50.248 -19.01 0.196
C -50.25 -18.951 -1.367
C -52.794 -17.469 0.771
C -52.793 -17.364 -1.826
C -51.536 -19.689 -1.91
C -52.807 -18.972 0.198
C -52.806 -18.912 -1.366
C -51.535 -19.783 0.688
C -50.252 -18.861 -3.945
C -52.792 -17.306 -3.391
C -52.803 -18.821 -3.943
C -51.536 -19.637 -3.475
C -50.245 -19.106 2.774
C -52.794 -17.532 2.335
C -51.534 -19.84 2.253
C -52.807 -19.07 2.776
C -48.949 -16.721 0.279
C -48.953 -16.656 -1.285
C -50.238 -17.401 -1.829
C -51.507 -16.693 0.284
C -51.507 -16.627 -1.28
C -50.234 -17.504 0.768
C -48.96 -16.557 -3.861
C -51.509 -16.526 -3.857
C -50.241 -17.343 -3.395
C -48.943 -16.826 2.855
C -50.232 -17.565 2.333
C -51.504 -16.801 2.86
C -48.976 -19.817 0.686
C -48.98 -19.724 -1.912
C -48.983 -19.672 -3.478
C -48.973 -19.873 2.251
C -45.132 -19.055 0.186
C -45.139 -18.998 -1.378
C -47.675 -17.528 0.763
C -47.684 -17.427 -1.834
C -46.425 -19.749 -1.916
C -47.69 -19.037 0.193
C -47.694 -18.979 -1.371
C -46.416 -19.84 0.681
C -45.15 -18.912 -3.955
C -47.689 -17.371 -3.4
C -47.701 -18.891 -3.949
C -46.43 -19.699 -3.482
C -45.122 -19.146 2.763
C -47.67 -17.588 2.327
C -46.411 -19.894 2.247
C -47.684 -19.131 2.77
C -43.834 -16.752 0.261
C -43.843 -16.69 -1.303
C -45.129 -17.446 -1.842
C -46.392 -16.74 0.271
C -46.398 -16.677 -1.293
C -45.116 -17.543 0.754
C -43.859 -16.597 -3.879
C -46.41 -16.58 -3.869
C -45.137 -17.39 -3.408
C -43.819 -16.85 2.836
C -45.108 -17.602 2.32
C -46.381 -16.841 2.847
C -43.856 -19.855 0.674
C -43.87 -19.766 -1.923
C -43.878 -19.717 -3.489
C -43.848 -19.908 2.239
C -40.012 -19.072 0.16
C -40.027 -19.017 -1.404
C -42.556 -17.553 0.743
C -42.574 -17.457 -1.853
C -41.314 -19.776 -1.936
C -42.573 -19.066 0.176
C -42.583 -19.01 -1.388
C -41.294 -19.864 0.661
C -40.05 -18.934 -3.98
C -42.586 -17.403 -3.419
C -42.6 -18.926 -3.964
C -41.326 -19.728 -3.501
C -39.99 -19.16 2.735
C -42.545 -17.609 2.308
C -41.283 -19.916 2.227
C -42.558 -19.156 2.752
C -38.713 -16.76 0.224
C -38.73 -16.701 -1.34
C -40.018 -17.463 -1.87
C -41.274 -16.758 0.246
C -41.287 -16.698 -1.318
C -39.994 -17.557 0.725
C -38.758 -16.611 -3.914
C -41.309 -16.607 -3.893
C -40.034 -17.411 -3.436
C -38.686 -16.854 2.798
C -39.98 -17.612 2.29
C -41.254 -16.854 2.821
C -38.731 -19.867 0.64
C -38.758 -19.781 -1.956
C -38.774 -19.733 -3.521
C -38.715 -19.918 2.206
C -34.886 -19.069 0.099
C -34.908 -19.014 -1.465
C -37.43 -17.557 0.699
C -37.461 -17.464 -1.896
C -36.2 -19.779 -1.985
C -37.45 -19.073 0.135
C -37.468 -19.018 -1.429
C -36.166 -19.865 0.61
C -34.947 -18.933 -4.039
C -37.481 -17.412 -3.461
C -37.499 -18.936 -4.005
C -36.221 -19.731 -3.551
C -34.848 -19.155 2.674
C -37.412 -17.612 2.265
C -36.145 -19.916 2.176
C -37.42 -19.159 2.71
C -33.586 -16.752 0.153
C -33.61 -16.694 -1.411
C -34.903 -17.46 -1.931
C -36.151 -16.758 0.193
C -36.171 -16.7 -1.37
C -34.865 -17.553 0.664
C -33.652 -16.605 -3.984
C -36.206 -16.611 -3.945
C -34.926 -17.409 -3.496
C -33.546 -16.845 2.727
C -34.842 -17.607 2.229
C -36.117 -16.851 2.767
C -33.599 -19.858 0.57
C -33.639 -19.773 -2.025
C -33.664 -19.725 -3.591
C -33.574 -19.909 2.136
C -29.752 -19.047 0.002
C -29.78 -18.992 -1.562
C -32.298 -17.544 0.619
C -32.341 -17.452 -1.975
C -31.076 -19.761 -2.074
C -32.32 -19.06 0.054
C -32.345 -19.006 -1.509
C -31.03 -19.847 0.521
C -29.829 -18.909 -4.135
C -32.367 -17.4 -3.541
C -32.39 -18.923 -4.084
C -31.104 -19.712 -3.64
C -29.704 -19.134 2.577
C -32.272 -17.599 2.184
C -31.003 -19.898 2.086
C -32.276 -19.146 2.629
C -28.453 -16.73 0.052
C -28.48 -16.671 -1.512
C -29.776 -17.439 -2.027
C -31.02 -16.743 0.105
C -31.047 -16.684 -1.459
C -29.73 -17.532 0.567
C -28.528 -16.579 -4.085
C -31.093 -16.594 -4.032
C -29.805 -17.386 -3.592
C -28.405 -16.824 2.625
C -29.702 -17.587 2.132
C -30.975 -16.836 2.679
C -28.461 -19.831 0.466
C -28.509 -19.745 -2.129
C -28.538 -19.695 -3.695
C -28.432 -19.882 2.031
C -24.612 -19.01 -0.107
C -24.639 -18.955 -1.671
C -27.161 -17.517 0.512
C -27.208 -17.423 -2.082
C -25.937 -19.724 -2.185
C -27.183 -19.03 -0.053
C -27.211 -18.975 -1.617
C -25.891 -19.811 0.41
C -24.685 -18.87 -4.244
C -27.236 -17.369 -3.647
C -27.26 -18.891 -4.191
C -25.966 -19.674 -3.75
C -24.566 -19.098 2.468
C -27.133 -17.573 2.077
C -25.862 -19.863 1.975
C -27.134 -19.117 2.521
C -23.312 -16.697 -0.053
C -23.336 -16.637 -1.616
C -24.635 -17.404 -2.135
C -25.883 -16.714 -0.002
C -25.91 -16.655 -1.566
C -24.591 -17.499 0.459
C -23.38 -16.542 -4.189
C -25.957 -16.561 -4.138
C -24.662 -17.349 -3.7
C -23.268 -16.794 2.522
C -24.564 -17.556 2.024
C -25.836 -16.81 2.572
C -23.319 -19.789 0.359
C -23.362 -19.702 -2.236
C -23.389 -19.651 -3.802
C -23.293 -19.841 1.924
C -22.019 -17.48 0.412
C -22.059 -17.385 -2.182
C -20.784 -19.678 -2.281
C -22.04 -18.988 -0.156
C -22.063 -18.934 -1.719
C -20.747 -19.765 0.315
C -22.083 -17.328 -3.748
C -22.104 -18.847 -4.293
C -20.806 -19.626 -3.846
C -21.995 -17.537 1.977
C -20.724 -19.818 1.88
C -21.999 -19.077 2.42
C -20.738 -16.679 -0.096
C -20.76 -16.62 -1.66
C -20.797 -16.524 -4.232
C -20.7 -16.777 2.479
C -59.232 -19.597 0.696
C -59.221 -19.495 -1.946
C -59.207 -19.437 -3.527
C -59.231 -19.657 2.277
C -55.368 -18.921 0.196
C -55.365 -18.86 -1.368
C -57.922 -17.356 0.763
C -57.91 -17.248 -1.838
C -56.655 -19.578 -1.917
C -57.934 -18.854 0.193
C -57.928 -18.791 -1.38
C -56.662 -19.675 0.686
C -55.354 -18.767 -3.945
C -57.896 -17.187 -3.403
C -57.902 -18.692 -3.96
C -56.644 -19.523 -3.481
C -55.369 -19.018 2.774
C -57.924 -17.417 2.328
C -56.66 -19.732 2.25
C -57.929 -18.948 2.776
C -54.065 -16.654 0.285
C -54.063 -16.587 -1.278
C -55.35 -17.314 -1.827
C -56.627 -16.6 0.28
C -56.621 -16.532 -1.283
C -55.357 -17.421 0.769
C -54.058 -16.484 -3.855
C -56.605 -16.427 -3.86
C -55.343 -17.255 -3.392
C -54.068 -16.763 2.862
C -55.358 -17.483 2.333
C -56.632 -16.708 2.857
C -60.473 -18.75 0.17
C -60.465 -18.685 -1.384
C -60.43 -18.576 -4.064
C -60.467 -18.852 2.854
C -59.193 -16.53 0.271
C -59.184 -16.459 -1.302
C -60.476 -17.16 -1.875
C -61.733 -16.422 0.239
C -61.72 -16.349 -1.315
C -60.493 -17.273 0.766
C -59.151 -16.349 -3.881
C -61.677 -16.226 -3.994
C -60.458 -17.095 -3.456
C -59.196 -16.634 2.853
C -60.497 -17.34 2.347
C -61.735 -16.536 2.922
H -34.964 -18.907 -5.121
H -37.512 -18.911 -5.087
H -34.832 -19.197 3.755
H -37.408 -19.202 3.791
H -33.671 -16.575 -5.065
H -36.221 -16.582 -5.026
H -33.526 -16.891 3.808
H -36.102 -16.897 3.848
H -29.852 -18.883 -5.217
H -32.411 -18.898 -5.165
H -29.68 -19.175 3.658
H -32.255 -19.188 3.71
H -28.551 -16.548 -5.166
H -31.115 -16.564 -5.113
H -28.381 -16.87 3.706
H -30.952 -16.882 3.76
H -24.706 -18.841 -5.326
H -27.283 -18.864 -5.272
H -24.543 -19.139 3.549
H -27.11 -19.159 3.602
H -23.399 -16.508 -5.27
H -25.979 -16.529 -5.22
H -23.247 -16.839 3.603
H -25.812 -16.856 3.653
H -22.121 -18.817 -5.374
H -21.978 -19.117 3.502
H -20.812 -16.488 -5.314
H -20.682 -16.821 3.56
H -41.247 -16.901 3.902
H -55.371 -19.068 3.855
H -54.071 -16.819 3.942
H -42.553 -19.199 3.834
H -43.815 -16.899 3.917
H -56.637 -16.764 3.938
H -45.12 -19.191 3.844
H -46.379 -16.892 3.928
H -57.918 -18.988 3.857
H -59.187 -16.679 3.934
H -47.684 -19.177 3.851
H -60.419 -18.87 3.935
H -48.942 -16.878 3.936
H -61.693 -16.556 4.003
H -50.246 -19.155 3.855
H -51.505 -16.855 3.941
H -39.983 -19.203 3.817
H -38.676 -16.9 3.879
H -52.809 -19.12 3.857
H -47.704 -18.866 -5.03
H -50.255 -18.836 -5.027
H -38.769 -16.582 -4.996
H -61.612 -16.168 -5.072
H -52.805 -18.795 -5.025
H -41.316 -16.577 -4.975
H -51.512 -16.494 -4.938
H -54.059 -16.452 -4.937
H -57.881 -18.657 -5.042
H -56.602 -16.395 -4.941
H -42.606 -18.901 -5.046
H -45.154 -18.887 -5.036
H -60.37 -18.522 -5.143
H -46.414 -16.549 -4.95
H -48.963 -16.526 -4.943
H -40.059 -18.909 -5.062
H -55.352 -18.74 -5.027
H -43.864 -16.566 -4.96
H -59.126 -16.31 -4.962
C 7.551 -19.636 0.289
C 7.549 -19.569 -2.312
C 7.548 -19.528 -3.879
C 7.553 -19.676 1.855
C 11.403 -18.855 -0.209
C 11.399 -18.819 -1.774
C 8.857 -17.354 0.349
C 8.851 -17.294 -2.253
C 10.112 -19.57 -2.312
C 8.839 -18.857 -0.208
C 8.836 -18.819 -1.773
C 10.116 -19.634 0.29
C 11.394 -18.756 -4.358
C 8.847 -17.256 -3.819
C 8.833 -18.754 -4.356
C 10.109 -19.53 -3.878
C 11.409 -18.918 2.372
C 8.861 -17.391 1.915
C 10.119 -19.673 1.856
C 8.842 -18.921 2.373
C 12.708 -16.574 -0.156
C 12.701 -16.543 -1.721
C 11.414 -17.295 -2.255
C 10.143 -16.576 -0.152
C 10.139 -16.543 -1.717
C 11.422 -17.352 0.347
C 12.692 -16.489 -4.305
C 10.132 -16.485 -4.301
C 11.409 -17.259 -3.822
C 12.717 -16.628 2.425
C 11.427 -17.387 1.913
C 10.151 -16.633 2.429
C 12.681 -19.633 0.288
C 12.674 -19.57 -2.314
C 12.67 -19.532 -3.88
C 12.685 -19.671 1.855
C 16.531 -18.853 -0.216
C 16.523 -18.82 -1.781
C 13.986 -17.35 0.343
C 13.975 -17.296 -2.259
C 15.235 -19.571 -2.317
C 13.967 -18.854 -0.212
C 13.961 -18.819 -1.777
C 15.245 -19.632 0.285
C 16.512 -18.76 -4.365
C 13.969 -17.262 -3.825
C 13.954 -18.758 -4.361
C 15.229 -19.533 -3.883
C 16.542 -18.912 2.364
C 13.993 -17.383 1.91
C 15.251 -19.669 1.851
C 13.975 -18.915 2.369
C 17.835 -16.57 -0.169
C 17.825 -16.544 -1.734
C 16.536 -17.297 -2.265
C 15.271 -16.572 -0.161
C 15.263 -16.543 -1.726
C 16.55 -17.348 0.337
C 17.809 -16.495 -4.319
C 15.252 -16.492 -4.311
C 16.528 -17.264 -3.831
C 17.851 -16.618 2.412
C 16.559 -17.38 1.904
C 15.283 -16.623 2.42
C 17.81 -19.63 0.279
C 17.796 -19.571 -2.323
C 17.787 -19.535 -3.889
C 17.818 -19.667 1.846
C 21.66 -18.851 -0.239
C 21.645 -18.819 -1.803
C 19.115 -17.346 0.328
C 19.097 -17.297 -2.274
C 20.355 -19.571 -2.333
C 19.095 -18.852 -0.224
C 19.084 -18.82 -1.789
C 20.376 -19.629 0.269
C 21.622 -18.763 -4.388
C 19.086 -17.266 -3.84
C 19.068 -18.762 -4.374
C 20.343 -19.536 -3.899
C 21.682 -18.907 2.342
C 19.127 -17.377 1.895
C 20.387 -19.665 1.835
C 19.111 -18.909 2.356
C 22.964 -16.567 -0.201
C 22.947 -16.542 -1.766
C 21.657 -17.297 -2.289
C 20.399 -16.569 -0.182
C 20.386 -16.543 -1.747
C 21.681 -17.344 0.313
C 22.919 -16.498 -4.351
C 20.365 -16.497 -4.331
C 21.642 -17.267 -3.855
C 22.992 -16.611 2.379
C 21.696 -17.374 1.88
C 20.42 -16.614 2.399
C 22.942 -19.628 0.251
C 22.915 -19.571 -2.351
C 22.898 -19.536 -3.917
C 22.959 -19.663 1.817
C 26.791 -18.847 -0.295
C 26.766 -18.815 -1.86
C 24.248 -17.342 0.289
C 24.216 -17.296 -2.313
C 25.473 -19.569 -2.379
C 24.225 -18.849 -0.261
C 24.206 -18.818 -1.826
C 25.51 -19.626 0.223
C 26.726 -18.76 -4.444
C 24.197 -17.267 -3.878
C 24.175 -18.762 -4.411
C 25.452 -19.534 -3.945
C 26.831 -18.902 2.285
C 24.267 -17.371 1.856
C 25.531 -19.661 1.789
C 24.256 -18.905 2.318
C 28.095 -16.562 -0.27
C 28.068 -16.537 -1.834
C 26.775 -17.293 -2.346
C 25.53 -16.565 -0.23
C 25.508 -16.54 -1.795
C 26.815 -17.339 0.255
C 28.024 -16.494 -4.419
C 25.472 -16.497 -4.379
C 26.75 -17.265 -3.912
C 28.139 -16.606 2.31
C 26.84 -17.368 1.822
C 25.565 -16.608 2.35
C 28.077 -19.623 0.184
C 28.032 -19.566 -2.418
C 28.005 -19.531 -3.984
C 28.105 -19.658 1.75
C 31.921 -18.839 -0.397
C 31.887 -18.806 -1.962
C 29.382 -17.336 0.21
C 29.333 -17.289 -2.391
C 30.59 -19.561 -2.469
C 29.356 -18.844 -0.34
C 29.326 -18.811 -1.905
C 30.645 -19.619 0.132
C 31.828 -18.748 -4.546
C 29.304 -17.26 -3.957
C 29.277 -18.756 -4.489
C 30.558 -19.525 -4.035
C 31.98 -18.897 2.182
C 29.412 -17.366 1.777
C 30.678 -19.655 1.698
C 29.406 -18.9 2.239
C 33.224 -16.553 -0.38
C 33.188 -16.526 -1.945
C 31.892 -17.283 -2.447
C 30.66 -16.558 -0.32
C 30.628 -16.533 -1.885
C 31.949 -17.332 0.154
C 33.129 -16.478 -4.529
C 30.576 -16.488 -4.469
C 31.858 -17.253 -4.013
C 33.284 -16.601 2.2
C 31.983 -17.363 1.721
C 30.713 -16.604 2.26
C 33.212 -19.613 0.07
C 33.149 -19.553 -2.531
C 33.111 -19.516 -4.097
C 33.249 -19.651 1.636
C 34.514 -17.327 0.089
C 34.451 -17.274 -2.512
C 35.708 -19.542 -2.602
C 34.486 -18.832 -0.463
C 34.447 -18.797 -2.028
C 35.777 -19.605 -0.001
C 34.413 -17.242 -4.078
C 34.381 -18.737 -4.612
C 35.666 -19.503 -4.168
C 34.552 -17.36 1.655
C 35.819 -19.645 1.565
C 34.552 -18.893 2.116
C 35.787 -16.546 -0.448
C 35.748 -16.516 -2.012
C 35.683 -16.465 -4.596
C 35.853 -16.598 2.132
C 2.416 -19.641 0.279
C 2.418 -19.57 -2.322
C 2.42 -19.526 -3.888
C 2.416 -19.684 1.845
C 6.273 -18.859 -0.21
C 6.272 -18.819 -1.774
C 3.723 -17.361 0.345
C 3.722 -17.293 -2.256
C 4.985 -19.569 -2.316
C 3.706 -18.861 -0.214
C 3.706 -18.82 -1.779
C 4.985 -19.638 0.286
C 6.272 -18.751 -4.357
C 3.721 -17.251 -3.822
C 3.708 -18.75 -4.361
C 4.985 -19.527 -3.882
C 6.275 -18.925 2.372
C 3.725 -17.401 1.912
C 4.985 -19.679 1.852
C 3.705 -18.93 2.367
C 7.578 -16.578 -0.15
C 7.575 -16.543 -1.715
C 6.287 -17.293 -2.253
C 5.012 -16.581 -0.151
C 5.01 -16.543 -1.716
C 6.291 -17.357 0.349
C 7.571 -16.481 -4.298
C 5.008 -16.477 -4.298
C 6.285 -17.254 -3.819
C 7.584 -16.639 2.431
C 6.294 -17.396 1.915
C 5.015 -16.646 2.43
C -2.725 -19.651 0.257
C -2.722 -19.574 -2.343
C -2.72 -19.528 -3.909
C -2.726 -19.696 1.823
C 1.138 -18.865 -0.222
C 1.138 -18.821 -1.787
C -1.417 -17.37 0.329
C -1.417 -17.294 -2.271
C -0.15 -19.571 -2.332
C -1.433 -18.869 -0.233
C -1.432 -18.824 -1.797
C -0.153 -19.645 0.269
C 1.143 -18.748 -4.368
C -1.416 -17.248 -3.837
C -1.427 -18.748 -4.378
C -0.148 -19.526 -3.898
C 1.135 -18.936 2.359
C -1.417 -17.416 1.895
C -0.155 -19.689 1.835
C -1.437 -18.944 2.348
C 2.444 -16.585 -0.155
C 2.443 -16.543 -1.72
C 1.154 -17.293 -2.262
C -0.126 -16.589 -0.162
C -0.127 -16.544 -1.726
C 1.154 -17.365 0.339
C 2.443 -16.473 -4.301
C -0.126 -16.47 -4.307
C 1.154 -17.249 -3.828
C 2.445 -16.653 2.426
C 1.155 -17.408 1.905
C -0.126 -16.662 2.419
C -7.872 -19.67 0.238
C -7.875 -19.588 -2.36
C -7.876 -19.539 -3.926
C -7.87 -19.718 1.804
C -4.006 -18.876 -0.244
C -4.006 -18.828 -1.808
C -6.565 -17.385 0.312
C -6.568 -17.301 -2.286
C -5.297 -19.58 -2.354
C -6.58 -18.884 -0.253
C -6.582 -18.835 -1.817
C -5.298 -19.659 0.246
C -4.002 -18.75 -4.388
C -6.57 -17.25 -3.852
C -6.581 -18.754 -4.395
C -5.296 -19.532 -3.92
C -4.008 -18.953 2.336
C -6.562 -17.436 1.878
C -5.298 -19.706 1.811
C -6.58 -18.964 2.327
C -2.698 -16.594 -0.17
C -2.7 -16.547 -1.734
C -3.991 -17.297 -2.28
C -5.273 -16.601 -0.178
C -5.275 -16.551 -1.742
C -3.99 -17.377 0.32
C -2.698 -16.468 -4.314
C -5.276 -16.468 -4.32
C -3.991 -17.248 -3.846
C -2.698 -16.672 2.41
C -3.989 -17.425 1.885
C -5.271 -16.683 2.402
C -13.023 -19.7 0.242
C -13.038 -19.615 -2.355
C -13.046 -19.564 -3.921
C -13.013 -19.751 1.808
C -9.157 -18.895 -0.257
C -9.161 -18.844 -1.821
C -11.717 -17.409 0.313
C -11.731 -17.318 -2.284
C -10.456 -19.6 -2.361
C -11.734 -18.909 -0.254
C -11.742 -18.857 -1.819
C -10.447 -19.683 0.237
C -9.165 -18.761 -4.398
C -11.739 -17.264 -3.85
C -11.752 -18.772 -4.394
C -10.46 -19.549 -3.927
C -9.151 -18.977 2.322
C -11.709 -17.463 1.878
C -10.441 -19.733 1.802
C -11.722 -18.993 2.324
C -7.849 -16.609 -0.182
C -7.854 -16.557 -1.746
C -9.149 -17.308 -2.289
C -10.427 -16.62 -0.18
C -10.434 -16.565 -1.744
C -9.141 -17.396 0.309
C -7.858 -16.469 -4.323
C -10.444 -16.474 -4.32
C -9.153 -17.255 -3.855
C -7.844 -16.696 2.397
C -9.135 -17.448 1.875
C -10.417 -16.71 2.398
C -18.173 -19.742 0.281
C -18.203 -19.655 -2.315
C -18.221 -19.603 -3.881
C -18.155 -19.794 1.846
C -14.312 -18.926 -0.244
C -14.323 -18.873 -1.808
C -16.871 -17.442 0.344
C -16.897 -17.347 -2.252
C -15.621 -19.633 -2.34
C -16.889 -18.945 -0.224
C -16.905 -18.891 -1.788
C -15.598 -19.72 0.257
C -14.341 -18.786 -4.383
C -16.914 -17.291 -3.817
C -16.93 -18.804 -4.362
C -15.634 -19.582 -3.906
C -14.293 -19.012 2.334
C -16.854 -17.498 1.909
C -15.585 -19.771 1.822
C -16.863 -19.033 2.353
C -13.006 -16.632 -0.172
C -13.016 -16.575 -1.736
C -14.314 -17.331 -2.272
C -15.584 -16.646 -0.156
C -15.599 -16.588 -1.72
C -14.294 -17.424 0.324
C -13.032 -16.482 -4.311
C -15.622 -16.493 -4.293
C -14.326 -17.275 -3.838
C -12.989 -16.725 2.406
C -14.282 -17.48 1.889
C -15.561 -16.742 2.421
C -19.465 -18.966 -0.195
C -19.485 -18.912 -1.759
C -19.519 -18.825 -4.332
C -19.431 -19.054 2.382
C -18.162 -16.662 -0.131
C -18.18 -16.603 -1.694
C -19.479 -17.365 -2.222
C -19.446 -17.46 0.373
C -18.21 -16.507 -4.267
C -19.5 -17.308 -3.787
C -18.131 -16.759 2.445
C -19.425 -17.517 1.938
H 26.71 -18.737 -5.526
H 24.164 -18.738 -5.492
H 26.849 -18.932 3.366
H 24.269 -18.934 3.4
H 28.006 -16.476 -5.5
H 25.459 -16.479 -5.461
H 28.16 -16.629 3.392
H 25.581 -16.631 3.431
H 31.803 -18.725 -5.627
H 29.256 -18.732 -5.571
H 32.008 -18.927 3.264
H 29.429 -18.93 3.32
H 33.103 -16.46 -5.61
H 30.554 -16.47 -5.551
H 33.313 -16.626 3.281
H 30.738 -16.627 3.341
H 34.352 -18.713 -5.693
H 34.584 -18.924 3.197
H 35.655 -16.446 -5.677
H 35.885 -16.625 3.214
H -1.42 -18.718 -5.459
H -1.439 -18.977 3.429
H -3.994 -18.718 -5.469
H -6.575 -18.722 -5.477
H -4.01 -18.986 3.418
H -6.58 -18.998 3.408
H -2.692 -16.436 -5.396
H -5.27 -16.434 -5.402
H -2.699 -16.707 3.492
H -5.271 -16.72 3.484
H -9.162 -18.728 -5.48
H -11.752 -18.739 -5.476
H -9.148 -19.012 3.404
H -11.717 -19.029 3.406
H -7.854 -16.434 -5.405
H -10.443 -16.438 -5.402
H -7.842 -16.734 3.479
H -10.412 -16.749 3.479
H -14.345 -18.754 -5.464
H -16.938 -18.772 -5.444
H -14.284 -19.049 3.416
H -16.85 -19.071 3.434
H -13.035 -16.445 -5.392
H -15.628 -16.456 -5.375
H -12.982 -16.766 3.487
H -15.55 -16.784 3.502
H -19.531 -18.794 -5.414
H -19.414 -19.094 3.463
H -18.221 -16.47 -5.349
H -18.117 -16.802 3.527
H 20.427 -16.638 3.48
H 6.275 -18.957 3.453
H 7.586 -16.668 3.513
H 19.116 -18.939 3.438
H 17.855 -16.643 3.493
H 5.017 -16.676 3.512
H 16.546 -18.942 3.446
H 15.287 -16.648 3.501
H 3.705 -18.962 3.449
H 2.445 -16.685 3.508
H 13.978 -18.945 3.451
H 1.133 -18.969 3.44
H 12.72 -16.654 3.507
H -0.127 -16.695 3.501
H 11.411 -18.948 3.454
H 10.154 -16.661 3.511
H 21.691 -18.936 3.423
H 23.003 -16.634 3.461
H 8.844 -18.952 3.455
H 13.953 -18.732 -5.442
H 11.394 -18.73 -5.439
H 22.91 -16.48 -5.432
H -0.119 -16.44 -5.389
H 8.835 -18.727 -5.438
H 20.36 -16.478 -5.413
H 10.132 -16.461 -5.382
H 7.572 -16.456 -5.38
H 3.713 -18.721 -5.442
H 5.011 -16.45 -5.38
H 19.065 -18.737 -5.456
H 16.51 -18.735 -5.447
H 1.149 -18.719 -5.45
H 15.25 -16.471 -5.392
H 12.692 -16.466 -5.387
H 21.616 -18.738 -5.47
H 6.275 -18.724 -5.439
H 17.807 -16.475 -5.4
H 2.448 -16.445 -5.383
C 37.049 -18.822 -0.537
C 37.007 -18.785 -2.101
C 36.935 -18.722 -4.685
C 37.121 -18.887 2.043
C 38.349 -16.536 -0.52
C 38.308 -16.504 -2.084
C 37.01 -17.262 -2.583
C 37.078 -17.319 0.018
C 38.239 -16.448 -4.668
C 36.97 -17.228 -4.149
C 38.419 -16.593 2.061
C 37.119 -17.354 1.584
C 38.342 -19.594 -0.078
C 38.268 -19.526 -2.679
C 38.223 -19.486 -4.245
C 38.386 -19.635 1.487
C 39.641 -17.307 -0.057
C 39.57 -17.246 -2.658
C 40.828 -19.506 -2.759
C 39.612 -18.808 -0.615
C 39.567 -18.769 -2.179
C 40.906 -19.577 -0.158
C 39.527 -17.209 -4.224
C 39.492 -18.702 -4.762
C 40.782 -19.462 -4.324
C 39.684 -17.346 1.509
C 40.951 -19.622 1.407
C 39.687 -18.877 1.965
C 40.911 -16.523 -0.594
C 40.868 -16.488 -2.158
C 40.796 -16.427 -4.742
C 40.982 -16.586 1.986
H 36.905 -18.697 -5.766
H 37.155 -18.919 3.124
H 38.21 -16.427 -5.749
H 38.453 -16.623 3.142
H 39.461 -18.676 -5.843
H 39.723 -18.912 3.046
H 40.767 -16.404 -5.823
H 41.017 -16.617 3.067
C 42.175 -18.79 -0.695
C 42.128 -18.748 -2.258
C 42.05 -18.676 -4.841
C 42.25 -18.863 1.885
C 43.473 -16.505 -0.67
C 43.429 -16.467 -2.233
C 42.13 -17.226 -2.735
C 42.204 -17.292 -0.134
C 43.355 -16.4 -4.817
C 42.086 -17.185 -4.3
C 43.544 -16.573 1.911
C 42.246 -17.333 1.432
C 43.469 -19.556 -0.24
C 43.391 -19.481 -2.84
C 43.342 -19.433 -4.405
C 43.514 -19.602 1.324
C 44.766 -17.271 -0.211
C 44.692 -17.2 -2.812
C 45.956 -19.449 -2.924
C 44.739 -18.766 -0.775
C 44.692 -18.722 -2.338
C 46.035 -19.528 -0.319
C 44.646 -17.156 -4.376
C 44.609 -18.643 -4.921
C 45.903 -19.398 -4.488
C 44.808 -17.314 1.354
C 46.075 -19.573 1.246
C 44.811 -18.841 1.806
C 46.036 -16.482 -0.745
C 45.992 -16.442 -2.309
C 45.914 -16.368 -4.892
C 46.103 -16.553 1.836
H 42.019 -18.648 -5.922
H 42.287 -18.9 2.966
H 43.325 -16.375 -5.898
H 43.579 -16.607 2.992
H 44.576 -18.612 -6.002
H 44.846 -18.88 2.886
H 45.883 -16.339 -5.973
H 46.136 -16.589 2.917
C 47.306 -18.737 -0.849
C 47.259 -18.691 -2.423
C 47.166 -18.603 -5.007
C 47.367 -18.809 1.736
C 48.602 -16.454 -0.815
C 48.559 -16.412 -2.388
C 47.257 -17.169 -2.891
C 47.33 -17.243 -0.285
C 48.471 -16.328 -4.974
C 47.206 -17.121 -4.455
C 48.657 -16.522 1.771
C 47.368 -17.287 1.28
C 48.604 -19.493 -0.377
C 48.525 -19.412 -3.023
C 48.47 -19.36 -4.604
C 48.643 -19.538 1.205
C 49.899 -17.209 -0.338
C 49.825 -17.134 -2.985
C 49.844 -18.682 -0.932
C 49.799 -18.637 -2.487
C 49.773 -17.084 -4.566
C 49.697 -18.543 -5.177
C 49.935 -17.253 1.244
C 49.902 -18.753 1.755
C 51.14 -16.401 -0.892
C 51.098 -16.359 -2.448
C 51.002 -16.271 -5.138
C 51.191 -16.467 1.796
H 47.116 -18.56 -6.087
H 47.384 -18.839 2.818
H 48.422 -16.287 -6.054
H 48.673 -16.55 2.853
H 49.606 -18.474 -6.252
H 49.881 -18.763 2.837
H 50.912 -16.204 -6.214
H 51.167 -16.474 2.877
C -54.143 -24.304 0.546
C -54.14 -24.22 -2.058
C -54.132 -24.17 -3.623
C -54.138 -24.353 2.111
C -50.29 -23.597 0.051
C -50.29 -23.546 -1.512
C -52.838 -22.05 0.614
C -52.836 -21.962 -1.984
C -51.579 -24.277 -2.053
C -52.851 -23.551 0.05
C -52.85 -23.499 -1.514
C -51.579 -24.359 0.546
C -50.289 -23.469 -4.092
C -52.833 -21.913 -3.549
C -52.843 -23.419 -4.093
C -51.576 -24.23 -3.618
C -50.288 -23.681 2.631
C -52.836 -22.103 2.179
C -51.577 -24.41 2.111
C -52.848 -23.635 2.63
C -48.989 -21.323 0.12
C -48.992 -21.269 -1.444
C -50.278 -22.008 -1.984
C -51.548 -21.287 0.121
C -51.548 -21.232 -1.442
C -50.277 -22.094 0.614
C -48.995 -21.188 -4.022
C -51.547 -21.149 -4.021
C -50.278 -21.959 -3.55
C -48.986 -21.411 2.699
C -50.275 -22.147 2.18
C -51.547 -21.376 2.7
C -49.018 -24.401 0.547
C -49.02 -24.32 -2.053
C -49.021 -24.274 -3.618
C -49.016 -24.452 2.112
C -45.172 -23.657 0.048
C -45.177 -23.607 -1.516
C -47.717 -22.126 0.613
C -47.722 -22.041 -1.986
C -46.463 -24.352 -2.054
C -47.731 -23.632 0.051
C -47.733 -23.582 -1.513
C -46.457 -24.432 0.546
C -45.185 -23.532 -4.096
C -47.725 -21.994 -3.551
C -47.737 -23.506 -4.093
C -46.467 -24.307 -3.62
C -45.164 -23.738 2.627
C -47.713 -22.178 2.179
C -46.454 -24.481 2.112
C -47.727 -23.715 2.631
C -43.872 -21.366 0.111
C -43.88 -21.314 -1.453
C -45.166 -22.065 -1.989
C -46.431 -21.349 0.117
C -46.436 -21.296 -1.447
C -45.156 -22.148 0.609
C -43.892 -21.236 -4.031
C -46.443 -21.216 -4.025
C -45.172 -22.018 -3.555
C -43.861 -21.45 2.689
C -45.151 -22.199 2.175
C -46.425 -21.435 2.696
C -43.896 -24.453 0.541
C -43.907 -24.374 -2.058
C -43.914 -24.33 -3.624
C -43.89 -24.501 2.107
C -40.05 -23.682 0.026
C -40.064 -23.633 -1.539
C -42.595 -22.163 0.6
C -42.61 -22.081 -1.998
C -41.351 -24.388 -2.069
C -42.612 -23.673 0.04
C -42.621 -23.624 -1.524
C -41.334 -24.466 0.53
C -40.085 -23.56 -4.117
C -42.62 -22.035 -3.563
C -42.635 -23.55 -4.103
C -41.363 -24.345 -3.635
C -40.03 -23.76 2.603
C -42.586 -22.212 2.166
C -41.323 -24.514 2.096
C -42.599 -23.753 2.619
C -38.75 -21.381 0.079
C -38.766 -21.33 -1.485
C -40.054 -22.089 -2.013
C -41.312 -21.377 0.099
C -41.324 -21.325 -1.465
C -40.032 -22.17 0.585
C -38.792 -21.253 -4.062
C -41.342 -21.248 -4.043
C -40.068 -22.044 -3.578
C -38.725 -21.463 2.656
C -40.019 -22.219 2.151
C -41.295 -21.459 2.676
C -38.769 -24.472 0.51
C -38.795 -24.395 -2.088
C -38.81 -24.351 -3.653
C -38.754 -24.519 2.076
C -34.922 -23.68 -0.034
C -34.944 -23.632 -1.598
C -37.467 -22.172 0.56
C -37.497 -22.091 -2.037
C -36.236 -24.394 -2.117
C -37.487 -23.684 0.001
C -37.505 -23.636 -1.563
C -36.203 -24.471 0.48
C -34.983 -23.559 -4.175
C -37.515 -22.046 -3.602
C -37.535 -23.563 -4.141
C -36.257 -24.351 -3.683
C -34.885 -23.758 2.543
C -37.449 -22.22 2.126
C -36.183 -24.518 2.046
C -37.458 -23.762 2.578
C -33.621 -21.373 0.009
C -33.645 -21.322 -1.555
C -34.937 -22.087 -2.072
C -36.186 -21.38 0.05
C -36.206 -21.329 -1.514
C -34.9 -22.168 0.525
C -33.687 -21.246 -4.13
C -36.241 -21.252 -4.091
C -34.961 -22.042 -3.637
C -33.579 -21.454 2.585
C -34.878 -22.216 2.091
C -36.153 -21.461 2.626
C -33.634 -24.464 0.44
C -33.675 -24.387 -2.157
C -33.7 -24.344 -3.723
C -33.61 -24.511 2.006
C -29.786 -23.655 -0.132
C -29.814 -23.607 -1.696
C -32.332 -22.158 0.479
C -32.375 -22.077 -2.117
C -31.111 -24.374 -2.207
C -32.355 -23.67 -0.079
C -32.38 -23.622 -1.643
C -31.065 -24.451 0.39
C -29.864 -23.533 -4.272
C -32.402 -22.032 -3.682
C -32.426 -23.549 -4.22
C -31.139 -24.33 -3.772
C -29.737 -23.732 2.444
C -32.305 -22.206 2.045
C -31.037 -24.498 1.956
C -32.31 -23.748 2.497
C -28.484 -21.344 -0.095
C -28.512 -21.293 -1.659
C -29.809 -22.062 -2.17
C -31.053 -21.361 -0.04
C -31.08 -21.31 -1.604
C -29.762 -22.143 0.426
C -28.562 -21.215 -4.234
C -31.128 -21.233 -4.179
C -29.839 -22.016 -3.735
C -28.435 -21.425 2.48
C -29.733 -22.191 1.992
C -31.006 -21.442 2.535
C -28.494 -24.432 0.334
C -28.542 -24.355 -2.262
C -28.572 -24.311 -3.828
C -28.465 -24.479 1.9
C -24.644 -23.609 -0.244
C -24.671 -23.561 -1.808
C -27.192 -22.123 0.37
C -27.24 -22.042 -2.226
C -25.97 -24.331 -2.319
C -27.216 -23.634 -0.189
C -27.244 -23.586 -1.753
C -25.923 -24.408 0.278
C -24.718 -23.487 -4.383
C -27.269 -21.995 -3.791
C -27.294 -23.512 -4.328
C -26 -24.286 -3.884
C -24.597 -23.686 2.333
C -27.162 -22.172 1.935
C -25.894 -24.455 1.843
C -27.166 -23.712 2.388
C -23.342 -21.298 -0.204
C -23.367 -21.248 -1.768
C -24.666 -22.018 -2.281
C -25.914 -21.322 -0.152
C -25.941 -21.272 -1.715
C -24.62 -22.099 0.315
C -23.411 -21.169 -4.342
C -25.99 -21.194 -4.29
C -24.694 -21.97 -3.846
C -23.297 -21.38 2.373
C -24.593 -22.148 1.881
C -25.865 -21.404 2.424
C -23.351 -24.38 0.226
C -23.394 -24.304 -2.371
C -23.421 -24.258 -3.937
C -23.324 -24.428 1.791
C -22.049 -22.072 0.267
C -22.089 -21.991 -2.329
C -20.815 -24.274 -2.415
C -22.071 -23.581 -0.293
C -22.095 -23.534 -1.857
C -20.778 -24.351 0.181
C -22.114 -21.943 -3.895
C -22.136 -23.458 -4.432
C -20.838 -24.228 -3.981
C -22.024 -22.122 1.832
C -20.756 -24.398 1.747
C -22.03 -23.658 2.285
C -20.768 -21.273 -0.248
C -20.79 -21.223 -1.812
C -20.827 -21.142 -4.386
C -20.73 -21.355 2.329
C -55.416 -23.491 0.052
C -55.414 -23.438 -1.522
C -57.971 -21.917 0.628
C -57.965 -21.824 -2.015
C -56.707 -24.146 -2.082
C -57.954 -23.395 0.038
C -57.951 -23.341 -1.517
C -56.711 -24.233 0.562
C -55.394 -23.351 -4.104
C -57.954 -21.77 -3.596
C -57.925 -23.248 -4.199
C -56.697 -24.095 -3.663
C -55.404 -23.571 2.636
C -57.967 -21.973 2.209
C -56.705 -24.285 2.144
C -57.937 -23.481 2.723
C -54.11 -21.238 0.12
C -54.108 -21.182 -1.444
C -55.398 -21.902 -1.99
C -56.675 -21.175 0.121
C -56.672 -21.117 -1.453
C -55.402 -21.992 0.614
C -54.099 -21.097 -4.022
C -56.65 -21.026 -4.034
C -55.389 -21.851 -3.554
C -54.107 -21.327 2.699
C -55.398 -22.044 2.179
C -56.666 -21.261 2.704
C -59.213 -21.075 0.104
C -59.208 -21.016 -1.451
C -59.179 -20.917 -4.132
C -59.201 -21.167 2.788
H -35 -23.538 -5.257
H -37.548 -23.542 -5.223
H -34.868 -23.797 3.624
H -37.447 -23.801 3.66
H -33.706 -21.223 -5.212
H -36.256 -21.23 -5.173
H -33.56 -21.494 3.666
H -36.139 -21.501 3.707
H -29.887 -23.511 -5.354
H -32.447 -23.528 -5.301
H -29.713 -23.77 3.525
H -32.289 -23.787 3.578
H -28.586 -21.191 -5.315
H -31.15 -21.21 -5.261
H -28.41 -21.464 3.561
H -30.983 -21.482 3.616
H -24.739 -23.463 -5.465
H -27.318 -23.489 -5.41
H -24.573 -23.723 3.414
H -27.141 -23.749 3.469
H -23.43 -21.143 -5.423
H -26.012 -21.169 -5.371
H -23.275 -21.418 3.454
H -25.84 -21.443 3.506
H -22.153 -23.433 -5.513
H -22.009 -23.694 3.366
H -20.842 -21.115 -5.467
H -20.711 -21.391 3.411
H -41.289 -21.5 3.757
H -55.389 -23.606 3.717
H -54.109 -21.374 3.78
H -42.596 -23.792 3.7
H -43.859 -21.492 3.77
H -56.652 -21.298 3.785
H -45.164 -23.778 3.708
H -46.424 -21.478 3.777
H -57.885 -23.494 3.804
H -59.15 -21.183 3.869
H -47.729 -23.757 3.712
H -48.987 -21.455 3.78
H -50.291 -23.725 3.712
H -51.549 -21.422 3.781
H -40.023 -23.8 3.684
H -38.716 -21.503 3.737
H -52.849 -23.679 3.711
H -47.739 -23.486 -5.175
H -50.291 -23.449 -5.174
H -38.803 -21.231 -5.143
H -52.841 -23.398 -5.175
H -41.349 -21.225 -5.124
H -51.548 -21.127 -5.103
H -54.098 -21.074 -5.104
H -57.868 -23.198 -5.278
H -56.63 -20.995 -5.116
H -42.641 -23.529 -5.185
H -45.189 -23.512 -5.178
H -46.446 -21.194 -5.107
H -48.997 -21.166 -5.104
H -40.094 -23.539 -5.199
H -55.375 -23.321 -5.186
H -43.897 -21.214 -5.113
H -59.122 -20.866 -5.211
C 7.505 -24.194 0.163
C 7.505 -24.123 -2.439
C 7.506 -24.08 -4.005
C 7.505 -24.237 1.729
C 11.357 -23.415 -0.333
C 11.355 -23.373 -1.898
C 8.811 -21.915 0.228
C 8.809 -21.846 -2.374
C 10.068 -24.123 -2.438
C 8.793 -23.415 -0.333
C 8.792 -23.373 -1.898
C 10.07 -24.194 0.164
C 11.352 -23.303 -4.481
C 8.808 -21.804 -3.941
C 8.792 -23.303 -4.481
C 10.067 -24.08 -4.004
C 11.361 -23.484 2.248
C 8.812 -21.956 1.794
C 10.072 -24.236 1.73
C 8.794 -23.485 2.248
C 12.662 -21.135 -0.271
C 12.658 -21.096 -1.835
C 11.371 -21.846 -2.375
C 10.098 -21.136 -0.27
C 10.096 -21.096 -1.834
C 11.376 -21.914 0.227
C 12.653 -21.029 -4.419
C 10.093 -21.028 -4.418
C 11.369 -21.805 -3.941
C 12.668 -21.201 2.311
C 11.378 -21.955 1.793
C 10.101 -21.203 2.312
C 12.635 -24.193 0.163
C 12.629 -24.123 -2.439
C 12.627 -24.081 -4.005
C 12.637 -24.235 1.729
C 16.485 -23.414 -0.339
C 16.478 -23.373 -1.903
C 13.94 -21.913 0.226
C 13.933 -21.847 -2.376
C 15.19 -24.124 -2.442
C 13.921 -23.414 -0.335
C 13.917 -23.373 -1.9
C 15.199 -24.193 0.161
C 16.469 -23.304 -4.487
C 13.928 -21.806 -3.943
C 13.911 -23.304 -4.483
C 15.185 -24.082 -4.008
C 16.494 -23.483 2.242
C 13.944 -21.954 1.792
C 15.203 -24.235 1.726
C 13.927 -23.483 2.246
C 17.79 -21.134 -0.279
C 17.781 -21.096 -1.843
C 16.493 -21.847 -2.38
C 15.226 -21.134 -0.273
C 15.22 -21.096 -1.838
C 16.504 -21.913 0.222
C 17.769 -21.031 -4.428
C 15.212 -21.03 -4.422
C 16.487 -21.807 -3.947
C 17.802 -21.198 2.302
C 16.511 -21.952 1.788
C 15.234 -21.2 2.308
C 17.763 -24.193 0.155
C 17.75 -24.124 -2.447
C 17.743 -24.082 -4.013
C 17.771 -24.234 1.721
C 21.613 -23.413 -0.359
C 21.599 -23.372 -1.923
C 19.069 -21.912 0.215
C 19.053 -21.847 -2.387
C 20.31 -24.123 -2.456
C 19.049 -23.414 -0.346
C 19.039 -23.373 -1.91
C 20.329 -24.192 0.146
C 21.578 -23.304 -4.508
C 19.044 -21.807 -3.954
C 19.024 -23.305 -4.494
C 20.299 -24.082 -4.023
C 21.635 -23.481 2.222
C 19.079 -21.951 1.781
C 20.34 -24.233 1.712
C 19.063 -23.482 2.235
C 22.92 -21.132 -0.306
C 22.903 -21.095 -1.871
C 21.612 -21.846 -2.401
C 20.354 -21.133 -0.289
C 20.342 -21.096 -1.853
C 21.636 -21.911 0.201
C 22.877 -21.031 -4.455
C 20.324 -21.032 -4.438
C 21.599 -21.807 -3.967
C 22.945 -21.195 2.274
C 21.649 -21.95 1.767
C 20.372 -21.197 2.292
C 22.895 -24.191 0.129
C 22.869 -24.122 -2.473
C 22.852 -24.081 -4.04
C 22.911 -24.232 1.695
C 26.745 -23.409 -0.414
C 26.72 -23.368 -1.978
C 24.203 -21.91 0.179
C 24.171 -21.845 -2.423
C 25.427 -24.12 -2.501
C 24.179 -23.411 -0.381
C 24.159 -23.371 -1.945
C 25.463 -24.189 0.101
C 26.679 -23.3 -4.562
C 24.152 -21.806 -3.989
C 24.129 -23.303 -4.529
C 25.405 -24.079 -4.067
C 26.785 -23.477 2.166
C 24.221 -21.948 1.745
C 25.485 -24.23 1.667
C 24.209 -23.479 2.2
C 28.051 -21.127 -0.373
C 28.023 -21.09 -1.937
C 26.73 -21.843 -2.456
C 25.485 -21.13 -0.334
C 25.463 -21.093 -1.898
C 26.771 -21.907 0.146
C 27.978 -21.026 -4.522
C 25.428 -21.03 -4.483
C 26.705 -21.804 -4.022
C 28.097 -21.191 2.207
C 26.795 -21.946 1.712
C 25.521 -21.193 2.246
C 28.032 -24.186 0.062
C 27.985 -24.116 -2.54
C 27.957 -24.075 -4.106
C 28.06 -24.227 1.628
C 31.877 -23.399 -0.517
C 31.84 -23.356 -2.082
C 29.339 -21.904 0.1
C 29.288 -21.838 -2.501
C 30.543 -24.11 -2.592
C 29.311 -23.405 -0.459
C 29.28 -23.364 -2.024
C 30.6 -24.181 0.01
C 31.778 -23.287 -4.666
C 29.257 -21.799 -4.067
C 29.228 -23.295 -4.608
C 30.509 -24.068 -4.157
C 31.939 -23.47 2.062
C 29.37 -21.943 1.666
C 30.634 -24.223 1.576
C 29.363 -23.474 2.12
C 33.182 -21.116 -0.488
C 33.144 -21.077 -2.052
C 31.846 -21.831 -2.559
C 30.617 -21.123 -0.425
C 30.584 -21.085 -1.989
C 31.907 -21.898 0.043
C 33.079 -21.011 -4.636
C 30.528 -21.02 -4.573
C 31.81 -21.791 -4.125
C 33.247 -21.183 2.092
C 31.943 -21.938 1.608
C 30.673 -21.188 2.155
C 33.168 -24.173 -0.055
C 33.101 -24.1 -2.656
C 33.061 -24.058 -4.222
C 33.208 -24.216 1.511
C 34.474 -21.89 -0.026
C 34.405 -21.821 -2.627
C 35.661 -24.087 -2.731
C 34.442 -23.389 -0.587
C 34.4 -23.346 -2.151
C 35.736 -24.162 -0.13
C 34.364 -21.78 -4.193
C 34.329 -23.274 -4.735
C 35.616 -24.043 -4.296
C 34.515 -21.932 1.54
C 35.78 -24.207 1.436
C 34.513 -23.462 1.993
C 35.747 -21.106 -0.56
C 35.704 -21.066 -2.124
C 35.632 -20.997 -4.708
C 35.819 -21.176 2.02
C 2.372 -24.198 0.152
C 2.377 -24.125 -2.45
C 2.38 -24.082 -4.016
C 2.369 -24.241 1.718
C 6.228 -23.416 -0.335
C 6.229 -23.373 -1.9
C 3.678 -21.918 0.22
C 3.681 -21.847 -2.382
C 4.942 -24.124 -2.442
C 3.662 -23.418 -0.341
C 3.664 -23.375 -1.906
C 4.939 -24.196 0.159
C 6.231 -23.302 -4.483
C 3.683 -21.803 -3.948
C 3.669 -23.303 -4.488
C 4.944 -24.081 -4.008
C 6.227 -23.487 2.246
C 3.677 -21.961 1.786
C 4.938 -24.238 1.725
C 3.658 -23.489 2.24
C 7.534 -21.137 -0.27
C 7.533 -21.096 -1.835
C 6.246 -21.846 -2.376
C 4.968 -21.139 -0.274
C 4.968 -21.096 -1.839
C 6.245 -21.916 0.225
C 7.533 -21.026 -4.418
C 4.971 -21.026 -4.421
C 6.246 -21.803 -3.943
C 7.534 -21.205 2.311
C 6.245 -21.958 1.791
C 4.966 -21.208 2.307
C -2.767 -24.207 0.128
C -2.761 -24.134 -2.473
C -2.757 -24.089 -4.039
C -2.77 -24.251 1.694
C 1.094 -23.421 -0.35
C 1.097 -23.377 -1.915
C -1.46 -21.926 0.198
C -1.455 -21.851 -2.403
C -0.191 -24.128 -2.46
C -1.475 -23.426 -0.363
C -1.473 -23.381 -1.927
C -0.197 -24.201 0.141
C 1.104 -23.304 -4.496
C -1.452 -21.806 -3.968
C -1.465 -23.308 -4.508
C -0.187 -24.084 -4.026
C 1.088 -23.492 2.231
C -1.463 -21.97 1.764
C -0.2 -24.245 1.707
C -1.482 -23.498 2.218
C 2.4 -21.141 -0.282
C 2.402 -21.098 -1.846
C 1.114 -21.848 -2.391
C -0.169 -21.145 -0.292
C -0.167 -21.1 -1.857
C 1.11 -21.921 0.21
C 2.407 -21.026 -4.428
C -0.16 -21.027 -4.438
C 1.117 -21.804 -3.957
C 2.396 -21.212 2.3
C 1.107 -21.964 1.776
C -0.174 -21.217 2.289
C -7.91 -24.229 0.107
C -7.911 -24.154 -2.492
C -7.911 -24.108 -4.058
C -7.91 -24.274 1.673
C -4.047 -23.433 -0.375
C -4.045 -23.388 -1.94
C -6.604 -21.943 0.175
C -6.604 -21.866 -2.425
C -5.335 -24.142 -2.484
C -6.62 -23.443 -0.386
C -6.62 -23.398 -1.95
C -5.338 -24.216 0.116
C -4.038 -23.314 -4.519
C -6.603 -21.819 -3.991
C -6.616 -23.323 -4.529
C -5.332 -24.097 -4.05
C -4.052 -23.506 2.205
C -6.604 -21.989 1.741
C -5.34 -24.261 1.682
C -6.622 -23.517 2.195
C -2.74 -21.15 -0.305
C -2.738 -21.105 -1.869
C -4.028 -21.857 -2.415
C -5.313 -21.158 -0.316
C -5.312 -21.112 -1.881
C -4.032 -21.933 0.185
C -2.732 -21.029 -4.449
C -5.308 -21.035 -4.46
C -4.025 -21.811 -3.981
C -2.745 -21.224 2.276
C -4.034 -21.978 1.751
C -5.316 -21.234 2.264
C -13.057 -24.268 0.11
C -13.071 -24.191 -2.488
C -13.079 -24.145 -4.054
C -13.049 -24.314 1.676
C -9.194 -23.457 -0.391
C -9.197 -23.411 -1.956
C -11.752 -21.974 0.17
C -11.763 -21.894 -2.428
C -10.49 -24.171 -2.494
C -11.769 -23.476 -0.39
C -11.776 -23.429 -1.954
C -10.484 -24.246 0.105
C -9.198 -23.336 -4.533
C -11.769 -21.846 -3.994
C -11.784 -23.353 -4.531
C -10.493 -24.124 -4.06
C -9.191 -23.532 2.189
C -11.746 -22.021 1.736
C -10.479 -24.292 1.67
C -11.76 -23.551 2.19
C -7.887 -21.169 -0.324
C -7.889 -21.122 -1.889
C -9.182 -21.878 -2.43
C -10.463 -21.184 -0.326
C -10.468 -21.135 -1.891
C -9.178 -21.956 0.169
C -7.889 -21.044 -4.466
C -10.474 -21.056 -4.467
C -9.184 -21.83 -3.995
C -7.886 -21.246 2.256
C -9.175 -22.003 1.735
C -10.456 -21.262 2.253
C -18.205 -24.321 0.147
C -18.235 -24.244 -2.45
C -18.252 -24.198 -4.016
C -18.187 -24.368 1.713
C -14.345 -23.498 -0.38
C -14.356 -23.452 -1.945
C -16.902 -22.019 0.199
C -16.927 -21.938 -2.398
C -15.653 -24.216 -2.474
C -16.921 -23.524 -0.361
C -16.937 -23.477 -1.925
C -15.631 -24.293 0.124
C -14.372 -23.375 -4.521
C -16.943 -21.89 -3.964
C -16.961 -23.401 -4.501
C -15.665 -24.17 -4.04
C -14.328 -23.574 2.199
C -16.886 -22.068 1.764
C -15.618 -24.339 1.689
C -16.896 -23.601 2.217
C -13.04 -21.202 -0.321
C -13.049 -21.153 -1.885
C -14.345 -21.915 -2.417
C -15.616 -21.223 -0.306
C -15.63 -21.174 -1.87
C -14.327 -21.995 0.18
C -13.061 -21.073 -4.461
C -15.651 -21.093 -4.445
C -14.355 -21.866 -3.983
C -13.026 -21.282 2.258
C -14.316 -22.043 1.746
C -15.595 -21.304 2.272
C -19.497 -23.552 -0.332
C -19.517 -23.505 -1.896
C -19.55 -23.429 -4.471
C -19.463 -23.629 2.246
C -18.193 -21.247 -0.282
C -18.21 -21.197 -1.846
C -19.509 -21.964 -2.369
C -19.476 -22.045 0.228
C -18.24 -21.117 -4.421
C -19.529 -21.916 -3.935
C -18.163 -21.329 2.296
C -19.455 -22.095 1.793
H 26.663 -23.272 -5.644
H 24.119 -23.275 -5.611
H 26.803 -23.511 3.248
H 24.222 -23.513 3.281
H 27.96 -21 -5.603
H 25.415 -21.003 -5.564
H 28.117 -21.224 3.288
H 25.535 -21.226 3.328
H 31.752 -23.259 -5.747
H 29.208 -23.267 -5.689
H 31.968 -23.505 3.143
H 29.386 -23.509 3.202
H 33.052 -20.985 -5.717
H 30.505 -20.994 -5.654
H 33.278 -21.217 3.173
H 30.699 -21.221 3.236
H 34.3 -23.247 -5.816
H 34.547 -23.499 3.074
H 35.602 -20.97 -5.789
H 35.853 -21.211 3.101
H -1.457 -23.279 -5.589
H -1.485 -23.529 3.3
H -4.03 -23.285 -5.601
H -6.61 -23.294 -5.61
H -4.054 -23.537 3.287
H -6.622 -23.548 3.276
H -2.724 -21 -5.531
H -5.301 -21.005 -5.541
H -2.748 -21.256 3.358
H -5.317 -21.266 3.346
H -9.195 -23.307 -5.615
H -11.784 -23.325 -5.613
H -9.188 -23.563 3.27
H -11.754 -23.583 3.271
H -7.884 -21.013 -5.548
H -10.472 -21.026 -5.549
H -7.885 -21.279 3.337
H -10.452 -21.295 3.335
H -14.376 -23.347 -5.602
H -16.969 -23.374 -5.583
H -14.319 -23.607 3.28
H -16.883 -23.634 3.299
H -13.063 -21.043 -5.542
H -15.656 -21.064 -5.527
H -13.018 -21.315 3.34
H -15.584 -21.338 3.354
H -19.562 -23.403 -5.553
H -19.446 -23.664 3.327
H -18.25 -21.089 -5.502
H -18.148 -21.364 3.377
H 20.379 -21.229 3.373
H 6.227 -23.519 3.328
H 7.535 -21.238 3.392
H 19.068 -23.515 3.317
H 17.806 -21.231 3.384
H 4.966 -21.241 3.389
H 16.497 -23.516 3.324
H 15.237 -21.232 3.389
H 3.657 -23.521 3.322
H 2.395 -21.244 3.381
H 13.929 -23.516 3.328
H 1.086 -23.524 3.312
H 12.67 -21.234 3.392
H -0.177 -21.249 3.37
H 11.363 -23.517 3.33
H 10.103 -21.236 3.393
H 21.643 -23.514 3.303
H 22.956 -21.228 3.355
H 8.796 -23.518 3.33
H 13.911 -23.275 -5.565
H 11.352 -23.275 -5.563
H 22.868 -21.004 -5.537
H -0.153 -20.997 -5.519
H 8.793 -23.274 -5.562
H 20.319 -21.004 -5.519
H 10.094 -20.999 -5.499
H 7.535 -20.998 -5.5
H 3.673 -23.274 -5.569
H 4.975 -20.997 -5.503
H 19.021 -23.276 -5.576
H 16.467 -23.276 -5.569
H 1.11 -23.276 -5.578
H 15.211 -21.002 -5.504
H 12.654 -21.001 -5.501
H 21.571 -23.276 -5.589
H 6.234 -23.274 -5.564
H 17.767 -21.004 -5.509
H 2.413 -20.996 -5.509
C 37.007 -23.376 -0.666
C 36.961 -23.331 -2.229
C 36.883 -23.257 -4.812
C 37.085 -23.452 1.914
C 38.311 -21.093 -0.639
C 38.265 -21.05 -2.203
C 36.965 -21.807 -2.704
C 37.04 -21.878 -0.103
C 38.187 -20.979 -4.786
C 36.919 -21.764 -4.269
C 38.388 -21.166 1.941
C 37.085 -21.922 1.463
C 38.302 -24.146 -0.213
C 38.221 -24.068 -2.813
C 38.172 -24.022 -4.378
C 38.35 -24.193 1.352
C 39.605 -21.862 -0.185
C 39.525 -21.787 -2.786
C 40.784 -24.044 -2.9
C 39.572 -23.358 -0.75
C 39.523 -23.311 -2.313
C 40.869 -24.124 -0.3
C 39.477 -21.741 -4.351
C 39.439 -23.233 -4.896
C 40.731 -23.994 -4.464
C 39.652 -21.908 1.38
C 40.916 -24.172 1.264
C 39.653 -23.437 1.83
C 40.874 -21.074 -0.722
C 40.827 -21.03 -2.285
C 40.745 -20.954 -4.868
C 40.953 -21.151 1.858
H 36.851 -23.228 -5.893
H 37.122 -23.49 2.995
H 38.155 -20.951 -5.867
H 38.425 -21.203 3.021
H 39.405 -23.204 -5.977
H 39.693 -23.476 2.91
H 40.712 -20.924 -5.949
H 40.992 -21.19 2.938
C 42.138 -23.334 -0.838
C 42.088 -23.286 -2.401
C 41.998 -23.202 -4.982
C 42.218 -23.414 1.742
C 43.439 -21.05 -0.806
C 43.391 -21.004 -2.37
C 42.088 -21.762 -2.87
C 42.17 -21.84 -0.271
C 43.304 -20.922 -4.951
C 42.037 -21.713 -4.435
C 43.516 -21.129 1.774
C 42.216 -21.888 1.294
C 43.436 -24.096 -0.387
C 43.35 -24.013 -2.991
C 43.292 -23.959 -4.555
C 43.481 -24.144 1.178
C 44.736 -21.812 -0.353
C 44.654 -21.73 -2.958
C 45.919 -23.975 -3.099
C 44.707 -23.304 -0.92
C 44.656 -23.255 -2.493
C 46.006 -24.061 -0.454
C 44.598 -21.678 -4.522
C 44.554 -23.162 -5.077
C 45.859 -23.92 -4.68
C 44.779 -21.859 1.211
C 46.051 -24.11 1.127
C 44.777 -23.382 1.664
C 46.008 -21.02 -0.885
C 45.958 -20.972 -2.458
C 45.861 -20.882 -5.043
C 46.073 -21.096 1.7
H 41.961 -23.17 -6.063
H 42.257 -23.454 2.823
H 43.269 -20.89 -6.032
H 43.553 -21.168 2.854
H 44.5 -23.118 -6.157
H 44.798 -23.413 2.745
H 45.809 -20.837 -6.122
H 46.093 -21.127 2.781
C 47.247 -23.249 -1.012
C 47.196 -23.199 -2.567
C 47.086 -23.1 -5.255
C 47.314 -23.327 1.674
C 48.547 -20.964 -0.972
C 48.499 -20.917 -2.528
C 47.223 -21.693 -3.061
C 47.306 -21.777 -0.416
C 48.392 -20.82 -5.216
C 47.165 -21.639 -4.643
C 48.609 -21.04 1.714
C 47.349 -21.824 1.165
H 46.991 -23.03 -6.33
H 47.296 -23.337 2.756
H 48.3 -20.75 -6.292
H 48.589 -21.05 2.796
C -54.193 -28.849 0.431
C -54.19 -28.768 -2.214
C -54.181 -28.72 -3.796
C -54.188 -28.898 2.013
C -50.335 -28.162 -0.081
C -50.334 -28.114 -1.645
C -52.884 -26.611 0.48
C -52.882 -26.53 -2.125
C -51.624 -28.835 -2.19
C -52.9 -28.107 -0.08
C -52.898 -28.059 -1.654
C -51.626 -28.914 0.415
C -50.327 -28.039 -4.227
C -52.875 -26.482 -3.69
C -52.88 -27.976 -4.239
C -51.617 -28.787 -3.755
C -50.331 -28.241 2.5
C -52.879 -26.659 2.045
C -51.621 -28.961 1.98
C -52.887 -28.182 2.505
C -49.032 -25.903 -0.015
C -49.033 -25.855 -1.578
C -50.321 -26.585 -2.119
C -51.593 -25.859 -0.017
C -51.592 -25.81 -1.58
C -50.321 -26.664 0.48
C -49.032 -25.78 -4.159
C -51.585 -25.732 -4.161
C -50.318 -26.539 -3.685
C -49.029 -25.984 2.566
C -50.318 -26.713 2.046
C -51.589 -25.939 2.564
C -49.063 -28.965 0.416
C -49.063 -28.887 -2.184
C -49.06 -28.842 -3.749
C -49.06 -29.012 1.982
C -45.213 -28.237 -0.079
C -45.217 -28.19 -1.644
C -47.759 -26.704 0.482
C -47.762 -26.626 -2.118
C -46.504 -28.927 -2.183
C -47.773 -28.205 -0.079
C -47.775 -28.158 -1.643
C -46.5 -29.003 0.418
C -45.223 -28.118 -4.226
C -47.763 -26.582 -3.684
C -47.775 -28.085 -4.225
C -46.506 -28.883 -3.749
C -45.207 -28.314 2.501
C -47.757 -26.753 2.048
C -46.497 -29.051 1.984
C -47.771 -28.284 2.502
C -43.912 -25.96 -0.019
C -43.919 -25.912 -1.583
C -45.205 -26.657 -2.12
C -46.472 -25.937 -0.015
C -46.475 -25.889 -1.579
C -45.198 -26.734 0.481
C -43.929 -25.841 -4.164
C -46.48 -25.816 -4.16
C -45.21 -26.613 -3.685
C -43.903 -26.038 2.561
C -45.194 -26.781 2.046
C -46.468 -26.016 2.566
C -43.938 -29.031 0.415
C -43.947 -28.955 -2.186
C -43.953 -28.913 -3.751
C -43.933 -29.078 1.981
C -40.09 -28.271 -0.099
C -40.102 -28.225 -1.663
C -42.636 -26.753 0.474
C -42.649 -26.677 -2.126
C -41.391 -28.974 -2.195
C -42.652 -28.258 -0.085
C -42.66 -28.212 -1.65
C -41.374 -29.049 0.406
C -40.123 -28.155 -4.245
C -42.657 -26.634 -3.692
C -42.673 -28.141 -4.231
C -41.401 -28.932 -3.76
C -40.071 -28.347 2.48
C -42.628 -26.8 2.04
C -41.365 -29.095 1.972
C -42.641 -28.335 2.495
C -38.789 -25.982 -0.048
C -38.804 -25.935 -1.612
C -40.092 -26.689 -2.14
C -41.351 -25.975 -0.029
C -41.362 -25.927 -1.593
C -40.072 -26.765 0.459
C -38.829 -25.864 -4.192
C -41.379 -25.856 -4.173
C -40.105 -26.647 -3.706
C -38.764 -26.058 2.53
C -40.059 -26.811 2.025
C -41.335 -26.052 2.55
C -38.809 -29.058 0.387
C -38.833 -28.984 -2.213
C -38.849 -28.942 -3.779
C -38.795 -29.104 1.953
C -34.96 -28.273 -0.158
C -34.982 -28.228 -1.722
C -37.506 -26.769 0.435
C -37.535 -26.693 -2.164
C -36.275 -28.986 -2.242
C -37.526 -28.276 -0.123
C -37.543 -28.23 -1.687
C -36.242 -29.06 0.358
C -35.02 -28.158 -4.302
C -37.553 -26.651 -3.729
C -37.573 -28.161 -4.268
C -36.295 -28.944 -3.807
C -34.923 -28.348 2.42
C -37.488 -26.814 2.001
C -36.222 -29.105 1.924
C -37.498 -28.351 2.456
C -33.657 -25.975 -0.118
C -33.681 -25.928 -1.682
C -34.975 -26.69 -2.198
C -36.224 -25.982 -0.077
C -36.244 -25.935 -1.642
C -34.938 -26.765 0.4
C -33.724 -25.858 -4.26
C -36.278 -25.865 -4.22
C -34.998 -26.648 -3.764
C -33.616 -26.051 2.459
C -34.916 -26.811 1.966
C -36.191 -26.058 2.5
C -33.673 -29.053 0.317
C -33.713 -28.979 -2.282
C -33.738 -28.938 -3.847
C -33.648 -29.098 1.883
C -29.823 -28.246 -0.257
C -29.851 -28.201 -1.821
C -32.368 -26.755 0.354
C -32.412 -26.68 -2.244
C -31.148 -28.966 -2.332
C -32.393 -28.263 -0.204
C -32.418 -28.218 -1.768
C -31.102 -29.039 0.267
C -29.901 -28.131 -4.399
C -32.439 -26.638 -3.809
C -32.464 -28.148 -4.346
C -31.177 -28.924 -3.897
C -29.774 -28.321 2.321
C -32.342 -26.8 1.92
C -31.074 -29.084 1.833
C -32.348 -28.338 2.374
C -28.519 -25.942 -0.223
C -28.547 -25.896 -1.788
C -29.845 -26.663 -2.297
C -31.089 -25.961 -0.168
C -31.116 -25.915 -1.732
C -29.798 -26.738 0.301
C -28.598 -25.825 -4.364
C -31.164 -25.844 -4.309
C -29.875 -26.62 -3.862
C -28.469 -26.017 2.354
C -29.769 -26.784 1.866
C -31.042 -26.037 2.409
C -28.531 -29.019 0.211
C -28.579 -28.945 -2.387
C -28.61 -28.903 -3.953
C -28.501 -29.064 1.777
C -24.68 -28.194 -0.369
C -24.707 -28.15 -1.933
C -27.226 -26.715 0.244
C -27.275 -26.641 -2.353
C -26.007 -28.919 -2.444
C -27.252 -28.223 -0.314
C -27.281 -28.178 -1.878
C -25.959 -28.992 0.154
C -24.755 -28.079 -4.51
C -27.305 -26.597 -3.919
C -27.331 -28.108 -4.455
C -26.036 -28.876 -4.009
C -24.633 -28.269 2.209
C -27.197 -26.761 1.809
C -25.93 -29.037 1.72
C -27.202 -28.297 2.264
C -23.375 -25.888 -0.332
C -23.401 -25.843 -1.897
C -24.7 -26.613 -2.408
C -25.948 -25.917 -0.28
C -25.976 -25.872 -1.844
C -24.654 -26.687 0.189
C -23.445 -25.771 -4.472
C -26.025 -25.8 -4.42
C -24.729 -26.569 -3.974
C -23.331 -25.964 2.245
C -24.626 -26.733 1.754
C -25.899 -25.993 2.297
C -23.387 -28.961 0.102
C -23.43 -28.888 -2.496
C -23.457 -28.845 -4.062
C -23.36 -29.007 1.668
C -22.082 -26.657 0.14
C -22.123 -26.582 -2.457
C -20.851 -28.855 -2.54
C -22.107 -28.163 -0.418
C -22.131 -28.119 -1.982
C -20.814 -28.928 0.058
C -22.147 -26.538 -4.023
C -22.172 -28.047 -4.559
C -20.874 -28.811 -4.106
C -22.057 -26.703 1.706
C -20.792 -28.973 1.623
C -22.065 -28.237 2.161
C -20.801 -25.858 -0.377
C -20.823 -25.813 -1.941
C -20.861 -25.74 -4.517
C -20.764 -25.933 2.202
C -55.437 -28.019 -0.092
C -55.435 -27.971 -1.648
C -55.41 -27.883 -4.333
C -55.419 -28.098 2.594
C -54.158 -25.801 -0.015
C -54.156 -25.751 -1.588
C -55.449 -26.461 -2.148
C -56.695 -25.71 -0.027
C -56.693 -25.659 -1.582
C -55.452 -26.544 0.497
C -54.137 -25.668 -4.172
C -56.668 -25.57 -4.266
C -55.439 -26.411 -3.73
C -54.145 -25.878 2.57
C -55.446 -26.593 2.078
C -56.677 -25.791 2.659
H -35.038 -28.137 -5.383
H -37.586 -28.14 -5.349
H -34.907 -28.386 3.501
H -37.487 -28.389 3.537
H -33.743 -25.836 -5.342
H -36.293 -25.844 -5.302
H -33.597 -26.089 3.541
H -36.177 -26.096 3.581
H -29.925 -28.109 -5.48
H -32.485 -28.127 -5.428
H -29.75 -28.358 3.402
H -32.327 -28.375 3.456
H -28.622 -25.803 -5.446
H -31.187 -25.823 -5.391
H -28.444 -26.054 3.435
H -31.019 -26.075 3.49
H -24.776 -28.056 -5.591
H -27.355 -28.085 -5.537
H -24.609 -28.304 3.29
H -27.177 -28.333 3.345
H -23.465 -25.747 -5.554
H -26.048 -25.777 -5.502
H -23.308 -25.999 3.327
H -25.874 -26.029 3.379
H -22.189 -28.023 -5.64
H -22.044 -28.271 3.242
H -20.875 -25.715 -5.598
H -20.745 -25.967 3.283
H -41.331 -26.091 3.631
H -55.366 -28.11 3.674
H -54.13 -25.913 3.652
H -42.638 -28.374 3.576
H -43.902 -26.078 3.642
H -56.624 -25.804 3.739
H -45.208 -28.355 3.583
H -46.469 -26.057 3.647
H -47.774 -28.325 3.583
H -49.032 -26.026 3.647
H -50.333 -28.282 3.581
H -51.591 -25.982 3.646
H -40.064 -28.386 3.562
H -38.755 -26.097 3.612
H -52.872 -28.216 3.587
H -47.775 -28.064 -5.307
H -50.326 -28.017 -5.309
H -38.84 -25.843 -5.273
H -52.86 -27.945 -5.32
H -41.386 -25.836 -5.255
H -51.584 -25.711 -5.243
H -54.118 -25.637 -5.254
H -56.611 -25.519 -5.345
H -42.678 -28.121 -5.313
H -45.225 -28.098 -5.307
H -46.482 -25.796 -5.242
H -49.033 -25.76 -5.241
H -40.132 -28.135 -5.326
H -55.352 -27.831 -5.412
H -43.933 -25.82 -5.245
C 7.46 -28.75 0.036
C 7.46 -28.678 -2.566
C 7.461 -28.635 -4.132
C 7.459 -28.793 1.602
C 11.311 -27.971 -0.461
C 11.309 -27.928 -2.026
C 8.765 -26.472 0.1
C 8.764 -26.401 -2.502
C 10.022 -28.678 -2.565
C 8.747 -27.972 -0.461
C 8.747 -27.928 -2.025
C 10.024 -28.75 0.037
C 11.306 -27.857 -4.609
C 8.764 -26.358 -4.068
C 8.747 -27.857 -4.608
C 10.021 -28.635 -4.132
C 11.314 -28.043 2.121
C 8.765 -26.515 1.666
C 10.025 -28.793 1.603
C 8.748 -28.043 2.121
C 12.616 -25.693 -0.398
C 12.613 -25.651 -1.963
C 11.326 -26.401 -2.502
C 10.052 -25.693 -0.397
C 10.051 -25.651 -1.962
C 11.329 -26.472 0.1
C 12.609 -25.58 -4.546
C 10.05 -25.579 -4.545
C 11.324 -26.358 -4.069
C 12.62 -25.764 2.184
C 11.331 -26.515 1.666
C 10.054 -25.764 2.185
C 12.588 -28.75 0.035
C 12.583 -28.678 -2.567
C 12.581 -28.635 -4.133
C 12.59 -28.793 1.601
C 16.438 -27.971 -0.467
C 16.431 -27.928 -2.031
C 13.893 -26.472 0.098
C 13.887 -26.401 -2.504
C 15.144 -28.678 -2.57
C 13.874 -27.971 -0.463
C 13.87 -27.928 -2.028
C 15.152 -28.75 0.033
C 16.422 -27.857 -4.615
C 13.883 -26.358 -4.071
C 13.865 -27.857 -4.611
C 15.139 -28.635 -4.136
C 16.446 -28.043 2.115
C 13.897 -26.515 1.664
C 15.156 -28.793 1.598
C 13.88 -28.043 2.119
C 17.743 -25.693 -0.406
C 17.735 -25.651 -1.97
C 16.447 -26.401 -2.508
C 15.18 -25.693 -0.401
C 15.174 -25.651 -1.965
C 16.457 -26.472 0.094
C 17.724 -25.58 -4.554
C 15.167 -25.58 -4.549
C 16.441 -26.358 -4.074
C 17.754 -25.763 2.175
C 16.463 -26.514 1.66
C 15.186 -25.764 2.181
C 17.716 -28.75 0.027
C 17.703 -28.678 -2.575
C 17.696 -28.635 -4.141
C 17.723 -28.793 1.593
C 21.566 -27.97 -0.487
C 21.551 -27.926 -2.051
C 19.022 -26.472 0.087
C 19.007 -26.4 -2.515
C 20.262 -28.677 -2.585
C 19.001 -27.971 -0.474
C 18.991 -27.928 -2.039
C 20.281 -28.749 0.018
C 21.53 -27.855 -4.636
C 18.998 -26.358 -4.081
C 18.977 -27.856 -4.622
C 20.251 -28.634 -4.151
C 21.587 -28.042 2.094
C 19.031 -26.514 1.653
C 20.292 -28.792 1.584
C 19.015 -28.042 2.107
C 22.872 -25.691 -0.432
C 22.855 -25.649 -1.997
C 21.565 -26.399 -2.528
C 20.307 -25.692 -0.415
C 20.295 -25.65 -1.98
C 21.588 -26.471 0.074
C 22.83 -25.578 -4.581
C 20.278 -25.58 -4.564
C 21.552 -26.357 -4.094
C 22.898 -25.762 2.148
C 21.601 -26.513 1.64
C 20.325 -25.763 2.166
C 22.847 -28.748 0.001
C 22.82 -28.675 -2.602
C 22.804 -28.633 -4.168
C 22.863 -28.79 1.567
C 26.696 -27.965 -0.542
C 26.671 -27.92 -2.106
C 24.155 -26.469 0.052
C 24.124 -26.397 -2.55
C 25.378 -28.672 -2.629
C 24.131 -27.968 -0.509
C 24.111 -27.924 -2.073
C 25.415 -28.745 -0.027
C 26.629 -27.849 -4.69
C 24.105 -26.355 -4.116
C 24.08 -27.853 -4.657
C 25.356 -28.629 -4.195
C 26.738 -28.037 2.039
C 24.174 -26.511 1.618
C 25.437 -28.788 1.539
C 24.161 -28.04 2.072
C 28.004 -25.686 -0.499
C 27.975 -25.642 -2.063
C 26.681 -26.394 -2.583
C 25.438 -25.689 -0.459
C 25.415 -25.646 -2.024
C 26.723 -26.466 0.019
C 27.929 -25.571 -4.647
C 25.38 -25.576 -4.608
C 26.656 -26.352 -4.149
C 28.051 -25.757 2.081
C 26.748 -26.508 1.585
C 25.473 -25.76 2.121
C 27.983 -28.74 -0.066
C 27.935 -28.666 -2.668
C 27.906 -28.624 -4.234
C 28.012 -28.784 1.499
C 31.829 -27.951 -0.648
C 31.79 -27.905 -2.212
C 29.292 -26.461 -0.027
C 29.239 -26.388 -2.628
C 30.493 -28.658 -2.722
C 29.263 -27.96 -0.588
C 29.23 -27.914 -2.152
C 30.552 -28.733 -0.12
C 31.725 -27.832 -4.796
C 29.207 -26.346 -4.194
C 29.177 -27.842 -4.736
C 30.457 -28.615 -4.287
C 31.894 -28.026 1.932
C 29.324 -26.504 1.539
C 30.588 -28.778 1.446
C 29.316 -28.033 1.992
C 33.136 -25.671 -0.617
C 33.096 -25.626 -2.181
C 31.797 -26.379 -2.688
C 30.57 -25.68 -0.551
C 30.535 -25.636 -2.116
C 31.861 -26.454 -0.086
C 33.027 -25.553 -4.764
C 30.477 -25.564 -4.699
C 31.759 -26.336 -4.253
C 33.205 -25.746 1.963
C 31.899 -26.498 1.479
C 30.628 -25.753 2.029
C 33.121 -28.723 -0.187
C 33.051 -28.646 -2.788
C 33.009 -28.602 -4.354
C 33.163 -28.769 1.378
C 34.429 -26.443 -0.158
C 34.356 -26.367 -2.759
C 35.611 -28.63 -2.867
C 34.395 -27.939 -0.721
C 34.351 -27.892 -2.285
C 35.69 -28.708 -0.266
C 34.312 -26.322 -4.324
C 34.276 -27.816 -4.868
C 35.562 -28.583 -4.432
C 34.473 -26.489 1.407
C 35.736 -28.755 1.299
C 34.47 -28.016 1.859
C 35.702 -25.658 -0.693
C 35.657 -25.612 -2.257
C 35.579 -25.536 -4.84
C 35.779 -25.735 1.887
C 2.327 -28.754 0.026
C 2.333 -28.681 -2.576
C 2.337 -28.638 -4.142
C 2.324 -28.797 1.592
C 6.183 -27.972 -0.462
C 6.184 -27.929 -2.027
C 3.633 -26.475 0.093
C 3.638 -26.402 -2.509
C 4.897 -28.679 -2.569
C 3.617 -27.974 -0.468
C 3.62 -27.93 -2.032
C 4.894 -28.751 0.033
C 6.186 -27.857 -4.61
C 3.64 -26.359 -4.075
C 3.625 -27.859 -4.614
C 4.9 -28.636 -4.135
C 6.181 -28.044 2.119
C 3.631 -26.518 1.659
C 4.892 -28.794 1.599
C 3.613 -28.045 2.114
C 7.488 -25.694 -0.398
C 7.488 -25.651 -1.962
C 6.202 -26.401 -2.504
C 4.923 -25.695 -0.401
C 4.924 -25.652 -1.966
C 6.2 -26.473 0.098
C 7.489 -25.579 -4.545
C 4.928 -25.58 -4.548
C 6.203 -26.358 -4.07
C 7.488 -25.765 2.184
C 6.199 -26.516 1.664
C 4.92 -25.766 2.18
C -2.809 -28.764 0.003
C -2.803 -28.692 -2.598
C -2.799 -28.648 -4.164
C -2.813 -28.807 1.569
C 1.05 -27.977 -0.477
C 1.053 -27.933 -2.041
C -1.503 -26.482 0.071
C -1.497 -26.41 -2.529
C -0.234 -28.685 -2.586
C -1.518 -27.982 -0.488
C -1.515 -27.938 -2.053
C -0.24 -28.757 0.015
C 1.061 -27.861 -4.623
C -1.492 -26.366 -4.095
C -1.507 -27.866 -4.634
C -0.229 -28.641 -4.152
C 1.043 -28.048 2.105
C -1.507 -26.526 1.638
C -0.244 -28.801 1.581
C -1.526 -28.053 2.093
C 2.356 -25.697 -0.409
C 2.359 -25.654 -1.973
C 1.072 -26.405 -2.518
C -0.212 -25.701 -0.419
C -0.209 -25.657 -1.984
C 1.066 -26.478 0.083
C 2.365 -25.582 -4.555
C -0.201 -25.585 -4.565
C 1.076 -26.361 -4.084
C 2.351 -25.769 2.173
C 1.062 -26.521 1.65
C -0.219 -25.773 2.162
C -7.95 -28.789 -0.017
C -7.951 -28.716 -2.617
C -7.95 -28.672 -4.183
C -7.95 -28.833 1.549
C -4.089 -27.99 -0.501
C -4.086 -27.947 -2.065
C -6.644 -26.502 0.048
C -6.642 -26.429 -2.552
C -5.375 -28.702 -2.61
C -6.66 -28.002 -0.511
C -6.66 -27.959 -2.076
C -5.379 -28.774 -0.009
C -4.079 -27.874 -4.646
C -6.64 -26.384 -4.118
C -6.655 -27.886 -4.655
C -5.372 -28.658 -4.176
C -4.095 -28.062 2.08
C -6.645 -26.546 1.614
C -5.382 -28.818 1.557
C -6.663 -28.074 2.07
C -2.782 -25.707 -0.432
C -2.779 -25.663 -1.997
C -4.068 -26.417 -2.542
C -5.353 -25.717 -0.444
C -5.352 -25.673 -2.009
C -4.073 -26.49 0.059
C -2.771 -25.59 -4.577
C -5.346 -25.599 -4.588
C -4.064 -26.373 -4.108
C -2.789 -25.779 2.149
C -4.076 -26.534 1.625
C -5.358 -25.789 2.137
C -13.095 -28.833 -0.014
C -13.108 -28.76 -2.613
C -13.116 -28.715 -4.179
C -13.087 -28.877 1.552
C -9.233 -28.019 -0.516
C -9.235 -27.976 -2.081
C -11.789 -26.539 0.044
C -11.799 -26.465 -2.555
C -10.528 -28.736 -2.619
C -11.807 -28.041 -0.515
C -11.813 -27.997 -2.079
C -10.522 -28.808 -0.02
C -9.237 -27.903 -4.66
C -11.804 -26.419 -4.121
C -11.821 -27.924 -4.657
C -10.531 -28.691 -4.185
C -9.231 -28.091 2.064
C -11.783 -26.583 1.61
C -10.518 -28.852 1.546
C -11.798 -28.113 2.065
C -7.926 -25.73 -0.452
C -7.927 -25.686 -2.017
C -9.219 -26.444 -2.557
C -10.5 -25.748 -0.455
C -10.505 -25.703 -2.019
C -9.216 -26.518 0.042
C -7.926 -25.612 -4.595
C -10.509 -25.63 -4.597
C -9.221 -26.399 -4.123
C -7.926 -25.803 2.128
C -9.214 -26.562 1.608
C -10.495 -25.821 2.126
C -18.241 -28.894 0.023
C -18.27 -28.821 -2.575
C -18.288 -28.777 -4.141
C -18.223 -28.939 1.589
C -14.382 -28.067 -0.505
C -14.393 -28.023 -2.07
C -16.936 -26.593 0.072
C -16.961 -26.519 -2.526
C -15.689 -28.789 -2.599
C -16.957 -28.097 -0.486
C -16.972 -28.053 -2.051
C -15.668 -28.862 0
C -14.409 -27.951 -4.647
C -16.976 -26.474 -4.092
C -16.997 -27.981 -4.627
C -15.701 -28.744 -4.165
C -14.365 -28.139 2.075
C -16.921 -26.638 1.638
C -15.655 -28.906 1.566
C -16.932 -28.17 2.093
C -13.076 -25.771 -0.449
C -13.084 -25.726 -2.014
C -14.38 -26.49 -2.545
C -15.651 -25.797 -0.435
C -15.664 -25.752 -1.999
C -14.362 -26.564 0.053
C -13.096 -25.652 -4.591
C -15.684 -25.678 -4.576
C -14.389 -26.445 -4.111
C -13.062 -25.844 2.131
C -14.352 -26.609 1.619
C -15.63 -25.871 2.144
C -19.532 -28.13 -0.457
C -19.552 -28.086 -2.021
C -19.585 -28.014 -4.598
C -19.499 -28.203 2.122
C -18.226 -25.827 -0.411
C -18.244 -25.782 -1.975
C -19.543 -26.55 -2.497
C -19.509 -26.624 0.101
C -18.273 -25.708 -4.551
C -19.563 -26.505 -4.063
C -18.197 -25.901 2.168
C -19.489 -26.67 1.666
H 26.614 -27.821 -5.772
H 24.07 -27.825 -5.739
H 26.756 -28.072 3.12
H 24.174 -28.074 3.154
H 27.91 -25.544 -5.729
H 25.367 -25.548 -5.69
H 28.071 -25.792 3.163
H 25.488 -25.794 3.202
H 31.699 -27.804 -5.877
H 29.156 -27.814 -5.818
H 31.924 -28.062 3.013
H 29.34 -28.068 3.073
H 32.999 -25.525 -5.845
H 30.454 -25.536 -5.781
H 33.237 -25.782 3.044
H 30.655 -25.788 3.11
H 34.244 -27.788 -5.949
H 34.506 -28.054 2.94
H 35.547 -25.508 -5.921
H 35.816 -25.773 2.968
H -1.499 -27.838 -5.715
H -1.529 -28.085 3.175
H -4.071 -27.846 -5.727
H -6.649 -27.858 -5.737
H -4.097 -28.093 3.162
H -6.663 -28.105 3.151
H -2.763 -25.562 -5.659
H -5.339 -25.571 -5.67
H -2.791 -25.81 3.23
H -5.359 -25.82 3.218
H -9.233 -27.875 -5.741
H -11.821 -27.897 -5.739
H -9.228 -28.122 3.146
H -11.792 -28.144 3.147
H -7.921 -25.584 -5.677
H -10.507 -25.602 -5.678
H -7.925 -25.833 3.21
H -10.491 -25.852 3.207
H -14.412 -27.924 -5.729
H -17.005 -27.955 -5.709
H -14.356 -28.171 3.156
H -16.919 -28.202 3.175
H -13.097 -25.624 -5.672
H -15.689 -25.652 -5.657
H -13.055 -25.875 3.212
H -15.619 -25.903 3.226
H -19.598 -27.989 -5.68
H -19.482 -28.236 3.203
H -18.283 -25.682 -5.633
H -18.182 -25.934 3.249
H 20.331 -25.797 3.247
H 6.182 -28.076 3.201
H 7.489 -25.798 3.265
H 19.02 -28.076 3.189
H 17.758 -25.797 3.257
H 4.92 -25.799 3.262
H 16.449 -28.076 3.196
H 15.189 -25.797 3.262
H 3.612 -28.078 3.196
H 2.349 -25.801 3.254
H 13.882 -28.076 3.2
H 1.041 -28.08 3.187
H 12.622 -25.797 3.265
H -0.222 -25.804 3.243
H 11.316 -28.076 3.202
H 10.056 -25.797 3.266
H 21.595 -28.075 3.176
H 22.908 -25.796 3.23
H 8.75 -28.076 3.203
H 13.865 -27.829 -5.693
H 11.307 -27.829 -5.691
H 22.822 -25.55 -5.663
H -0.193 -25.556 -5.647
H 8.748 -27.829 -5.69
H 20.273 -25.551 -5.646
H 10.05 -25.551 -5.626
H 7.491 -25.551 -5.627
H 3.629 -27.831 -5.696
H 4.932 -25.552 -5.63
H 18.974 -27.829 -5.704
H 16.421 -27.829 -5.697
H 1.067 -27.833 -5.704
H 15.166 -25.552 -5.631
H 12.609 -25.551 -5.628
H 21.524 -27.827 -5.717
H 6.189 -27.829 -5.691
H 17.722 -25.552 -5.636
H 2.371 -25.553 -5.637
C 36.962 -27.922 -0.804
C 36.913 -27.874 -2.367
C 36.828 -27.795 -4.95
C 37.043 -28.001 1.776
C 38.268 -25.641 -0.778
C 38.219 -25.593 -2.341
C 36.916 -26.349 -2.84
C 36.997 -26.428 -0.24
C 38.134 -25.514 -4.923
C 36.867 -26.302 -4.405
C 38.35 -25.72 1.802
C 37.044 -26.475 1.325
C 38.258 -28.688 -0.355
C 38.172 -28.607 -2.954
C 38.118 -28.558 -4.519
C 38.307 -28.736 1.21
C 39.564 -26.407 -0.328
C 39.479 -26.326 -2.928
C 40.737 -28.579 -3.05
C 39.529 -27.9 -0.895
C 39.477 -27.851 -2.458
C 40.827 -28.662 -0.446
C 39.425 -26.276 -4.492
C 39.383 -27.767 -5.039
C 40.677 -28.526 -4.613
C 39.613 -26.455 1.236
C 40.875 -28.71 1.119
C 39.612 -27.98 1.685
C 40.835 -25.617 -0.867
C 40.783 -25.568 -2.43
C 40.691 -25.484 -5.011
C 40.916 -25.698 1.713
H 36.794 -27.766 -6.031
H 37.083 -28.04 2.856
H 38.099 -25.485 -6.004
H 38.39 -25.759 2.883
H 39.345 -27.736 -6.12
H 39.653 -28.02 2.766
H 40.653 -25.452 -6.092
H 40.957 -25.738 2.793
C 42.099 -27.872 -0.983
C 42.045 -27.821 -2.556
C 41.938 -27.729 -5.14
C 42.174 -27.949 1.601
C 43.404 -25.588 -0.953
C 43.351 -25.538 -2.526
C 42.044 -26.296 -3.022
C 42.133 -26.38 -0.418
C 43.247 -25.445 -5.11
C 41.985 -26.242 -4.586
C 43.477 -25.666 1.631
C 42.179 -26.428 1.147
C 43.399 -28.63 -0.52
C 43.306 -28.544 -3.164
C 43.243 -28.488 -4.746
C 43.447 -28.679 1.061
C 44.704 -26.346 -0.489
C 44.613 -26.259 -3.133
C 44.64 -27.818 -1.083
C 44.586 -27.767 -2.638
C 44.551 -26.204 -4.715
C 44.468 -27.667 -5.325
C 44.751 -26.395 1.092
C 44.714 -27.898 1.602
C 45.945 -25.533 -1.05
C 45.892 -25.483 -2.605
C 45.777 -25.383 -5.292
C 46.015 -25.613 1.636
H 41.881 -27.686 -6.219
H 42.199 -27.98 2.682
H 43.191 -25.401 -6.19
H 43.5 -25.698 2.712
H 44.369 -27.598 -6.401
H 44.7 -27.908 2.684
H 45.68 -25.313 -6.367
H 46 -25.623 2.718
C -50.384 -32.705 -0.209
C -50.383 -32.657 -1.783
C -52.936 -31.15 0.367
C -52.932 -31.07 -2.28
C -51.675 -33.367 -2.344
C -52.921 -32.623 -0.223
C -52.92 -32.576 -1.778
C -51.678 -33.446 0.302
C -50.364 -32.576 -4.37
C -52.923 -31.022 -3.862
C -52.894 -32.488 -4.466
C -51.665 -33.319 -3.927
C -50.372 -32.777 2.377
C -52.93 -31.198 1.948
C -51.672 -33.493 1.884
C -52.905 -32.698 2.464
C -49.077 -30.461 -0.146
C -49.077 -30.414 -1.709
C -50.366 -31.134 -2.255
C -51.642 -30.408 -0.145
C -51.641 -30.361 -1.719
C -50.368 -31.212 0.351
C -49.07 -30.339 -4.292
C -51.622 -30.279 -4.305
C -50.359 -31.087 -3.82
C -49.073 -30.538 2.436
C -50.363 -31.258 1.916
C -51.629 -30.482 2.441
C -49.111 -33.506 0.288
C -49.109 -33.429 -2.319
C -49.102 -33.382 -3.884
C -49.105 -33.551 1.853
C -45.256 -32.794 -0.208
C -45.26 -32.748 -1.772
C -47.804 -31.261 0.353
C -47.805 -31.184 -2.248
C -46.548 -33.477 -2.313
C -47.819 -32.755 -0.209
C -47.82 -32.709 -1.773
C -46.546 -33.553 0.289
C -45.262 -32.676 -4.355
C -47.803 -31.139 -3.814
C -47.814 -32.634 -4.357
C -46.547 -33.432 -3.878
C -45.251 -32.872 2.374
C -47.801 -31.308 1.918
C -46.542 -33.599 1.854
C -47.815 -32.832 2.373
C -43.954 -30.532 -0.145
C -43.959 -30.486 -1.709
C -45.247 -31.222 -2.248
C -46.515 -30.502 -0.143
C -46.517 -30.455 -1.707
C -45.241 -31.298 0.354
C -43.967 -30.415 -4.292
C -46.518 -30.383 -4.29
C -45.249 -31.179 -3.813
C -43.946 -30.609 2.436
C -45.237 -31.344 1.919
C -46.511 -30.58 2.438
C -43.982 -33.588 0.289
C -43.989 -33.513 -2.313
C -43.993 -33.47 -3.879
C -43.977 -33.634 1.854
C -40.131 -32.841 -0.224
C -40.143 -32.795 -1.788
C -42.678 -31.324 0.349
C -42.69 -31.249 -2.252
C -41.432 -33.537 -2.321
C -42.694 -32.823 -0.211
C -42.701 -32.777 -1.776
C -41.417 -33.612 0.281
C -40.163 -32.725 -4.371
C -42.697 -31.207 -3.818
C -42.712 -32.706 -4.359
C -41.441 -33.495 -3.887
C -40.113 -32.916 2.357
C -42.671 -31.37 1.915
C -41.408 -33.658 1.847
C -42.684 -32.899 2.37
C -38.829 -30.563 -0.172
C -38.843 -30.517 -1.736
C -40.132 -31.266 -2.265
C -41.392 -30.552 -0.153
C -41.402 -30.506 -1.718
C -40.113 -31.34 0.336
C -38.868 -30.448 -4.318
C -41.417 -30.436 -4.3
C -40.145 -31.224 -3.831
C -38.806 -30.638 2.408
C -40.101 -31.385 1.902
C -41.377 -30.628 2.427
C -38.851 -33.626 0.263
C -38.874 -33.552 -2.338
C -38.889 -33.51 -3.904
C -38.837 -33.671 1.83
C -35.001 -32.848 -0.281
C -35.022 -32.803 -1.846
C -37.546 -31.347 0.312
C -37.574 -31.273 -2.288
C -36.315 -33.556 -2.366
C -37.567 -32.849 -0.247
C -37.584 -32.804 -1.811
C -36.283 -33.63 0.235
C -35.06 -32.734 -4.427
C -37.592 -31.232 -3.854
C -37.613 -32.734 -4.394
C -36.335 -33.515 -3.932
C -34.964 -32.923 2.298
C -37.529 -31.392 1.878
C -36.264 -33.675 1.801
C -37.54 -32.924 2.333
C -33.697 -30.559 -0.241
C -33.72 -30.514 -1.805
C -35.014 -31.272 -2.323
C -36.264 -30.565 -0.201
C -36.283 -30.52 -1.765
C -34.977 -31.345 0.277
C -33.763 -30.445 -4.386
C -36.317 -30.451 -4.346
C -35.037 -31.23 -3.888
C -33.656 -30.633 2.338
C -34.956 -31.39 1.843
C -36.231 -30.639 2.378
C -33.713 -33.625 0.194
C -33.753 -33.552 -2.406
C -33.778 -33.51 -3.972
C -33.689 -33.67 1.76
C -29.863 -32.821 -0.38
C -29.891 -32.777 -1.945
C -32.407 -31.335 0.232
C -32.451 -31.262 -2.368
C -31.188 -33.539 -2.456
C -32.433 -32.839 -0.327
C -32.458 -32.794 -1.891
C -31.142 -33.612 0.144
C -29.941 -32.708 -4.524
C -32.478 -31.22 -3.933
C -32.504 -32.725 -4.472
C -31.217 -33.497 -4.022
C -29.814 -32.895 2.199
C -32.381 -31.38 1.797
C -31.115 -33.656 1.71
C -32.389 -32.913 2.252
C -28.558 -30.524 -0.347
C -28.586 -30.48 -1.911
C -29.884 -31.245 -2.421
C -31.128 -30.545 -0.291
C -31.155 -30.501 -1.855
C -29.836 -31.318 0.178
C -28.637 -30.411 -4.49
C -31.203 -30.431 -4.435
C -29.914 -31.203 -3.987
C -28.508 -30.598 2.232
C -29.808 -31.363 1.744
C -31.081 -30.619 2.287
C -28.571 -33.59 0.088
C -28.619 -33.518 -2.511
C -28.65 -33.476 -4.077
C -28.542 -33.635 1.654
C -24.72 -32.767 -0.492
C -24.746 -32.724 -2.057
C -27.265 -31.293 0.121
C -27.313 -31.221 -2.478
C -26.047 -33.49 -2.568
C -27.292 -32.797 -0.437
C -27.32 -32.753 -2.002
C -25.999 -33.563 0.031
C -24.794 -32.653 -4.635
C -27.343 -31.178 -4.043
C -27.371 -32.684 -4.581
C -26.076 -33.448 -4.134
C -24.673 -32.84 2.087
C -27.235 -31.338 1.687
C -25.97 -33.608 1.597
C -27.242 -32.871 2.142
C -23.413 -30.466 -0.456
C -23.438 -30.423 -2.02
C -24.739 -31.191 -2.533
C -25.986 -30.498 -0.404
C -26.014 -30.454 -1.968
C -24.692 -31.264 0.066
C -23.483 -30.352 -4.598
C -26.063 -30.384 -4.546
C -24.767 -31.148 -4.098
C -23.368 -30.54 2.123
C -24.665 -31.309 1.631
C -25.937 -30.571 2.175
C -23.426 -33.53 -0.021
C -23.47 -33.458 -2.62
C -23.497 -33.415 -4.186
C -23.4 -33.575 1.544
C -22.12 -31.23 0.017
C -22.161 -31.158 -2.581
C -20.891 -33.422 -2.665
C -22.146 -32.733 -0.541
C -22.17 -32.69 -2.106
C -20.854 -33.494 -0.065
C -22.186 -31.114 -4.147
C -22.212 -32.619 -4.684
C -20.914 -33.379 -4.231
C -22.095 -31.275 1.583
C -20.831 -33.539 1.5
C -22.105 -32.806 2.038
C -20.839 -30.432 -0.5
C -20.861 -30.389 -2.065
C -20.899 -30.318 -4.642
C -20.801 -30.505 2.079
C -54.179 -30.323 -0.158
C -54.177 -30.276 -1.713
C -54.152 -30.189 -4.4
C -54.162 -30.4 2.529
H -35.078 -32.712 -5.509
H -37.626 -32.712 -5.475
H -34.948 -32.961 3.379
H -37.529 -32.962 3.415
H -33.782 -30.423 -5.467
H -36.332 -30.429 -5.428
H -33.637 -30.671 3.419
H -36.217 -30.678 3.46
H -29.965 -32.685 -5.606
H -32.525 -32.703 -5.553
H -29.79 -32.932 3.28
H -32.368 -32.951 3.334
H -28.661 -30.388 -5.571
H -31.226 -30.409 -5.516
H -28.483 -30.635 3.313
H -31.058 -30.657 3.369
H -24.816 -32.63 -5.717
H -27.395 -32.66 -5.662
H -24.649 -32.876 3.168
H -27.217 -32.907 3.223
H -23.503 -30.328 -5.679
H -26.086 -30.361 -5.627
H -23.346 -30.574 3.204
H -25.912 -30.607 3.256
H -22.229 -32.595 -5.765
H -22.084 -32.841 3.12
H -20.913 -30.293 -5.724
H -20.782 -30.539 3.16
H -41.374 -30.667 3.508
H -54.11 -30.412 3.609
H -42.683 -32.939 3.451
H -43.946 -30.649 3.518
H -45.254 -32.912 3.456
H -46.514 -30.621 3.52
H -47.817 -32.872 3.454
H -49.075 -30.579 3.518
H -50.358 -32.809 3.459
H -51.615 -30.515 3.523
H -40.108 -32.955 3.438
H -38.797 -30.676 3.49
H -52.854 -32.71 3.545
H -47.811 -32.611 -5.439
H -50.344 -32.543 -5.451
H -38.879 -30.426 -5.4
H -52.834 -32.433 -5.545
H -41.424 -30.415 -5.382
H -51.602 -30.247 -5.386
H -54.093 -30.135 -5.479
H -42.717 -32.685 -5.441
H -45.264 -32.655 -5.437
H -46.519 -30.362 -5.372
H -49.068 -30.316 -5.374
H -40.171 -32.704 -5.453
H -43.97 -30.394 -5.374
C 7.414 -33.303 -0.089
C 7.415 -33.231 -2.692
C 7.415 -33.188 -4.258
C 7.414 -33.346 1.477
C 11.265 -32.525 -0.587
C 11.263 -32.481 -2.152
C 8.719 -31.027 -0.026
C 8.718 -30.955 -2.629
C 9.976 -33.231 -2.692
C 8.702 -32.525 -0.587
C 8.701 -32.482 -2.151
C 9.978 -33.303 -0.089
C 11.26 -32.41 -4.736
C 8.718 -30.912 -4.195
C 8.701 -32.41 -4.735
C 9.975 -33.187 -4.258
C 11.268 -32.597 1.995
C 8.719 -31.07 1.54
C 9.979 -33.346 1.477
C 8.702 -32.597 1.996
C 12.569 -30.249 -0.525
C 12.566 -30.205 -2.09
C 11.28 -30.955 -2.629
C 10.006 -30.249 -0.524
C 10.005 -30.205 -2.089
C 11.283 -31.027 -0.027
C 12.563 -30.134 -4.674
C 10.004 -30.134 -4.672
C 11.278 -30.912 -4.196
C 12.573 -30.32 2.057
C 11.285 -31.07 1.539
C 10.008 -30.32 2.058
C 12.541 -33.303 -0.09
C 12.537 -33.231 -2.693
C 12.534 -33.187 -4.26
C 12.544 -33.346 1.476
C 16.39 -32.525 -0.594
C 16.384 -32.481 -2.158
C 13.846 -31.027 -0.029
C 13.84 -30.955 -2.632
C 15.097 -33.23 -2.696
C 13.828 -32.525 -0.59
C 13.824 -32.481 -2.154
C 15.104 -33.303 -0.093
C 16.375 -32.41 -4.742
C 13.837 -30.912 -4.198
C 13.818 -32.41 -4.738
C 15.092 -33.187 -4.263
C 16.399 -32.597 1.989
C 13.85 -31.07 1.537
C 15.109 -33.346 1.473
C 13.833 -32.597 1.993
C 17.696 -30.249 -0.533
C 17.687 -30.205 -2.098
C 16.4 -30.955 -2.635
C 15.132 -30.249 -0.528
C 15.127 -30.205 -2.093
C 16.41 -31.027 -0.033
C 17.676 -30.133 -4.682
C 15.12 -30.134 -4.677
C 16.394 -30.912 -4.202
C 17.707 -30.32 2.048
C 16.415 -31.07 1.533
C 15.139 -30.321 2.054
C 17.668 -33.303 -0.099
C 17.656 -33.23 -2.702
C 17.648 -33.187 -4.268
C 17.675 -33.346 1.467
C 21.517 -32.523 -0.614
C 21.502 -32.478 -2.178
C 18.974 -31.027 -0.04
C 18.959 -30.954 -2.643
C 20.214 -33.229 -2.711
C 18.953 -32.525 -0.601
C 18.943 -32.48 -2.165
C 20.233 -33.302 -0.109
C 21.481 -32.407 -4.763
C 18.95 -30.911 -4.209
C 18.929 -32.409 -4.75
C 20.202 -33.186 -4.278
C 21.538 -32.595 1.968
C 18.983 -31.07 1.526
C 20.244 -33.345 1.457
C 18.967 -32.597 1.981
C 22.824 -30.246 -0.56
C 22.807 -30.202 -2.125
C 21.517 -30.952 -2.656
C 20.259 -30.248 -0.543
C 20.247 -30.204 -2.108
C 21.54 -31.025 -0.053
C 22.781 -30.13 -4.709
C 20.23 -30.132 -4.692
C 21.503 -30.909 -4.222
C 22.849 -30.318 2.021
C 21.553 -31.068 1.513
C 20.276 -30.32 2.038
C 22.798 -33.299 -0.126
C 22.771 -33.226 -2.729
C 22.754 -33.183 -4.295
C 22.814 -33.343 1.44
C 26.646 -32.515 -0.67
C 26.62 -32.47 -2.234
C 24.106 -31.023 -0.075
C 24.074 -30.949 -2.678
C 25.327 -33.221 -2.756
C 24.081 -32.52 -0.636
C 24.061 -32.475 -2.2
C 25.365 -33.295 -0.154
C 26.577 -32.397 -4.819
C 24.055 -30.907 -4.243
C 24.03 -32.403 -4.785
C 25.305 -33.178 -4.322
C 26.689 -32.589 1.912
C 24.125 -31.066 1.491
C 25.388 -33.339 1.412
C 24.112 -32.593 1.946
C 27.955 -30.238 -0.628
C 27.925 -30.192 -2.192
C 26.631 -30.944 -2.711
C 25.389 -30.243 -0.587
C 25.366 -30.198 -2.152
C 26.674 -31.018 -0.109
C 27.877 -30.12 -4.776
C 25.329 -30.126 -4.736
C 26.605 -30.901 -4.277
C 28.003 -30.312 1.953
C 26.7 -31.062 1.457
C 25.425 -30.316 1.994
C 27.933 -33.289 -0.195
C 27.884 -33.214 -2.797
C 27.854 -33.171 -4.363
C 27.963 -33.333 1.371
C 31.778 -32.497 -0.78
C 31.738 -32.45 -2.344
C 29.243 -31.012 -0.156
C 29.188 -30.936 -2.758
C 30.441 -33.203 -2.852
C 29.212 -32.508 -0.717
C 29.179 -32.461 -2.282
C 30.502 -33.279 -0.25
C 31.671 -32.375 -4.927
C 29.155 -30.893 -4.324
C 29.124 -32.388 -4.866
C 30.403 -33.159 -4.417
C 31.845 -32.573 1.801
C 29.276 -31.056 1.41
C 30.539 -33.324 1.316
C 29.267 -32.582 1.864
C 33.087 -30.218 -0.75
C 33.045 -30.171 -2.313
C 31.746 -30.925 -2.819
C 30.521 -30.23 -0.682
C 30.485 -30.184 -2.246
C 31.812 -31.002 -0.218
C 32.973 -30.096 -4.897
C 30.424 -30.11 -4.83
C 31.706 -30.881 -4.385
C 33.159 -30.295 1.831
C 31.851 -31.047 1.348
C 30.581 -30.305 1.899
C 33.071 -33.266 -0.32
C 32.999 -33.188 -2.921
C 32.954 -33.143 -4.486
C 33.114 -33.311 1.245
C 34.381 -30.988 -0.293
C 34.305 -30.909 -2.894
C 35.559 -33.168 -3.003
C 34.345 -32.481 -0.856
C 34.299 -32.434 -2.419
C 35.64 -33.247 -0.403
C 34.258 -30.864 -4.459
C 34.219 -32.357 -5.002
C 35.506 -33.121 -4.568
C 34.426 -31.034 1.272
C 35.687 -33.293 1.161
C 34.422 -32.559 1.724
C 35.654 -30.202 -0.83
C 35.606 -30.154 -2.393
C 35.523 -30.077 -4.976
C 35.734 -30.281 1.75
C 2.283 -33.306 -0.099
C 2.288 -33.234 -2.701
C 2.292 -33.191 -4.267
C 2.279 -33.349 1.467
C 6.138 -32.526 -0.588
C 6.139 -32.482 -2.153
C 3.588 -31.029 -0.033
C 3.593 -30.957 -2.635
C 4.852 -33.232 -2.695
C 3.572 -32.528 -0.593
C 3.575 -32.484 -2.158
C 4.849 -33.304 -0.092
C 6.141 -32.411 -4.736
C 3.596 -30.914 -4.201
C 3.58 -32.413 -4.74
C 4.855 -33.189 -4.261
C 6.135 -32.597 1.994
C 3.586 -31.072 1.533
C 4.847 -33.347 1.474
C 3.568 -32.599 1.989
C 7.442 -30.249 -0.524
C 7.443 -30.206 -2.089
C 6.156 -30.955 -2.63
C 4.878 -30.25 -0.527
C 4.879 -30.207 -2.092
C 6.154 -31.028 -0.028
C 7.444 -30.134 -4.672
C 4.883 -30.135 -4.675
C 6.158 -30.912 -4.196
C 7.442 -30.321 2.058
C 6.153 -31.071 1.538
C 4.874 -30.322 2.055
C -2.853 -33.317 -0.122
C -2.846 -33.245 -2.723
C -2.842 -33.202 -4.289
C -2.857 -33.361 1.445
C 1.006 -32.531 -0.602
C 1.009 -32.487 -2.166
C -1.547 -31.038 -0.053
C -1.54 -30.965 -2.654
C -0.278 -33.238 -2.711
C -1.562 -32.536 -0.613
C -1.559 -32.493 -2.178
C -0.284 -33.31 -0.109
C 1.017 -32.416 -4.748
C -1.535 -30.922 -4.22
C -1.55 -32.421 -4.759
C -0.273 -33.195 -4.277
C 0.999 -32.602 1.981
C -1.551 -31.081 1.513
C -0.289 -33.354 1.457
C -1.57 -32.607 1.969
C 2.312 -30.253 -0.534
C 2.314 -30.209 -2.099
C 1.028 -30.96 -2.643
C -0.256 -30.257 -0.545
C -0.252 -30.213 -2.109
C 1.021 -31.032 -0.042
C 2.321 -30.137 -4.681
C -0.244 -30.142 -4.691
C 1.032 -30.917 -4.209
C 2.306 -30.324 2.048
C 1.018 -31.075 1.525
C -0.263 -30.328 2.037
C -7.992 -33.344 -0.141
C -7.992 -33.272 -2.742
C -7.992 -33.228 -4.308
C -7.992 -33.388 1.425
C -4.131 -32.545 -0.625
C -4.129 -32.502 -2.19
C -6.686 -31.059 -0.076
C -6.684 -30.987 -2.676
C -5.418 -33.257 -2.734
C -6.702 -32.558 -0.635
C -6.702 -32.515 -2.2
C -5.422 -33.328 -0.133
C -4.121 -32.43 -4.771
C -6.682 -30.943 -4.242
C -6.698 -32.444 -4.78
C -5.415 -33.213 -4.3
C -4.138 -32.616 1.957
C -6.687 -31.103 1.49
C -5.425 -33.372 1.433
C -6.705 -32.63 1.946
C -2.825 -30.264 -0.557
C -2.822 -30.22 -2.121
C -4.11 -30.974 -2.666
C -5.395 -30.274 -0.568
C -5.393 -30.231 -2.133
C -4.116 -31.046 -0.066
C -2.813 -30.148 -4.702
C -5.387 -30.159 -4.713
C -4.106 -30.93 -4.232
C -2.832 -30.335 2.025
C -4.119 -31.09 1.501
C -5.4 -30.345 2.013
C -13.135 -33.392 -0.138
C -13.149 -33.32 -2.738
C -13.156 -33.276 -4.304
C -13.127 -33.436 1.428
C -9.275 -32.577 -0.64
C -9.277 -32.534 -2.205
C -11.829 -31.1 -0.08
C -11.838 -31.028 -2.679
C -10.569 -33.294 -2.743
C -11.848 -32.6 -0.639
C -11.854 -32.558 -2.203
C -10.563 -33.365 -0.143
C -9.278 -32.462 -4.784
C -11.843 -30.983 -4.245
C -11.862 -32.486 -4.782
C -10.573 -33.249 -4.309
C -9.272 -32.648 1.941
C -11.823 -31.144 1.486
C -10.56 -33.409 1.423
C -11.839 -32.672 1.943
C -7.967 -30.289 -0.576
C -7.968 -30.246 -2.141
C -9.26 -31.005 -2.681
C -10.54 -30.309 -0.578
C -10.544 -30.266 -2.143
C -9.257 -31.077 -0.081
C -7.966 -30.174 -4.72
C -10.549 -30.194 -4.722
C -9.261 -30.961 -4.247
C -7.968 -30.36 2.005
C -9.255 -31.121 1.485
C -10.535 -30.381 2.002
C -18.281 -33.458 -0.1
C -18.31 -33.386 -2.699
C -18.328 -33.342 -4.265
C -18.263 -33.503 1.466
C -14.422 -32.629 -0.629
C -14.433 -32.586 -2.193
C -16.974 -31.16 -0.051
C -16.999 -31.088 -2.65
C -15.729 -33.351 -2.723
C -16.997 -32.662 -0.61
C -17.012 -32.619 -2.174
C -15.708 -33.423 -0.123
C -14.449 -32.515 -4.772
C -17.014 -31.044 -4.216
C -17.037 -32.548 -4.753
C -15.742 -33.307 -4.289
C -14.406 -32.701 1.952
C -16.959 -31.205 1.515
C -15.695 -33.468 1.442
C -16.972 -32.734 1.971
C -13.115 -30.335 -0.573
C -13.123 -30.292 -2.137
C -14.418 -31.056 -2.669
C -15.689 -30.364 -0.559
C -15.702 -30.321 -2.123
C -14.401 -31.128 -0.07
C -13.135 -30.22 -4.716
C -15.722 -30.25 -4.701
C -14.428 -31.012 -4.235
C -13.102 -30.406 2.008
C -14.391 -31.172 1.496
C -15.668 -30.437 2.022
C -19.572 -32.697 -0.581
C -19.592 -32.654 -2.145
C -19.625 -32.583 -4.723
C -19.538 -32.77 1.999
C -18.264 -30.398 -0.535
C -18.282 -30.354 -2.099
C -19.58 -31.123 -2.621
C -19.547 -31.195 -0.022
C -18.311 -30.283 -4.677
C -19.601 -31.079 -4.187
C -18.235 -30.47 2.045
C -19.527 -31.24 1.543
H 26.561 -32.371 -5.9
H 24.019 -32.377 -5.867
H 26.707 -32.624 2.993
H 24.125 -32.627 3.027
H 27.858 -30.093 -5.858
H 25.316 -30.099 -5.818
H 28.024 -30.347 3.034
H 25.44 -30.35 3.075
H 31.643 -32.348 -6.009
H 29.102 -32.361 -5.947
H 31.877 -32.609 2.882
H 29.292 -32.618 2.945
H 32.943 -30.068 -5.978
H 30.4 -30.083 -5.911
H 33.192 -30.332 2.912
H 30.608 -30.341 2.98
H 34.186 -32.329 -6.083
H 34.459 -32.597 2.805
H 35.489 -30.048 -6.057
H 35.773 -30.319 2.83
H -1.543 -32.394 -5.841
H -1.572 -32.639 3.051
H -4.114 -32.403 -5.852
H -6.692 -32.416 -5.862
H -4.14 -32.648 3.038
H -6.706 -32.661 3.028
H -2.806 -30.121 -5.784
H -5.381 -30.131 -5.795
H -2.835 -30.366 3.106
H -5.401 -30.376 3.094
H -9.275 -32.434 -5.866
H -11.862 -32.458 -5.864
H -9.27 -32.679 3.023
H -11.833 -32.703 3.024
H -7.961 -30.146 -5.802
H -10.547 -30.167 -5.803
H -7.967 -30.391 3.086
H -10.531 -30.412 3.084
H -14.452 -32.488 -5.854
H -17.045 -32.521 -5.834
H -14.397 -32.733 3.034
H -16.959 -32.767 3.052
H -13.136 -30.192 -5.797
H -15.728 -30.223 -5.783
H -13.094 -30.438 3.089
H -15.657 -30.469 3.103
H -19.638 -32.558 -5.805
H -19.521 -32.803 3.081
H -18.321 -30.257 -5.758
H -18.22 -30.503 3.126
H 20.283 -30.353 3.12
H 6.136 -32.63 3.076
H 7.443 -30.354 3.139
H 18.972 -32.63 3.063
H 17.71 -30.354 3.13
H 4.874 -30.354 3.136
H 16.402 -32.631 3.07
H 15.142 -30.354 3.135
H 3.567 -32.632 3.071
H 2.304 -30.356 3.129
H 13.835 -32.63 3.074
H 0.997 -32.634 3.062
H 12.576 -30.354 3.138
H -0.266 -30.36 3.119
H 11.27 -32.63 3.077
H 10.01 -30.353 3.14
H 21.546 -32.629 3.049
H 22.859 -30.352 3.103
H 8.704 -32.63 3.077
H 13.818 -32.383 -5.82
H 11.26 -32.383 -5.817
H 22.772 -30.103 -5.791
H -0.237 -30.114 -5.772
H 8.702 -32.383 -5.816
H 20.225 -30.105 -5.774
H 10.004 -30.107 -5.754
H 7.446 -30.107 -5.754
H 3.584 -32.385 -5.822
H 4.887 -30.108 -5.756
H 18.926 -32.382 -5.831
H 16.373 -32.383 -5.824
H 1.023 -32.388 -5.83
H 15.12 -30.107 -5.758
H 12.563 -30.107 -5.755
H 21.474 -32.38 -5.845
H 6.144 -32.384 -5.817
H 17.674 -30.106 -5.764
H 2.327 -30.11 -5.763
C 36.913 -32.461 -0.944
C 36.862 -32.412 -2.507
C 36.77 -32.332 -5.088
C 36.994 -32.539 1.637
C 38.222 -30.181 -0.92
C 38.17 -30.132 -2.483
C 36.865 -30.888 -2.979
C 36.95 -30.969 -0.38
C 38.076 -30.05 -5.064
C 36.812 -30.84 -4.544
C 38.305 -30.26 1.66
C 36.998 -31.015 1.185
C 38.21 -33.224 -0.493
C 38.122 -33.143 -3.098
C 38.062 -33.092 -4.661
C 38.257 -33.269 1.071
C 39.52 -30.944 -0.471
C 39.43 -30.861 -3.075
C 40.689 -33.111 -3.215
C 39.484 -32.436 -1.033
C 39.43 -32.386 -2.607
C 40.783 -33.195 -0.57
C 39.369 -30.809 -4.639
C 39.321 -32.297 -5.19
C 40.625 -33.057 -4.796
C 39.567 -30.99 1.094
C 40.832 -33.242 1.011
C 39.56 -32.51 1.551
C 40.792 -30.155 -1.01
C 40.738 -30.104 -2.583
C 40.629 -30.013 -5.166
C 40.869 -30.231 1.574
H 36.731 -32.302 -6.169
H 37.034 -32.577 2.717
H 38.037 -30.019 -6.145
H 38.345 -30.299 2.741
H 39.262 -32.256 -6.27
H 39.585 -32.539 2.632
H 40.571 -29.971 -6.246
H 40.894 -30.261 2.655
C 42.024 -32.385 -1.138
C 41.969 -32.335 -2.693
C 41.849 -32.237 -5.38
C 42.101 -32.463 1.547
C 43.333 -30.102 -1.113
C 43.278 -30.052 -2.668
C 41.998 -30.827 -3.192
C 42.092 -30.913 -0.547
C 43.158 -29.952 -5.355
C 41.934 -30.773 -4.773
C 43.409 -30.181 1.572
C 42.141 -30.961 1.034
H 41.747 -32.171 -6.455
H 42.09 -32.471 2.629
H 43.058 -29.885 -6.43
H 43.396 -30.19 2.654
C -50.407 -37.208 -0.349
C -50.406 -37.162 -1.905
C -50.381 -37.075 -4.595
C -50.389 -37.282 2.338
C -49.127 -34.997 -0.273
C -49.126 -34.95 -1.847
C -50.418 -35.66 -2.408
C -51.664 -34.917 -0.287
C -51.663 -34.871 -1.842
C -50.42 -35.739 0.239
C -49.108 -34.869 -4.434
C -51.637 -34.784 -4.531
C -50.409 -35.612 -3.99
C -49.114 -35.069 2.314
C -50.414 -35.785 1.821
C -51.647 -34.992 2.4
C -49.162 -38.027 0.177
C -49.161 -37.949 -2.471
C -49.153 -37.901 -4.053
C -49.156 -38.073 1.759
C -45.303 -37.332 -0.337
C -45.306 -37.286 -1.901
C -47.852 -35.796 0.225
C -47.852 -35.719 -2.383
C -46.596 -38.006 -2.446
C -47.869 -37.286 -0.335
C -47.87 -37.239 -1.91
C -46.594 -38.082 0.162
C -45.303 -37.212 -4.486
C -47.846 -35.673 -3.948
C -47.853 -37.159 -4.498
C -46.59 -37.96 -4.011
C -45.295 -37.408 2.246
C -47.846 -35.841 1.79
C -46.587 -38.127 1.727
C -47.855 -37.357 2.252
C -43.998 -35.083 -0.273
C -44.002 -35.037 -1.837
C -45.291 -35.765 -2.377
C -46.561 -35.046 -0.273
C -46.563 -35 -1.837
C -45.287 -35.841 0.225
C -44.007 -34.965 -4.421
C -46.558 -34.925 -4.422
C -45.291 -35.721 -3.943
C -43.99 -35.16 2.309
C -45.282 -35.887 1.79
C -46.555 -35.122 2.31
C -44.028 -38.125 0.16
C -44.035 -38.05 -2.442
C -44.036 -38.006 -4.008
C -44.021 -38.171 1.725
C -40.174 -37.391 -0.35
C -40.186 -37.345 -1.914
C -42.722 -35.874 0.222
C -42.732 -35.799 -2.38
C -41.476 -38.081 -2.449
C -42.738 -37.368 -0.34
C -42.745 -37.322 -1.903
C -41.461 -38.156 0.154
C -40.204 -37.275 -4.499
C -42.738 -35.756 -3.946
C -42.753 -37.25 -4.488
C -41.484 -38.038 -4.014
C -40.157 -37.467 2.232
C -42.715 -35.92 1.788
C -41.452 -38.202 1.72
C -42.728 -37.444 2.243
C -38.871 -35.125 -0.297
C -38.885 -35.079 -1.861
C -40.174 -35.821 -2.392
C -41.435 -35.109 -0.28
C -41.444 -35.063 -1.844
C -40.156 -35.896 0.211
C -38.908 -35.009 -4.445
C -41.458 -34.993 -4.428
C -40.186 -35.779 -3.957
C -38.848 -35.2 2.285
C -40.145 -35.941 1.777
C -41.421 -35.185 2.302
C -38.894 -38.175 0.138
C -38.917 -38.1 -2.465
C -38.931 -38.058 -4.03
C -38.881 -38.221 1.704
C -35.043 -37.406 -0.406
C -35.064 -37.361 -1.97
C -37.588 -35.907 0.188
C -37.616 -35.833 -2.414
C -36.357 -38.108 -2.492
C -37.609 -37.404 -0.372
C -37.626 -37.358 -1.936
C -36.325 -38.183 0.11
C -35.101 -37.291 -4.554
C -37.633 -35.791 -3.979
C -37.654 -37.288 -4.521
C -36.377 -38.067 -4.058
C -35.007 -37.481 2.175
C -37.572 -35.952 1.754
C -36.307 -38.229 1.676
C -37.583 -37.48 2.21
C -33.738 -35.126 -0.365
C -33.761 -35.081 -1.929
C -35.055 -35.834 -2.448
C -36.305 -35.13 -0.325
C -36.324 -35.085 -1.889
C -35.019 -35.908 0.154
C -33.803 -35.012 -4.511
C -36.357 -35.015 -4.472
C -35.078 -35.793 -4.013
C -33.697 -35.2 2.215
C -34.998 -35.953 1.72
C -36.273 -35.205 2.256
C -33.755 -38.181 0.071
C -33.795 -38.106 -2.531
C -33.82 -38.065 -4.097
C -33.732 -38.226 1.637
C -29.905 -37.381 -0.504
C -29.932 -37.337 -2.068
C -32.449 -35.899 0.108
C -32.492 -35.826 -2.492
C -31.23 -38.094 -2.58
C -32.474 -37.398 -0.451
C -32.499 -37.353 -2.015
C -31.184 -38.168 0.021
C -29.982 -37.267 -4.65
C -32.519 -35.784 -4.058
C -32.545 -37.284 -4.598
C -31.258 -38.053 -4.146
C -29.856 -37.456 2.076
C -32.423 -35.944 1.674
C -31.157 -38.214 1.587
C -32.431 -37.473 2.13
C -28.598 -35.092 -0.471
C -28.626 -35.048 -2.035
C -29.925 -35.809 -2.545
C -31.169 -35.113 -0.415
C -31.195 -35.068 -1.979
C -29.877 -35.882 0.055
C -28.678 -34.978 -4.615
C -31.244 -34.999 -4.56
C -29.955 -35.767 -4.111
C -28.549 -35.166 2.109
C -29.849 -35.927 1.621
C -31.122 -35.187 2.165
C -28.612 -38.147 -0.035
C -28.661 -38.074 -2.636
C -28.691 -38.032 -4.202
C -28.583 -38.193 1.531
C -24.761 -37.326 -0.616
C -24.788 -37.282 -2.181
C -27.306 -35.857 -0.002
C -27.354 -35.785 -2.602
C -26.088 -38.046 -2.692
C -27.333 -37.357 -0.561
C -27.362 -37.313 -2.125
C -26.04 -38.119 -0.092
C -24.836 -37.212 -4.761
C -27.384 -35.742 -4.168
C -27.413 -37.243 -4.706
C -26.118 -38.003 -4.258
C -24.714 -37.4 1.964
C -27.276 -35.903 1.564
C -26.012 -38.165 1.474
C -27.284 -37.431 2.019
C -23.454 -35.031 -0.58
C -23.479 -34.988 -2.144
C -24.779 -35.754 -2.657
C -26.027 -35.064 -0.527
C -26.054 -35.021 -2.092
C -24.733 -35.826 -0.057
C -23.524 -34.918 -4.723
C -26.104 -34.951 -4.671
C -24.808 -35.711 -4.223
C -23.409 -35.104 2
C -24.706 -35.872 1.508
C -25.978 -35.138 2.053
C -23.468 -38.085 -0.144
C -23.511 -38.013 -2.745
C -23.539 -37.969 -4.311
C -23.442 -38.131 1.421
C -22.161 -35.791 -0.106
C -22.201 -35.719 -2.706
C -20.932 -37.976 -2.789
C -22.188 -37.29 -0.665
C -22.211 -37.247 -2.229
C -20.895 -38.048 -0.189
C -22.227 -35.676 -4.272
C -22.253 -37.176 -4.809
C -20.955 -37.932 -4.355
C -22.136 -35.837 1.46
C -20.873 -38.093 1.377
C -22.147 -37.364 1.916
C -20.88 -34.995 -0.624
C -20.902 -34.952 -2.189
C -20.94 -34.881 -4.768
C -20.842 -35.068 1.956
H -35.119 -37.269 -5.635
H -37.667 -37.266 -5.602
H -34.991 -37.519 3.257
H -37.573 -37.518 3.291
H -33.823 -34.989 -5.593
H -36.373 -34.993 -5.554
H -33.679 -35.238 3.296
H -36.26 -35.243 3.337
H -30.006 -37.245 -5.731
H -32.567 -37.261 -5.679
H -29.832 -37.493 3.157
H -32.41 -37.511 3.211
H -28.702 -34.955 -5.697
H -31.267 -34.977 -5.642
H -28.524 -35.203 3.19
H -31.1 -35.225 3.246
H -24.858 -37.188 -5.842
H -27.437 -37.22 -5.788
H -24.691 -37.435 3.046
H -27.259 -37.468 3.101
H -23.544 -34.893 -5.805
H -26.127 -34.927 -5.753
H -23.387 -35.14 3.082
H -25.953 -35.174 3.134
H -22.271 -37.152 -5.891
H -22.126 -37.399 2.997
H -20.955 -34.856 -5.849
H -20.824 -35.102 3.038
H -41.418 -35.225 3.383
H -42.728 -37.484 3.324
H -43.992 -35.2 3.391
H -45.297 -37.447 3.327
H -46.558 -35.162 3.391
H -47.841 -37.387 3.333
H -49.1 -35.1 3.396
H -50.34 -37.292 3.419
H -51.597 -35.003 3.481
H -40.152 -37.507 3.313
H -38.841 -35.239 3.366
H -47.832 -37.125 -5.579
H -50.32 -37.019 -5.674
H -38.919 -34.987 -5.526
H -41.464 -34.971 -5.51
H -51.577 -34.728 -5.61
H -42.757 -37.228 -5.57
H -45.302 -37.189 -5.568
H -46.556 -34.902 -5.503
H -49.087 -34.836 -5.515
H -40.212 -37.253 -5.581
H -44.01 -34.943 -5.503
C 7.369 -37.849 -0.213
C 7.37 -37.776 -2.817
C 7.37 -37.733 -4.383
C 7.369 -37.893 1.353
C 11.219 -37.073 -0.712
C 11.217 -37.029 -2.277
C 8.673 -35.577 -0.151
C 8.673 -35.505 -2.754
C 9.931 -37.776 -2.817
C 8.656 -37.073 -0.711
C 8.656 -37.029 -2.276
C 9.933 -37.849 -0.213
C 11.214 -36.958 -4.862
C 8.673 -35.462 -4.32
C 8.656 -36.958 -4.86
C 9.93 -37.733 -4.383
C 11.222 -37.145 1.871
C 8.674 -35.621 1.415
C 9.934 -37.893 1.353
C 8.657 -37.145 1.872
C 12.523 -34.8 -0.651
C 12.52 -34.756 -2.216
C 11.234 -35.505 -2.755
C 9.96 -34.8 -0.649
C 9.959 -34.756 -2.214
C 11.237 -35.577 -0.152
C 12.516 -34.685 -4.8
C 9.958 -34.685 -4.798
C 11.232 -35.462 -4.321
C 12.527 -34.872 1.932
C 11.239 -35.621 1.414
C 9.962 -34.872 1.934
C 12.496 -37.849 -0.215
C 12.491 -37.777 -2.818
C 12.488 -37.734 -4.385
C 12.498 -37.893 1.351
C 16.344 -37.073 -0.719
C 16.337 -37.029 -2.283
C 13.8 -35.577 -0.154
C 13.794 -35.505 -2.757
C 15.051 -37.777 -2.822
C 13.782 -37.073 -0.715
C 13.778 -37.029 -2.279
C 15.059 -37.85 -0.218
C 16.328 -36.958 -4.868
C 13.79 -35.462 -4.324
C 13.772 -36.958 -4.864
C 15.046 -37.734 -4.388
C 16.353 -37.146 1.864
C 13.803 -35.621 1.412
C 15.063 -37.894 1.348
C 13.787 -37.146 1.869
C 17.648 -34.8 -0.659
C 17.64 -34.756 -2.224
C 16.353 -35.505 -2.761
C 15.086 -34.8 -0.654
C 15.08 -34.756 -2.219
C 16.363 -35.577 -0.158
C 17.628 -34.684 -4.809
C 15.073 -34.685 -4.803
C 16.347 -35.462 -4.328
C 17.659 -34.872 1.923
C 16.369 -35.621 1.408
C 15.092 -34.872 1.929
C 17.622 -37.85 -0.223
C 17.609 -37.776 -2.827
C 17.601 -37.733 -4.393
C 17.629 -37.894 1.343
C 21.469 -37.071 -0.74
C 21.454 -37.026 -2.304
C 18.927 -35.577 -0.165
C 18.911 -35.504 -2.769
C 20.166 -37.775 -2.837
C 18.906 -37.073 -0.726
C 18.896 -37.028 -2.291
C 20.185 -37.848 -0.234
C 21.432 -36.954 -4.89
C 18.901 -35.461 -4.335
C 18.881 -36.957 -4.876
C 20.154 -37.732 -4.404
C 21.49 -37.144 1.843
C 18.935 -35.62 1.401
C 20.196 -37.893 1.332
C 18.92 -37.146 1.857
C 22.774 -34.796 -0.687
C 22.757 -34.751 -2.251
C 21.468 -35.501 -2.782
C 20.211 -34.799 -0.669
C 20.199 -34.754 -2.234
C 21.491 -35.575 -0.179
C 22.73 -34.679 -4.836
C 20.181 -34.683 -4.819
C 21.454 -35.458 -4.348
C 22.801 -34.869 1.895
C 21.505 -35.618 1.387
C 20.228 -34.871 1.913
C 22.75 -37.845 -0.252
C 22.722 -37.771 -2.855
C 22.705 -37.728 -4.421
C 22.766 -37.889 1.314
C 26.596 -37.06 -0.797
C 26.569 -37.014 -2.362
C 24.057 -35.571 -0.201
C 24.024 -35.497 -2.804
C 25.277 -37.765 -2.884
C 24.032 -37.067 -0.762
C 24.011 -37.021 -2.327
C 25.316 -37.84 -0.281
C 26.525 -36.941 -4.947
C 24.004 -35.454 -4.37
C 23.979 -36.949 -4.912
C 25.254 -37.722 -4.45
C 26.639 -37.134 1.785
C 24.076 -35.615 1.365
C 25.338 -37.884 1.286
C 24.063 -37.14 1.82
C 27.904 -34.784 -0.756
C 27.873 -34.738 -2.32
C 26.58 -35.49 -2.839
C 25.339 -34.792 -0.715
C 25.315 -34.746 -2.279
C 26.624 -35.565 -0.236
C 27.824 -34.666 -4.905
C 25.278 -34.674 -4.864
C 26.553 -35.447 -4.405
C 27.953 -34.859 1.826
C 26.65 -35.609 1.33
C 25.375 -34.865 1.867
C 27.883 -37.83 -0.323
C 27.833 -37.755 -2.926
C 27.802 -37.712 -4.491
C 27.912 -37.875 1.243
C 31.726 -37.035 -0.911
C 31.686 -36.988 -2.474
C 29.192 -35.555 -0.285
C 29.136 -35.48 -2.887
C 30.389 -37.742 -2.982
C 29.161 -37.049 -0.847
C 29.127 -37.003 -2.411
C 30.45 -37.817 -0.38
C 31.616 -36.914 -5.058
C 29.102 -35.437 -4.453
C 29.07 -36.93 -4.996
C 30.35 -37.698 -4.547
C 31.793 -37.11 1.67
C 29.225 -35.6 1.281
C 30.487 -37.862 1.186
C 29.216 -37.124 1.735
C 33.036 -34.759 -0.883
C 32.992 -34.712 -2.446
C 31.693 -35.466 -2.951
C 30.469 -34.774 -0.812
C 30.432 -34.727 -2.376
C 31.761 -35.542 -0.349
C 32.917 -34.636 -5.029
C 30.37 -34.653 -4.96
C 31.651 -35.422 -4.516
C 33.108 -34.835 1.698
C 31.8 -35.587 1.217
C 30.531 -34.849 1.769
C 33.019 -37.8 -0.452
C 32.947 -37.724 -3.053
C 32.9 -37.679 -4.617
C 33.06 -37.844 1.113
C 34.33 -35.524 -0.427
C 34.252 -35.447 -3.028
C 35.508 -37.701 -3.139
C 34.294 -37.016 -0.989
C 34.248 -36.969 -2.552
C 35.589 -37.778 -0.533
C 34.202 -35.401 -4.592
C 34.163 -36.892 -5.135
C 35.452 -37.653 -4.703
C 34.374 -35.569 1.138
C 35.632 -37.821 1.031
C 34.367 -37.09 1.592
C 35.604 -34.74 -0.966
C 35.555 -34.692 -2.53
C 35.466 -34.613 -5.112
C 35.681 -34.815 1.614
C 2.239 -37.852 -0.223
C 2.244 -37.779 -2.826
C 2.248 -37.736 -4.392
C 2.235 -37.895 1.343
C 6.093 -37.073 -0.713
C 6.094 -37.029 -2.277
C 3.544 -35.579 -0.157
C 3.548 -35.506 -2.76
C 4.808 -37.777 -2.819
C 3.528 -37.075 -0.717
C 3.53 -37.031 -2.282
C 4.805 -37.85 -0.216
C 6.096 -36.958 -4.861
C 3.551 -35.464 -4.326
C 3.536 -36.96 -4.866
C 4.81 -37.734 -4.386
C 6.091 -37.145 1.871
C 3.541 -35.622 1.409
C 4.803 -37.893 1.35
C 3.523 -37.147 1.866
C 7.397 -34.8 -0.649
C 7.397 -34.756 -2.214
C 6.111 -35.505 -2.755
C 4.833 -34.801 -0.652
C 4.834 -34.757 -2.217
C 6.109 -35.577 -0.152
C 7.398 -34.685 -4.798
C 4.838 -34.686 -4.8
C 6.113 -35.462 -4.321
C 7.396 -34.872 1.933
C 6.108 -35.621 1.414
C 4.829 -34.873 1.93
C -2.896 -37.863 -0.245
C -2.89 -37.791 -2.848
C -2.885 -37.747 -4.414
C -2.9 -37.907 1.321
C 0.962 -37.078 -0.726
C 0.965 -37.034 -2.291
C -1.59 -35.588 -0.177
C -1.584 -35.515 -2.779
C -0.321 -37.783 -2.836
C -1.606 -37.084 -0.737
C -1.602 -37.04 -2.302
C -0.328 -37.856 -0.233
C 0.973 -36.963 -4.874
C -1.579 -35.472 -4.345
C -1.594 -36.969 -4.885
C -0.317 -37.74 -4.402
C 0.955 -37.15 1.857
C -1.595 -35.631 1.389
C -0.332 -37.9 1.333
C -1.613 -37.156 1.846
C 2.267 -34.804 -0.659
C 2.27 -34.76 -2.224
C 0.984 -35.51 -2.768
C -0.3 -34.808 -0.669
C -0.296 -34.764 -2.234
C 0.977 -35.582 -0.166
C 2.276 -34.689 -4.807
C -0.288 -34.693 -4.816
C 0.988 -35.467 -4.334
C 2.261 -34.875 1.924
C 0.973 -35.625 1.4
C -0.307 -34.879 1.913
C -8.035 -37.891 -0.265
C -8.035 -37.819 -2.866
C -8.034 -37.775 -4.433
C -8.035 -37.935 1.301
C -4.175 -37.093 -0.749
C -4.172 -37.05 -2.314
C -6.728 -35.61 -0.199
C -6.726 -35.538 -2.801
C -5.461 -37.802 -2.859
C -6.745 -37.107 -0.759
C -6.744 -37.064 -2.324
C -5.465 -37.875 -0.257
C -4.165 -36.978 -4.896
C -6.724 -35.494 -4.367
C -6.74 -36.992 -4.905
C -5.458 -37.759 -4.425
C -4.181 -37.165 1.833
C -6.73 -35.654 1.367
C -5.467 -37.919 1.309
C -6.748 -37.179 1.823
C -2.868 -34.815 -0.681
C -2.865 -34.772 -2.246
C -4.153 -35.525 -2.791
C -5.438 -34.826 -0.693
C -5.436 -34.783 -2.257
C -4.159 -35.597 -0.189
C -2.857 -34.7 -4.828
C -5.43 -34.712 -4.839
C -4.149 -35.481 -4.357
C -2.876 -34.887 1.901
C -4.162 -35.64 1.377
C -5.443 -34.898 1.889
C -13.177 -37.941 -0.261
C -13.19 -37.869 -2.862
C -13.198 -37.825 -4.428
C -13.169 -37.986 1.305
C -9.317 -37.126 -0.764
C -9.319 -37.083 -2.329
C -11.87 -35.654 -0.203
C -11.88 -35.582 -2.804
C -10.611 -37.841 -2.868
C -11.89 -37.151 -0.763
C -11.896 -37.108 -2.327
C -10.605 -37.913 -0.267
C -9.321 -37.011 -4.91
C -11.885 -35.538 -4.37
C -11.904 -37.036 -4.908
C -10.615 -37.797 -4.434
C -9.315 -37.198 1.818
C -11.865 -35.698 1.363
C -10.602 -37.958 1.299
C -11.881 -37.223 1.82
C -8.01 -34.843 -0.7
C -8.01 -34.8 -2.265
C -9.302 -35.557 -2.806
C -10.582 -34.864 -0.702
C -10.586 -34.821 -2.267
C -9.299 -35.629 -0.205
C -8.009 -34.728 -4.846
C -10.591 -34.75 -4.847
C -9.303 -35.513 -4.372
C -8.01 -34.914 1.881
C -9.297 -35.673 1.361
C -10.577 -34.936 1.879
C -18.322 -38.01 -0.223
C -18.352 -37.938 -2.824
C -18.37 -37.894 -4.39
C -18.305 -38.055 1.343
C -14.464 -37.181 -0.753
C -14.475 -37.138 -2.317
C -17.015 -35.718 -0.175
C -17.04 -35.646 -2.775
C -15.771 -37.902 -2.848
C -17.039 -37.216 -0.734
C -17.054 -37.173 -2.298
C -15.75 -37.974 -0.247
C -14.491 -37.067 -4.897
C -17.056 -35.602 -4.341
C -17.079 -37.102 -4.878
C -15.783 -37.857 -4.414
C -14.448 -37.253 1.829
C -17 -35.762 1.391
C -15.737 -38.019 1.319
C -17.014 -37.288 1.848
C -13.156 -34.891 -0.697
C -13.164 -34.848 -2.261
C -14.46 -35.612 -2.794
C -15.73 -34.923 -0.682
C -15.743 -34.88 -2.247
C -14.443 -35.684 -0.193
C -13.176 -34.777 -4.841
C -15.764 -34.809 -4.826
C -14.47 -35.567 -4.36
C -13.143 -34.963 1.885
C -14.432 -35.728 1.373
C -15.71 -34.995 1.899
C -19.613 -37.253 -0.705
C -19.633 -37.21 -2.269
C -19.667 -37.139 -4.849
C -19.58 -37.326 1.877
C -18.305 -34.958 -0.659
C -18.323 -34.915 -2.223
C -19.621 -35.682 -2.745
C -19.588 -35.754 -0.146
C -18.352 -34.844 -4.802
C -19.642 -35.638 -4.312
C -18.276 -35.031 1.922
C -19.568 -35.799 1.42
H 26.508 -36.915 -6.029
H 23.968 -36.923 -5.994
H 26.658 -37.17 2.866
H 24.076 -37.175 2.901
H 27.805 -34.639 -5.986
H 25.264 -34.647 -5.946
H 27.975 -34.894 2.907
H 25.391 -34.9 2.949
H 31.587 -36.887 -6.14
H 29.048 -36.903 -6.077
H 31.825 -37.147 2.751
H 29.241 -37.161 2.816
H 32.886 -34.609 -6.111
H 30.344 -34.627 -6.042
H 33.143 -34.872 2.779
H 30.559 -34.886 2.85
H 34.127 -36.864 -6.216
H 34.403 -37.127 2.673
H 35.428 -34.584 -6.193
H 35.72 -34.852 2.695
H -1.587 -36.942 -5.966
H -1.616 -37.188 2.927
H -4.158 -36.951 -5.978
H -6.735 -36.965 -5.987
H -4.183 -37.197 2.915
H -6.749 -37.211 2.905
H -2.85 -34.673 -5.909
H -5.424 -34.684 -5.92
H -2.878 -34.919 2.982
H -5.445 -34.93 2.971
H -9.318 -36.984 -5.992
H -11.905 -37.009 -5.989
H -9.313 -37.23 2.9
H -11.876 -37.255 2.901
H -8.004 -34.701 -5.927
H -10.589 -34.722 -5.929
H -8.009 -34.946 2.963
H -10.573 -34.967 2.961
H -14.495 -37.04 -5.979
H -17.087 -37.076 -5.96
H -14.439 -37.286 2.911
H -17.001 -37.322 2.929
H -13.178 -34.75 -5.922
H -15.769 -34.782 -5.908
H -13.136 -34.995 2.966
H -15.699 -35.028 2.98
H -19.68 -37.114 -5.93
H -19.563 -37.36 2.958
H -18.362 -34.819 -5.884
H -18.261 -35.064 3.004
H 20.235 -34.905 2.995
H 6.091 -37.179 2.952
H 7.397 -34.905 3.015
H 18.925 -37.18 2.938
H 17.663 -34.906 3.005
H 4.829 -34.906 3.012
H 16.356 -37.18 2.946
H 15.095 -34.906 3.01
H 3.522 -37.18 2.947
H 2.26 -34.908 3.005
H 13.789 -37.18 2.95
H 0.953 -37.183 2.939
H 12.529 -34.906 3.013
H -0.31 -34.912 2.995
H 11.224 -37.179 2.953
H 9.964 -34.905 3.015
H 21.498 -37.178 2.924
H 22.811 -34.903 2.977
H 8.658 -37.179 2.953
H 13.771 -36.932 -5.946
H 11.214 -36.932 -5.943
H 22.722 -34.653 -5.918
H -0.281 -34.666 -5.898
H 8.657 -36.932 -5.942
H 20.176 -34.656 -5.9
H 9.958 -34.659 -5.88
H 7.4 -34.659 -5.879
H 3.54 -36.934 -5.947
H 4.842 -34.66 -5.882
H 18.878 -36.931 -5.958
H 16.326 -36.932 -5.95
H 0.979 -36.937 -5.956
H 15.072 -34.659 -5.885
H 12.516 -34.659 -5.882
H 21.425 -36.928 -5.971
H 6.098 -36.932 -5.943
H 17.626 -34.658 -5.89
H 2.282 -34.662 -5.888
C 36.864 -36.994 -1.073
C 36.814 -36.945 -2.647
C 36.71 -36.861 -5.231
C 36.935 -37.063 1.512
C 38.174 -34.716 -1.054
C 38.121 -34.667 -2.628
C 36.814 -35.423 -3.119
C 36.9 -35.502 -0.514
C 38.014 -34.58 -5.212
C 36.756 -35.373 -4.682
C 38.248 -34.788 1.53
C 36.945 -35.546 1.051
C 38.161 -37.752 -0.606
C 38.074 -37.672 -3.252
C 38.012 -37.621 -4.833
C 38.207 -37.797 0.976
C 39.473 -35.474 -0.59
C 39.381 -35.392 -3.235
C 39.405 -36.947 -1.176
C 39.352 -36.898 -2.731
C 39.317 -35.34 -4.816
C 39.234 -36.805 -5.42
C 39.52 -35.521 0.991
C 39.477 -37.02 1.509
C 40.715 -34.667 -1.159
C 40.66 -34.618 -2.714
C 40.54 -34.522 -5.402
C 40.791 -34.743 1.526
H 36.652 -36.823 -6.311
H 36.958 -37.09 2.593
H 37.955 -34.54 -6.291
H 38.273 -34.816 2.611
H 39.131 -36.741 -6.495
H 39.466 -37.026 2.591
H 40.437 -34.456 -6.477
H 40.78 -34.75 2.608
C -49.149 -39.496 -0.411
C -49.149 -39.45 -1.966
C -49.126 -39.363 -4.657
C -49.13 -39.569 2.277
C -45.352 -41.854 -0.46
C -45.356 -41.807 -2.034
C -47.903 -40.313 0.116
C -47.905 -40.235 -2.532
C -46.649 -42.518 -2.593
C -47.89 -41.781 -0.471
C -47.892 -41.735 -2.027
C -46.643 -42.596 0.055
C -45.345 -41.727 -4.623
C -47.898 -40.188 -4.115
C -47.872 -41.648 -4.717
C -46.644 -42.47 -4.175
C -45.333 -41.924 2.128
C -47.896 -40.359 1.698
C -46.634 -42.642 1.637
C -47.868 -41.854 2.216
C -44.044 -39.616 -0.402
C -44.049 -39.569 -1.966
C -45.34 -40.289 -2.509
C -46.611 -39.571 -0.398
C -46.613 -39.525 -1.972
C -45.334 -40.366 0.099
C -44.05 -39.495 -4.551
C -46.598 -39.445 -4.561
C -45.336 -40.243 -4.074
C -44.033 -39.69 2.182
C -45.326 -40.41 1.664
C -46.595 -39.642 2.19
C -44.074 -42.646 0.035
C -44.083 -42.569 -2.573
C -44.082 -42.522 -4.138
C -44.063 -42.691 1.601
C -40.218 -41.924 -0.478
C -40.23 -41.877 -2.042
C -42.767 -40.406 0.094
C -42.778 -40.33 -2.509
C -41.521 -42.606 -2.577
C -42.784 -41.895 -0.467
C -42.792 -41.848 -2.031
C -41.506 -42.683 0.026
C -40.247 -41.804 -4.628
C -42.782 -40.286 -4.074
C -42.797 -41.774 -4.617
C -41.528 -42.561 -4.142
C -40.2 -42.002 2.106
C -42.759 -40.452 1.66
C -41.495 -42.73 1.592
C -42.77 -41.971 2.116
C -38.914 -39.669 -0.423
C -38.927 -39.622 -1.987
C -40.218 -40.358 -2.519
C -41.479 -39.648 -0.407
C -41.488 -39.602 -1.971
C -40.2 -40.434 0.084
C -38.95 -39.552 -4.572
C -41.5 -39.53 -4.557
C -40.229 -40.315 -4.085
C -38.892 -39.745 2.16
C -40.189 -40.48 1.65
C -41.465 -39.725 2.176
C -38.937 -42.707 0.011
C -38.96 -42.63 -2.592
C -38.974 -42.586 -4.158
C -38.923 -42.755 1.577
C -35.084 -41.947 -0.531
C -35.105 -41.9 -2.095
C -37.631 -40.45 0.063
C -37.658 -40.374 -2.54
C -36.399 -42.642 -2.619
C -37.652 -41.941 -0.498
C -37.668 -41.894 -2.063
C -36.367 -42.72 -0.015
C -35.142 -41.828 -4.681
C -37.675 -40.331 -4.106
C -37.695 -41.822 -4.648
C -36.418 -42.598 -4.185
C -35.049 -42.025 2.051
C -37.615 -40.496 1.629
C -36.349 -42.767 1.551
C -37.625 -42.02 2.085
C -33.78 -39.677 -0.489
C -33.803 -39.631 -2.054
C -35.097 -40.378 -2.573
C -36.347 -39.678 -0.45
C -36.366 -39.632 -2.014
C -35.062 -40.454 0.03
C -33.844 -39.56 -4.637
C -36.399 -39.561 -4.599
C -35.119 -40.336 -4.139
C -33.74 -39.753 2.092
C -35.04 -40.501 1.596
C -36.316 -39.754 2.132
C -33.797 -42.72 -0.054
C -33.836 -42.642 -2.657
C -33.86 -42.599 -4.223
C -33.774 -42.768 1.512
C -29.945 -41.926 -0.628
C -29.972 -41.88 -2.192
C -32.491 -40.448 -0.015
C -32.533 -40.373 -2.617
C -31.27 -42.633 -2.706
C -32.516 -41.941 -0.575
C -32.54 -41.895 -2.14
C -31.225 -42.709 -0.103
C -30.022 -41.809 -4.776
C -32.56 -40.33 -4.183
C -32.585 -41.823 -4.724
C -31.298 -42.589 -4.271
C -29.898 -42.002 1.954
C -32.465 -40.494 1.551
C -31.198 -42.757 1.463
C -32.473 -42.019 2.007
C -28.64 -39.644 -0.594
C -28.668 -39.599 -2.159
C -29.966 -40.357 -2.67
C -31.21 -39.665 -0.539
C -31.237 -39.62 -2.103
C -29.919 -40.431 -0.068
C -28.719 -39.529 -4.741
C -31.285 -39.549 -4.686
C -29.996 -40.314 -4.236
C -28.59 -39.719 1.987
C -29.891 -40.478 1.498
C -31.164 -39.74 2.043
C -28.653 -42.689 -0.158
C -28.701 -42.613 -2.761
C -28.731 -42.569 -4.327
C -28.624 -42.736 1.407
C -24.802 -41.869 -0.74
C -24.828 -41.825 -2.304
C -27.347 -40.407 -0.125
C -27.395 -40.333 -2.727
C -26.128 -42.585 -2.817
C -27.374 -41.901 -0.685
C -27.402 -41.856 -2.249
C -26.08 -42.66 -0.215
C -24.876 -41.754 -4.886
C -27.425 -40.29 -4.293
C -27.453 -41.785 -4.832
C -26.157 -42.541 -4.383
C -24.755 -41.945 1.842
C -27.318 -40.453 1.441
C -26.052 -42.707 1.351
C -27.325 -41.977 1.897
C -23.495 -39.582 -0.703
C -23.52 -39.538 -2.268
C -24.82 -40.302 -2.782
C -26.068 -39.616 -0.651
C -26.096 -39.572 -2.215
C -24.775 -40.375 -0.18
C -23.566 -39.468 -4.849
C -26.146 -39.501 -4.797
C -24.849 -40.258 -4.348
C -23.451 -39.656 1.878
C -24.747 -40.421 1.385
C -26.019 -39.691 1.93
C -23.508 -42.625 -0.267
C -23.551 -42.551 -2.869
C -23.578 -42.507 -4.436
C -23.482 -42.672 1.298
C -22.202 -40.339 -0.229
C -22.243 -40.266 -2.83
C -20.972 -42.513 -2.914
C -22.228 -41.833 -0.789
C -22.252 -41.789 -2.353
C -20.935 -42.587 -0.312
C -22.268 -40.222 -4.397
C -22.294 -41.717 -4.935
C -20.995 -42.468 -4.48
C -22.178 -40.385 1.336
C -20.913 -42.633 1.254
C -22.187 -41.908 1.794
C -20.921 -39.544 -0.748
C -20.943 -39.501 -2.312
C -20.981 -39.43 -4.893
C -20.884 -39.618 1.834
H -35.16 -41.806 -5.762
H -37.708 -41.8 -5.73
H -35.034 -42.064 3.133
H -37.616 -42.059 3.166
H -33.864 -39.538 -5.719
H -36.414 -39.539 -5.681
H -33.722 -39.791 3.173
H -36.304 -39.793 3.213
H -30.047 -41.786 -5.857
H -32.607 -41.801 -5.805
H -29.874 -42.04 3.035
H -32.453 -42.057 3.088
H -28.743 -39.507 -5.822
H -31.308 -39.527 -5.767
H -28.566 -39.756 3.068
H -31.142 -39.778 3.124
H -24.898 -41.73 -5.968
H -27.477 -41.762 -5.913
H -24.732 -41.981 2.923
H -27.301 -42.014 2.978
H -23.586 -39.444 -5.93
H -26.169 -39.478 -5.878
H -23.429 -39.692 2.959
H -25.995 -39.727 3.011
H -22.312 -41.693 -6.017
H -22.167 -41.943 2.875
H -20.997 -39.406 -5.975
H -20.866 -39.653 2.915
H -41.463 -39.764 3.257
H -42.769 -42.009 3.198
H -44.034 -39.729 3.263
H -45.317 -41.953 3.209
H -46.58 -39.671 3.271
H -47.819 -41.862 3.297
H -49.08 -39.578 3.357
H -40.196 -42.042 3.187
H -38.885 -39.785 3.241
H -47.813 -41.594 -5.796
H -38.96 -39.529 -5.654
H -41.506 -39.508 -5.639
H -42.799 -41.75 -5.699
H -45.327 -41.694 -5.705
H -46.579 -39.411 -5.642
H -49.066 -39.308 -5.736
H -40.255 -41.782 -5.709
H -44.05 -39.472 -5.633
C 7.327 -42.384 -0.337
C 7.328 -42.309 -2.941
C 7.328 -42.266 -4.508
C 7.326 -42.429 1.23
C 11.176 -41.611 -0.836
C 11.174 -41.566 -2.401
C 8.629 -40.118 -0.275
C 8.629 -40.045 -2.879
C 9.888 -42.31 -2.941
C 8.614 -41.61 -0.835
C 8.613 -41.565 -2.4
C 9.89 -42.384 -0.337
C 11.171 -41.494 -4.987
C 8.629 -40.002 -4.445
C 8.613 -41.494 -4.986
C 9.887 -42.266 -4.508
C 11.179 -41.685 1.748
C 8.63 -40.162 1.292
C 9.891 -42.429 1.229
C 8.614 -41.684 1.749
C 12.479 -39.344 -0.775
C 12.475 -39.3 -2.34
C 11.189 -40.045 -2.88
C 9.916 -39.343 -0.774
C 9.915 -39.299 -2.338
C 11.193 -40.119 -0.275
C 12.471 -39.228 -4.925
C 9.913 -39.228 -4.923
C 11.187 -40.002 -4.446
C 12.483 -39.417 1.808
C 11.194 -40.163 1.291
C 9.918 -39.416 1.81
C 12.453 -42.385 -0.339
C 12.449 -42.311 -2.943
C 12.446 -42.267 -4.51
C 12.456 -42.431 1.227
C 16.301 -41.613 -0.844
C 16.294 -41.568 -2.408
C 13.755 -40.119 -0.278
C 13.749 -40.046 -2.882
C 15.008 -42.312 -2.947
C 13.739 -41.612 -0.839
C 13.735 -41.567 -2.404
C 15.016 -42.387 -0.342
C 16.284 -41.496 -4.995
C 13.745 -40.003 -4.449
C 13.729 -41.495 -4.99
C 15.003 -42.268 -4.513
C 16.31 -41.687 1.74
C 13.759 -40.164 1.288
C 15.021 -42.432 1.224
C 13.744 -41.686 1.745
C 17.603 -39.344 -0.784
C 17.594 -39.3 -2.349
C 16.308 -40.046 -2.887
C 15.041 -39.344 -0.779
C 15.035 -39.3 -2.343
C 16.318 -40.12 -0.282
C 17.582 -39.228 -4.935
C 15.028 -39.228 -4.929
C 16.302 -40.003 -4.453
C 17.614 -39.418 1.799
C 16.324 -40.165 1.284
C 15.048 -39.418 1.805
C 17.579 -42.388 -0.349
C 17.566 -42.313 -2.953
C 17.558 -42.269 -4.52
C 17.586 -42.433 1.217
C 21.424 -41.611 -0.867
C 21.409 -41.565 -2.431
C 18.881 -40.12 -0.29
C 18.865 -40.046 -2.895
C 20.122 -42.312 -2.965
C 18.862 -41.613 -0.852
C 18.852 -41.567 -2.417
C 20.142 -42.387 -0.36
C 21.386 -41.492 -5.018
C 18.855 -40.002 -4.461
C 18.837 -41.495 -5.003
C 20.11 -42.268 -4.531
C 21.446 -41.686 1.717
C 18.89 -40.165 1.276
C 20.153 -42.433 1.206
C 18.877 -41.688 1.732
C 22.727 -39.34 -0.813
C 22.709 -39.294 -2.378
C 21.421 -40.043 -2.909
C 20.164 -39.343 -0.795
C 20.152 -39.298 -2.359
C 21.445 -40.118 -0.305
C 22.682 -39.222 -4.964
C 20.134 -39.226 -4.945
C 21.407 -40 -4.475
C 22.753 -39.414 1.77
C 21.458 -40.162 1.261
C 20.182 -39.417 1.788
C 22.705 -42.384 -0.38
C 22.677 -42.308 -2.984
C 22.66 -42.264 -4.55
C 22.722 -42.429 1.186
C 26.548 -41.596 -0.927
C 26.521 -41.55 -2.491
C 24.009 -40.113 -0.328
C 23.976 -40.038 -2.932
C 25.231 -42.3 -3.014
C 23.985 -41.605 -0.891
C 23.965 -41.559 -2.455
C 25.269 -42.376 -0.41
C 26.477 -41.477 -5.077
C 23.956 -39.994 -4.498
C 23.933 -41.486 -5.042
C 25.208 -42.257 -4.58
C 26.59 -41.672 1.656
C 24.028 -40.157 1.238
C 25.291 -42.421 1.156
C 24.017 -41.681 1.693
C 27.853 -39.323 -0.885
C 27.823 -39.277 -2.449
C 26.531 -40.029 -2.968
C 25.289 -39.333 -0.842
C 25.266 -39.287 -2.407
C 26.575 -40.104 -0.364
C 27.773 -39.204 -5.034
C 25.228 -39.215 -4.992
C 26.504 -39.985 -4.533
C 27.902 -39.398 1.698
C 26.6 -40.149 1.202
C 25.327 -39.408 1.741
C 27.834 -42.363 -0.453
C 27.786 -42.288 -3.056
C 27.755 -42.244 -4.622
C 27.862 -42.408 1.113
C 31.677 -41.564 -1.04
C 31.639 -41.518 -2.604
C 29.141 -40.091 -0.414
C 29.086 -40.016 -3.017
C 30.342 -42.271 -3.112
C 29.111 -41.582 -0.977
C 29.079 -41.536 -2.54
C 30.401 -42.346 -0.51
C 31.567 -41.443 -5.188
C 29.051 -39.972 -4.582
C 29.022 -41.462 -5.126
C 30.303 -42.227 -4.677
C 31.736 -41.636 1.542
C 29.174 -40.136 1.151
C 30.434 -42.39 1.056
C 29.164 -41.657 1.606
C 32.984 -39.291 -1.013
C 32.943 -39.245 -2.577
C 31.643 -39.998 -3.08
C 30.418 -39.309 -0.942
C 30.382 -39.263 -2.506
C 31.709 -40.074 -0.479
C 32.863 -39.169 -5.16
C 30.318 -39.189 -5.09
C 31.6 -39.954 -4.645
C 33.051 -39.364 1.569
C 31.746 -40.117 1.086
C 30.478 -39.384 1.64
C 32.969 -42.325 -0.576
C 32.902 -42.249 -3.183
C 32.853 -42.203 -4.747
C 33.004 -42.366 0.989
C 34.278 -40.052 -0.554
C 34.204 -39.976 -3.16
C 35.466 -42.224 -3.283
C 34.246 -41.543 -1.111
C 34.203 -41.497 -2.685
C 35.54 -42.301 -0.635
C 34.151 -39.93 -4.724
C 34.111 -41.416 -5.271
C 35.411 -42.175 -4.865
C 34.317 -40.094 1.011
C 35.578 -42.344 0.947
C 34.304 -41.609 1.475
C 35.554 -39.27 -1.091
C 35.508 -39.222 -2.665
C 35.409 -39.14 -5.25
C 35.619 -39.337 1.494
C 2.197 -42.386 -0.346
C 2.202 -42.311 -2.951
C 2.206 -42.268 -4.517
C 2.193 -42.431 1.22
C 6.05 -41.61 -0.837
C 6.051 -41.566 -2.401
C 3.5 -40.119 -0.281
C 3.505 -40.046 -2.884
C 4.766 -42.31 -2.944
C 3.486 -41.611 -0.841
C 3.488 -41.567 -2.406
C 4.762 -42.384 -0.34
C 6.053 -41.494 -4.987
C 3.508 -40.003 -4.451
C 3.493 -41.495 -4.991
C 4.768 -42.266 -4.51
C 6.048 -41.684 1.748
C 3.498 -40.164 1.286
C 4.76 -42.429 1.227
C 3.481 -41.685 1.743
C 7.353 -39.343 -0.774
C 7.353 -39.299 -2.338
C 6.067 -40.045 -2.88
C 4.789 -39.344 -0.777
C 4.791 -39.3 -2.341
C 6.065 -40.118 -0.276
C 7.354 -39.228 -4.923
C 4.794 -39.229 -4.926
C 6.069 -40.002 -4.446
C 7.352 -39.416 1.81
C 6.064 -40.162 1.29
C 4.785 -39.417 1.807
C -2.937 -42.396 -0.369
C -2.931 -42.323 -2.972
C -2.926 -42.279 -4.539
C -2.941 -42.441 1.198
C 0.92 -41.614 -0.85
C 0.923 -41.57 -2.415
C -1.633 -40.128 -0.301
C -1.626 -40.055 -2.904
C -0.363 -42.315 -2.961
C -1.647 -41.62 -0.861
C -1.644 -41.575 -2.426
C -0.37 -42.389 -0.356
C 0.93 -41.498 -5
C -1.622 -40.011 -4.47
C -1.636 -41.504 -5.01
C -0.358 -42.272 -4.527
C 0.913 -41.688 1.735
C -1.637 -40.172 1.266
C -0.374 -42.434 1.21
C -1.655 -41.693 1.723
C 2.224 -39.346 -0.783
C 2.226 -39.302 -2.348
C 0.94 -40.049 -2.893
C -0.343 -39.35 -0.793
C -0.34 -39.306 -2.358
C 0.934 -40.122 -0.289
C 2.233 -39.231 -4.932
C -0.332 -39.235 -4.942
C 0.945 -40.006 -4.459
C 2.218 -39.419 1.801
C 0.93 -40.166 1.277
C -0.351 -39.423 1.79
C -8.075 -42.424 -0.388
C -8.075 -42.351 -2.991
C -8.075 -42.306 -4.557
C -8.075 -42.47 1.178
C -4.216 -41.629 -0.873
C -4.213 -41.585 -2.438
C -6.77 -40.151 -0.323
C -6.768 -40.078 -2.925
C -5.501 -42.334 -2.984
C -6.786 -41.643 -0.883
C -6.785 -41.599 -2.448
C -5.505 -42.408 -0.38
C -4.206 -41.513 -5.022
C -6.766 -40.034 -4.492
C -6.782 -41.527 -5.031
C -5.498 -42.29 -4.55
C -4.222 -41.702 1.711
C -6.772 -40.195 1.243
C -5.508 -42.453 1.186
C -6.789 -41.716 1.701
C -2.911 -39.358 -0.805
C -2.908 -39.314 -2.37
C -4.196 -40.064 -2.916
C -5.481 -39.369 -0.817
C -5.479 -39.326 -2.381
C -4.201 -40.137 -0.313
C -2.9 -39.243 -4.953
C -5.473 -39.254 -4.964
C -4.192 -40.02 -4.482
C -2.918 -39.43 1.778
C -4.205 -40.181 1.253
C -5.486 -39.441 1.767
C -13.217 -42.476 -0.384
C -13.23 -42.402 -2.987
C -13.238 -42.357 -4.553
C -13.209 -42.521 1.182
C -9.358 -41.663 -0.888
C -9.36 -41.619 -2.453
C -11.912 -40.196 -0.326
C -11.921 -40.123 -2.928
C -10.651 -42.373 -2.993
C -11.931 -41.688 -0.886
C -11.936 -41.645 -2.451
C -10.645 -42.447 -0.39
C -9.361 -41.547 -5.036
C -11.927 -40.079 -4.495
C -11.945 -41.572 -5.033
C -10.655 -42.329 -4.559
C -9.356 -41.736 1.696
C -11.906 -40.24 1.24
C -10.642 -42.492 1.176
C -11.922 -41.762 1.697
C -8.052 -39.386 -0.824
C -8.052 -39.342 -2.389
C -9.343 -40.097 -2.93
C -10.624 -39.408 -0.826
C -10.628 -39.365 -2.391
C -9.341 -40.17 -0.328
C -8.051 -39.271 -4.971
C -10.633 -39.293 -4.973
C -9.345 -40.053 -4.497
C -8.052 -39.458 1.759
C -9.339 -40.215 1.238
C -10.619 -39.481 1.757
C -18.362 -42.547 -0.346
C -18.391 -42.473 -2.948
C -18.41 -42.429 -4.515
C -18.345 -42.594 1.22
C -14.505 -41.719 -0.877
C -14.515 -41.676 -2.441
C -17.056 -40.262 -0.298
C -17.082 -40.189 -2.899
C -15.81 -42.436 -2.972
C -17.079 -41.755 -0.858
C -17.094 -41.712 -2.422
C -15.789 -42.51 -0.37
C -14.531 -41.604 -5.023
C -17.097 -40.145 -4.465
C -17.119 -41.64 -5.004
C -15.823 -42.391 -4.539
C -14.488 -41.793 1.707
C -17.041 -40.307 1.268
C -15.777 -42.556 1.196
C -17.055 -41.829 1.726
C -13.198 -39.436 -0.821
C -13.206 -39.393 -2.385
C -14.501 -40.154 -2.918
C -15.772 -39.469 -0.806
C -15.785 -39.426 -2.371
C -14.484 -40.227 -0.317
C -13.218 -39.321 -4.966
C -15.805 -39.355 -4.952
C -14.511 -40.109 -4.485
C -13.185 -39.509 1.762
C -14.474 -40.272 1.249
C -15.752 -39.542 1.776
C -19.654 -41.794 -0.828
C -19.673 -41.75 -2.393
C -19.707 -41.678 -4.974
C -19.621 -41.868 1.754
C -18.347 -39.506 -0.782
C -18.364 -39.463 -2.347
C -19.663 -40.227 -2.87
C -19.629 -40.3 -0.269
C -18.394 -39.392 -4.927
C -19.683 -40.183 -4.436
C -18.318 -39.58 1.8
C -19.609 -40.346 1.297
H 26.46 -41.45 -6.159
H 23.92 -41.46 -6.123
H 26.609 -41.709 2.737
H 24.03 -41.718 2.774
H 27.753 -39.178 -6.116
H 25.214 -39.189 -6.074
H 27.924 -39.435 2.779
H 25.342 -39.444 2.822
H 31.536 -41.416 -6.269
H 28.998 -41.436 -6.207
H 31.766 -41.673 2.623
H 29.189 -41.694 2.687
H 32.83 -39.142 -6.241
H 30.291 -39.163 -6.172
H 33.084 -39.4 2.649
H 30.507 -39.421 2.721
H 34.058 -41.379 -6.351
H 34.32 -41.634 2.557
H 35.353 -39.103 -6.33
H 35.639 -39.363 2.576
H -1.629 -41.478 -6.092
H -1.658 -41.727 2.805
H -4.2 -41.487 -6.104
H -6.777 -41.501 -6.113
H -4.225 -41.736 2.792
H -6.79 -41.749 2.782
H -2.893 -39.216 -6.035
H -5.467 -39.228 -6.046
H -2.921 -39.463 2.86
H -5.488 -39.474 2.848
H -9.359 -41.52 -6.117
H -11.946 -41.546 -6.115
H -9.354 -41.769 2.777
H -11.917 -41.795 2.779
H -8.047 -39.244 -6.053
H -10.632 -39.267 -6.054
H -8.052 -39.491 2.84
H -10.615 -39.513 2.838
H -14.536 -41.578 -6.105
H -17.128 -41.614 -6.085
H -14.48 -41.826 2.788
H -17.042 -41.863 2.807
H -13.22 -39.295 -6.048
H -15.812 -39.329 -6.033
H -13.178 -39.542 2.844
H -15.741 -39.576 2.858
H -19.721 -41.654 -6.056
H -19.605 -41.903 2.836
H -18.404 -39.366 -6.009
H -18.303 -39.613 2.881
H 20.189 -39.452 2.87
H 6.048 -41.718 2.829
H 7.353 -39.45 2.892
H 18.882 -41.723 2.813
H 17.618 -39.452 2.881
H 4.785 -39.451 2.889
H 16.312 -41.722 2.822
H 15.05 -39.452 2.887
H 3.479 -41.719 2.825
H 2.216 -39.452 2.882
H 13.746 -41.721 2.827
H 0.91 -41.722 2.816
H 12.484 -39.451 2.89
H -0.354 -39.456 2.872
H 11.181 -41.72 2.83
H 9.919 -39.45 2.892
H 21.454 -41.722 2.798
H 22.764 -39.449 2.851
H 8.615 -41.719 2.831
H 13.727 -41.47 -6.072
H 11.171 -41.469 -6.069
H 22.673 -39.196 -6.045
H -0.325 -39.209 -6.023
H 8.613 -41.469 -6.068
H 20.128 -39.2 -6.027
H 9.913 -39.202 -6.005
H 7.355 -39.202 -6.005
H 3.497 -41.47 -6.073
H 4.797 -39.203 -6.008
H 18.832 -41.469 -6.085
H 16.282 -41.47 -6.076
H 0.936 -41.473 -6.081
H 15.027 -39.203 -6.01
H 12.471 -39.203 -6.007
H 21.378 -41.466 -6.099
H 6.055 -41.469 -6.069
H 17.579 -39.202 -6.016
H 2.238 -39.205 -6.014
C 36.785 -41.499 -1.203
C 36.74 -41.453 -2.758
C 36.633 -41.363 -5.449
C 36.846 -41.568 1.485
C 38.094 -39.224 -1.19
C 38.045 -39.177 -2.745
C 36.768 -39.949 -3.267
C 36.85 -40.028 -0.62
C 37.932 -39.085 -5.435
C 36.71 -39.9 -4.848
C 38.162 -39.295 1.497
C 36.892 -40.072 0.961
H 36.534 -41.303 -6.524
H 36.827 -41.57 2.567
H 37.83 -39.024 -6.51
H 38.147 -39.299 2.579
C -45.368 -46.342 -0.593
C -45.377 -46.294 -2.148
C -45.368 -46.206 -4.839
C -45.337 -46.418 2.094
C -44.091 -44.132 -0.524
C -44.099 -44.085 -2.098
C -45.392 -44.797 -2.655
C -46.63 -44.063 -0.531
C -46.635 -44.017 -2.086
C -45.381 -44.876 -0.006
C -44.093 -44.003 -4.688
C -46.62 -43.93 -4.777
C -45.39 -44.748 -4.237
C -44.068 -44.204 2.064
C -45.369 -44.923 1.575
C -46.605 -44.136 2.156
C -44.117 -47.153 -0.072
C -44.134 -47.07 -2.72
C -44.135 -47.019 -4.302
C -44.102 -47.202 1.51
C -40.259 -46.44 -0.61
C -40.273 -46.39 -2.174
C -42.811 -44.922 -0.031
C -42.826 -44.843 -2.64
C -41.566 -47.11 -2.713
C -42.828 -46.407 -0.592
C -42.84 -46.357 -2.166
C -41.546 -47.194 -0.104
C -40.289 -46.308 -4.761
C -42.828 -44.795 -4.205
C -42.84 -46.273 -4.756
C -41.572 -47.059 -4.278
C -40.235 -46.523 1.974
C -42.798 -44.969 1.534
C -41.53 -47.244 1.462
C -42.8 -46.483 1.996
C -38.956 -44.195 -0.552
C -38.97 -44.147 -2.115
C -40.263 -44.875 -2.649
C -41.523 -44.17 -0.536
C -41.534 -44.122 -2.1
C -40.242 -44.956 -0.045
C -38.992 -44.071 -4.702
C -41.544 -44.045 -4.686
C -40.272 -44.828 -4.214
C -38.933 -44.276 2.032
C -40.229 -45.005 1.52
C -41.504 -44.248 2.048
C -38.976 -47.223 -0.124
C -39.001 -47.137 -2.728
C -39.013 -47.087 -4.293
C -38.96 -47.276 1.441
C -35.122 -46.47 -0.663
C -35.142 -46.42 -2.227
C -37.672 -44.976 -0.066
C -37.7 -44.895 -2.67
C -36.436 -47.153 -2.755
C -37.691 -46.461 -0.632
C -37.707 -46.41 -2.196
C -36.406 -47.239 -0.15
C -35.178 -46.34 -4.814
C -37.716 -44.848 -4.235
C -37.734 -46.33 -4.782
C -36.455 -47.103 -4.32
C -35.089 -46.556 1.921
C -37.656 -45.026 1.5
C -36.387 -47.293 1.416
C -37.663 -46.547 1.952
C -33.82 -44.21 -0.616
C -33.842 -44.162 -2.18
C -35.137 -44.903 -2.702
C -36.388 -44.209 -0.578
C -36.407 -44.16 -2.142
C -35.102 -44.984 -0.098
C -33.883 -44.088 -4.766
C -36.439 -44.085 -4.728
C -35.158 -44.857 -4.268
C -33.781 -44.291 1.967
C -35.081 -45.034 1.468
C -36.358 -44.29 2.005
C -33.834 -47.243 -0.186
C -33.871 -47.157 -2.791
C -33.895 -47.109 -4.356
C -33.812 -47.296 1.38
C -29.982 -46.452 -0.756
C -30.008 -46.403 -2.32
C -32.53 -44.98 -0.141
C -32.572 -44.9 -2.745
C -31.304 -47.15 -2.836
C -32.553 -46.467 -0.705
C -32.576 -46.417 -2.269
C -31.262 -47.233 -0.233
C -30.056 -46.327 -4.905
C -32.598 -44.854 -4.31
C -32.62 -46.339 -4.855
C -31.332 -47.102 -4.402
C -29.936 -46.535 1.828
C -32.506 -45.029 1.425
C -31.236 -47.285 1.333
C -32.512 -46.551 1.879
C -28.679 -44.18 -0.719
C -28.706 -44.133 -2.283
C -30.004 -44.886 -2.796
C -31.25 -44.2 -0.664
C -31.275 -44.153 -2.228
C -29.958 -44.964 -0.193
C -28.757 -44.061 -4.867
C -31.323 -44.079 -4.813
C -30.033 -44.841 -4.362
C -28.63 -44.259 1.864
C -29.93 -45.013 1.373
C -31.205 -44.28 1.919
C -28.688 -47.212 -0.286
C -28.734 -47.131 -2.89
C -28.763 -47.084 -4.455
C -28.66 -47.263 1.28
C -24.836 -46.395 -0.866
C -24.862 -46.348 -2.43
C -27.385 -44.939 -0.249
C -27.432 -44.862 -2.852
C -26.16 -47.103 -2.945
C -27.409 -46.427 -0.811
C -27.436 -46.38 -2.376
C -26.114 -47.183 -0.341
C -24.91 -46.274 -5.014
C -27.462 -44.817 -4.418
C -27.487 -46.305 -4.96
C -26.19 -47.057 -4.511
C -24.79 -46.475 1.718
C -27.357 -44.988 1.316
C -26.087 -47.233 1.224
C -27.361 -46.508 1.772
C -23.533 -44.116 -0.828
C -23.558 -44.071 -2.392
C -24.857 -44.83 -2.907
C -26.106 -44.151 -0.775
C -26.134 -44.106 -2.34
C -24.812 -44.907 -0.304
C -23.604 -43.999 -4.975
C -26.184 -44.033 -4.923
C -24.886 -44.785 -4.473
C -23.489 -44.193 1.755
C -24.785 -44.955 1.261
C -26.059 -44.229 1.808
C -23.541 -47.147 -0.393
C -23.583 -47.068 -2.997
C -23.61 -47.022 -4.563
C -23.515 -47.196 1.172
C -22.239 -44.869 -0.353
C -22.279 -44.793 -2.956
C -21.004 -47.029 -3.041
C -22.262 -46.357 -0.915
C -22.285 -46.311 -2.479
C -20.967 -47.107 -0.438
C -22.305 -44.748 -4.522
C -22.328 -46.236 -5.063
C -21.027 -46.982 -4.607
C -22.215 -44.917 1.213
C -20.946 -47.156 1.128
C -22.222 -46.436 1.67
C -20.959 -44.078 -0.872
C -20.981 -44.033 -2.437
C -21.019 -43.96 -5.019
C -20.922 -44.154 1.711
H -35.196 -46.316 -5.895
H -37.748 -46.305 -5.864
H -35.075 -46.598 3.002
H -37.656 -46.59 3.033
H -33.903 -44.065 -5.847
H -36.454 -44.062 -5.81
H -33.764 -44.33 3.048
H -36.346 -44.33 3.087
H -30.081 -46.304 -5.987
H -32.641 -46.315 -5.937
H -29.914 -46.575 2.909
H -32.494 -46.592 2.96
H -28.782 -44.038 -5.949
H -31.346 -44.057 -5.895
H -28.607 -44.297 2.945
H -31.184 -44.319 3
H -24.933 -46.25 -6.096
H -27.512 -46.281 -6.042
H -24.768 -46.513 2.799
H -27.338 -46.547 2.853
H -23.625 -43.975 -6.057
H -26.207 -44.01 -6.004
H -23.468 -44.23 2.837
H -26.035 -44.266 2.889
H -22.346 -46.212 -6.144
H -22.203 -46.473 2.751
H -21.035 -43.936 -6.101
H -20.905 -44.19 2.793
H -41.501 -44.287 3.129
H -42.781 -46.513 3.078
H -44.051 -44.233 3.146
H -45.285 -46.426 3.175
H -46.554 -44.144 3.237
H -40.23 -46.564 3.055
H -38.927 -44.317 3.113
H -39.003 -44.048 -5.784
H -41.548 -44.022 -5.768
H -42.827 -46.239 -5.837
H -45.315 -46.152 -5.918
H -46.563 -43.876 -5.856
H -40.296 -46.283 -5.843
H -44.077 -43.971 -5.769
C 7.29 -46.902 -0.463
C 7.29 -46.824 -3.069
C 7.29 -46.778 -4.635
C 7.289 -46.949 1.103
C 11.139 -46.133 -0.963
C 11.136 -46.087 -2.528
C 8.589 -44.645 -0.399
C 8.588 -44.57 -3.004
C 9.851 -46.825 -3.07
C 8.576 -46.132 -0.962
C 8.575 -46.085 -2.526
C 9.853 -46.903 -0.463
C 11.133 -46.012 -5.116
C 8.588 -44.525 -4.571
C 8.574 -46.011 -5.114
C 9.849 -46.779 -4.636
C 11.142 -46.211 1.623
C 8.589 -44.692 1.167
C 9.854 -46.951 1.103
C 8.576 -46.209 1.624
C 12.438 -43.875 -0.9
C 12.435 -43.83 -2.465
C 11.149 -44.571 -3.006
C 9.875 -43.874 -0.898
C 9.874 -43.828 -2.463
C 11.153 -44.647 -0.4
C 12.43 -43.757 -5.052
C 9.872 -43.755 -5.05
C 11.147 -44.526 -4.572
C 12.442 -43.951 1.685
C 11.154 -44.693 1.166
C 9.877 -43.949 1.687
C 12.417 -46.905 -0.466
C 12.412 -46.827 -3.072
C 12.408 -46.781 -4.638
C 12.42 -46.953 1.1
C 16.265 -46.139 -0.973
C 16.258 -46.092 -2.537
C 13.716 -44.649 -0.403
C 13.709 -44.573 -3.009
C 14.972 -46.83 -3.077
C 13.702 -46.136 -0.967
C 13.698 -46.089 -2.531
C 14.981 -46.909 -0.471
C 16.248 -46.016 -5.125
C 13.705 -44.528 -4.575
C 13.691 -46.014 -5.119
C 14.967 -46.784 -4.643
C 16.274 -46.217 1.613
C 13.719 -44.695 1.163
C 14.986 -46.957 1.095
C 13.708 -46.214 1.619
C 17.563 -43.879 -0.911
C 17.554 -43.833 -2.476
C 16.268 -44.575 -3.014
C 15.001 -43.877 -0.904
C 14.995 -43.831 -2.469
C 16.279 -44.651 -0.409
C 17.542 -43.759 -5.063
C 14.987 -43.758 -5.056
C 16.262 -44.53 -4.58
C 17.574 -43.955 1.673
C 16.285 -44.698 1.157
C 15.008 -43.953 1.681
C 17.545 -46.912 -0.48
C 17.532 -46.834 -3.085
C 17.524 -46.788 -4.651
C 17.552 -46.96 1.087
C 21.389 -46.142 -1.001
C 21.375 -46.095 -2.565
C 18.842 -44.653 -0.419
C 18.826 -44.576 -3.024
C 20.09 -46.837 -3.1
C 18.828 -46.142 -0.983
C 18.818 -46.095 -2.548
C 20.109 -46.915 -0.494
C 21.352 -46.019 -5.152
C 18.816 -44.532 -4.59
C 18.802 -46.019 -5.135
C 20.078 -46.791 -4.665
C 21.41 -46.221 1.584
C 18.851 -44.7 1.148
C 20.12 -46.963 1.072
C 18.842 -46.22 1.602
C 22.685 -43.875 -0.944
C 22.668 -43.829 -2.508
C 21.382 -44.576 -3.04
C 20.124 -43.879 -0.923
C 20.112 -43.833 -2.488
C 21.405 -44.652 -0.435
C 22.64 -43.755 -5.095
C 20.093 -43.758 -5.075
C 21.367 -44.531 -4.606
C 22.711 -43.952 1.641
C 21.418 -44.699 1.131
C 20.142 -43.956 1.661
C 22.672 -46.914 -0.517
C 22.645 -46.837 -3.122
C 22.628 -46.792 -4.687
C 22.686 -46.961 1.05
C 26.508 -46.123 -1.063
C 26.484 -46.078 -2.627
C 23.968 -44.647 -0.461
C 23.936 -44.57 -3.065
C 25.198 -46.829 -3.152
C 23.949 -46.136 -1.027
C 23.93 -46.09 -2.591
C 25.232 -46.905 -0.548
C 26.441 -46.003 -5.213
C 23.915 -44.526 -4.631
C 23.898 -46.015 -5.178
C 25.175 -46.784 -4.718
C 26.546 -46.2 1.521
C 23.986 -44.693 1.106
C 25.252 -46.95 1.018
C 23.978 -46.214 1.558
C 27.807 -43.853 -1.017
C 27.779 -43.807 -2.58
C 26.489 -44.559 -3.101
C 25.245 -43.867 -0.974
C 25.223 -43.821 -2.538
C 26.531 -44.635 -0.497
C 27.729 -43.733 -5.166
C 25.185 -43.747 -5.125
C 26.462 -44.515 -4.666
C 27.853 -43.929 1.567
C 26.555 -44.68 1.069
C 25.281 -43.944 1.61
C 27.794 -46.886 -0.589
C 27.751 -46.812 -3.193
C 27.72 -46.767 -4.757
C 27.818 -46.93 0.977
C 31.637 -46.082 -1.162
C 31.604 -46.036 -2.736
C 29.095 -44.617 -0.546
C 29.044 -44.541 -3.149
C 30.308 -46.788 -3.246
C 29.07 -46.104 -1.11
C 29.041 -46.059 -2.674
C 30.36 -46.863 -0.637
C 31.527 -45.955 -5.325
C 29.009 -44.497 -4.713
C 28.984 -45.983 -5.259
C 30.268 -46.741 -4.81
C 31.678 -46.149 1.426
C 29.124 -44.661 1.02
C 30.384 -46.904 0.928
C 29.114 -46.178 1.474
C 32.94 -43.814 -1.134
C 32.902 -43.768 -2.708
C 31.603 -44.52 -3.211
C 30.371 -43.835 -1.072
C 30.338 -43.789 -2.636
C 31.662 -44.595 -0.604
C 32.817 -43.687 -5.295
C 30.273 -43.714 -5.221
C 31.558 -44.473 -4.775
C 32.989 -43.88 1.453
C 31.692 -44.636 0.962
C 30.423 -43.908 1.512
C 32.929 -46.838 -0.677
C 32.871 -46.761 -3.327
C 32.825 -46.712 -4.909
C 32.956 -46.881 0.905
C 34.233 -44.571 -0.654
C 34.166 -44.494 -3.302
C 34.175 -46.04 -1.236
C 34.14 -45.994 -2.793
C 34.116 -44.446 -4.884
C 34.049 -45.905 -5.485
C 34.265 -44.614 0.929
C 34.218 -46.108 1.454
C 35.479 -43.771 -1.217
C 35.438 -43.725 -2.773
C 35.339 -43.636 -5.464
C 35.53 -43.839 1.472
C 2.16 -46.902 -0.472
C 2.166 -46.825 -3.078
C 2.169 -46.779 -4.644
C 2.157 -46.95 1.094
C 6.012 -46.131 -0.963
C 6.013 -46.085 -2.528
C 3.46 -44.645 -0.405
C 3.465 -44.57 -3.01
C 4.728 -46.824 -3.072
C 3.448 -46.132 -0.967
C 3.45 -46.085 -2.532
C 4.725 -46.901 -0.466
C 6.015 -46.01 -5.115
C 3.468 -44.526 -4.576
C 3.455 -46.011 -5.119
C 4.73 -46.778 -4.638
C 6.01 -46.208 1.623
C 3.458 -44.692 1.162
C 4.723 -46.949 1.101
C 3.443 -46.209 1.619
C 7.312 -43.873 -0.898
C 7.312 -43.828 -2.463
C 6.027 -44.569 -3.006
C 4.748 -43.873 -0.901
C 4.75 -43.828 -2.466
C 6.025 -44.645 -0.4
C 7.313 -43.755 -5.05
C 4.753 -43.755 -5.052
C 6.028 -44.525 -4.572
C 7.311 -43.948 1.687
C 6.024 -44.691 1.166
C 4.745 -43.948 1.684
C -2.972 -46.912 -0.494
C -2.966 -46.835 -3.1
C -2.962 -46.789 -4.666
C -2.976 -46.959 1.072
C 0.883 -46.134 -0.976
C 0.886 -46.088 -2.54
C -1.672 -44.653 -0.425
C -1.665 -44.578 -3.03
C -0.399 -46.828 -3.088
C -1.684 -46.139 -0.987
C -1.68 -46.093 -2.552
C -0.406 -46.905 -0.482
C 0.893 -46.013 -5.127
C -1.661 -44.533 -4.596
C -1.673 -46.019 -5.138
C -0.395 -46.782 -4.654
C 0.875 -46.211 1.611
C -1.676 -44.699 1.142
C -0.41 -46.953 1.084
C -1.692 -46.216 1.599
C 2.183 -43.875 -0.908
C 2.186 -43.83 -2.472
C 0.901 -44.572 -3.018
C -0.383 -43.879 -0.918
C -0.379 -43.834 -2.482
C 0.895 -44.648 -0.413
C 2.192 -43.757 -5.058
C -0.372 -43.761 -5.068
C 0.905 -44.528 -4.585
C 2.177 -43.95 1.678
C 0.891 -44.694 1.153
C -0.391 -43.954 1.668
C -8.108 -46.939 -0.513
C -8.109 -46.862 -3.118
C -8.109 -46.815 -4.685
C -8.109 -46.986 1.053
C -4.252 -46.147 -0.999
C -4.249 -46.102 -2.564
C -6.808 -44.675 -0.447
C -6.806 -44.6 -3.051
C -5.536 -46.846 -3.111
C -6.821 -46.161 -1.009
C -6.82 -46.116 -2.573
C -5.54 -46.922 -0.505
C -4.242 -46.027 -5.15
C -6.804 -44.555 -4.617
C -6.817 -46.041 -5.159
C -5.533 -46.799 -4.677
C -4.258 -46.224 1.587
C -6.81 -44.721 1.12
C -5.543 -46.97 1.061
C -6.825 -46.238 1.577
C -2.95 -43.886 -0.93
C -2.947 -43.841 -2.494
C -4.234 -44.586 -3.041
C -5.519 -43.897 -0.941
C -5.518 -43.852 -2.506
C -4.239 -44.662 -0.437
C -2.939 -43.768 -5.08
C -5.512 -43.779 -5.09
C -4.23 -44.542 -4.608
C -2.958 -43.96 1.655
C -4.243 -44.708 1.13
C -5.525 -43.972 1.644
C -13.25 -46.991 -0.51
C -13.263 -46.914 -3.114
C -13.271 -46.867 -4.68
C -13.242 -47.039 1.056
C -9.392 -46.181 -1.014
C -9.394 -46.135 -2.578
C -11.949 -44.721 -0.45
C -11.958 -44.646 -3.054
C -10.684 -46.884 -3.12
C -11.964 -46.207 -1.012
C -11.97 -46.161 -2.577
C -10.678 -46.961 -0.515
C -9.396 -46.06 -5.164
C -11.964 -44.6 -4.62
C -11.979 -46.086 -5.161
C -10.688 -46.838 -4.686
C -9.39 -46.257 1.572
C -11.944 -44.767 1.116
C -10.675 -47.009 1.051
C -11.956 -46.284 1.574
C -8.09 -43.914 -0.949
C -8.091 -43.869 -2.513
C -9.381 -44.62 -3.056
C -10.662 -43.936 -0.951
C -10.666 -43.892 -2.515
C -9.378 -44.695 -0.452
C -8.09 -43.796 -5.098
C -10.671 -43.819 -5.099
C -9.382 -44.574 -4.622
C -8.091 -43.988 1.636
C -9.376 -44.741 1.114
C -10.657 -44.011 1.634
C -18.394 -47.065 -0.472
C -18.423 -46.988 -3.076
C -18.442 -46.941 -4.642
C -18.377 -47.114 1.094
C -14.538 -46.239 -1.002
C -14.548 -46.194 -2.567
C -17.093 -44.789 -0.421
C -17.118 -44.714 -3.025
C -15.843 -46.949 -3.1
C -17.113 -46.276 -0.983
C -17.128 -46.231 -2.548
C -15.822 -47.026 -0.495
C -14.565 -46.119 -5.151
C -17.134 -44.669 -4.591
C -17.153 -46.156 -5.132
C -15.856 -46.902 -4.666
C -14.522 -46.316 1.583
C -17.079 -44.837 1.145
C -15.81 -47.074 1.07
C -17.089 -46.354 1.602
C -13.236 -43.965 -0.945
C -13.244 -43.921 -2.51
C -14.538 -44.677 -3.044
C -15.81 -44 -0.931
C -15.823 -43.955 -2.495
C -14.521 -44.753 -0.44
C -13.256 -43.848 -5.093
C -15.844 -43.882 -5.078
C -14.548 -44.632 -4.61
C -13.223 -44.04 1.64
C -14.511 -44.799 1.126
C -15.79 -44.075 1.654
C -19.687 -46.316 -0.954
C -19.707 -46.271 -2.519
C -19.741 -46.196 -5.102
C -19.655 -46.395 1.631
C -18.385 -44.038 -0.907
C -18.402 -43.993 -2.471
C -19.699 -44.754 -2.995
C -19.666 -44.829 -0.392
C -18.432 -43.92 -5.054
C -19.72 -44.708 -4.562
C -18.356 -44.114 1.677
C -19.647 -44.877 1.173
H 26.423 -45.975 -6.295
H 23.883 -45.986 -6.259
H 26.563 -46.24 2.603
H 23.991 -46.254 2.639
H 27.708 -43.706 -6.248
H 25.169 -43.72 -6.206
H 27.874 -43.967 2.648
H 25.297 -43.982 2.691
H 31.48 -45.919 -6.405
H 28.959 -45.955 -6.341
H 31.685 -46.175 2.507
H 29.134 -46.216 2.556
H 32.767 -43.651 -6.375
H 30.245 -43.687 -6.302
H 33.001 -43.906 2.535
H 30.448 -43.945 2.593
H 33.957 -45.847 -6.561
H 34.189 -46.109 2.535
H 35.243 -43.578 -6.541
H 35.506 -43.84 2.553
H -1.667 -45.993 -6.22
H -1.696 -46.251 2.681
H -4.237 -46.001 -6.231
H -6.813 -46.015 -6.241
H -4.262 -46.259 2.669
H -6.826 -46.273 2.659
H -2.933 -43.742 -6.161
H -5.507 -43.753 -6.172
H -2.961 -43.995 2.737
H -5.527 -44.006 2.726
H -9.395 -46.034 -6.245
H -11.981 -46.06 -6.243
H -9.389 -46.292 2.654
H -11.952 -46.318 2.655
H -8.086 -43.77 -6.179
H -10.671 -43.793 -6.181
H -8.091 -44.022 2.718
H -10.654 -44.045 2.716
H -14.571 -46.092 -6.233
H -17.163 -46.13 -6.213
H -14.515 -46.351 2.665
H -17.077 -46.389 2.683
H -13.259 -43.822 -6.174
H -15.85 -43.857 -6.16
H -13.217 -44.074 2.721
H -15.78 -44.109 2.735
H -19.755 -46.171 -6.184
H -19.64 -46.431 2.712
H -18.443 -43.895 -6.135
H -18.342 -44.149 2.759
H 20.148 -43.992 2.742
H 6.009 -46.245 2.705
H 7.312 -43.984 2.769
H 18.847 -46.258 2.683
H 17.578 -43.991 2.755
H 4.744 -43.984 2.766
H 16.277 -46.255 2.694
H 15.01 -43.989 2.762
H 3.441 -46.245 2.7
H 2.175 -43.985 2.759
H 13.709 -46.251 2.701
H 0.872 -46.247 2.692
H 12.444 -43.987 2.766
H -0.394 -43.988 2.749
H 11.143 -46.248 2.704
H 9.878 -43.985 2.768
H 21.418 -46.259 2.666
H 22.721 -43.99 2.722
H 8.576 -46.246 2.706
H 13.688 -45.988 -6.201
H 11.131 -45.986 -6.197
H 22.629 -43.728 -6.176
H -0.366 -43.735 -6.15
H 8.574 -45.985 -6.196
H 20.086 -43.732 -6.156
H 9.871 -43.73 -6.132
H 7.314 -43.73 -6.131
H 3.458 -45.985 -6.201
H 4.756 -43.73 -6.134
H 18.795 -45.992 -6.217
H 16.243 -45.99 -6.206
H 0.898 -45.988 -6.209
H 14.985 -43.733 -6.138
H 12.429 -43.731 -6.134
H 21.341 -45.992 -6.234
H 6.016 -45.985 -6.197
H 17.537 -43.733 -6.144
H 2.197 -43.732 -6.14
C -44.102 -48.617 -0.662
C -44.116 -48.567 -2.217
C -44.115 -48.473 -4.907
C -44.066 -48.699 2.025
C -40.291 -50.937 -0.764
C -40.308 -50.881 -2.338
C -42.848 -49.425 -0.148
C -42.872 -49.336 -2.797
C -41.604 -51.589 -2.892
C -42.832 -50.885 -0.746
C -42.849 -50.831 -2.301
C -41.575 -51.688 -0.244
C -40.32 -50.777 -4.928
C -42.877 -49.281 -4.378
C -42.857 -50.73 -4.989
C -41.612 -51.529 -4.473
C -40.253 -51.033 1.825
C -42.83 -49.479 1.434
C -41.555 -51.749 1.338
C -42.789 -50.977 1.942
C -38.992 -48.704 -0.695
C -39.008 -48.651 -2.259
C -40.302 -49.369 -2.798
C -41.562 -48.676 -0.669
C -41.577 -48.623 -2.243
C -40.277 -49.46 -0.189
C -39.029 -48.561 -4.846
C -41.583 -48.531 -4.834
C -40.311 -49.312 -4.362
C -38.963 -48.796 1.89
C -40.258 -49.516 1.377
C -41.528 -48.759 1.919
C -39.004 -51.72 -0.292
C -39.031 -51.62 -2.902
C -39.042 -51.557 -4.466
C -38.984 -51.784 1.273
C -35.154 -50.976 -0.821
C -35.172 -50.919 -2.384
C -37.707 -49.485 -0.215
C -37.734 -49.393 -2.819
C -36.465 -51.644 -2.923
C -37.722 -50.962 -0.795
C -37.738 -50.906 -2.358
C -36.438 -51.744 -0.319
C -35.202 -50.822 -4.97
C -37.75 -49.336 -4.383
C -37.761 -50.805 -4.945
C -36.481 -51.582 -4.487
C -35.124 -51.077 1.764
C -37.689 -49.544 1.351
C -36.42 -51.808 1.247
C -37.692 -51.065 1.791
C -33.854 -48.726 -0.755
C -33.875 -48.672 -2.319
C -35.169 -49.405 -2.848
C -36.423 -48.721 -0.721
C -36.441 -48.667 -2.285
C -35.137 -49.497 -0.244
C -33.913 -48.587 -4.906
C -36.471 -48.579 -4.871
C -35.189 -49.351 -4.413
C -33.819 -48.817 1.829
C -35.117 -49.555 1.322
C -36.393 -48.815 1.863
C -33.866 -51.748 -0.346
C -33.897 -51.65 -2.949
C -33.918 -51.591 -4.513
C -33.847 -51.807 1.22
C -30.008 -50.958 -0.898
C -30.031 -50.904 -2.461
C -32.564 -49.494 -0.281
C -32.602 -49.404 -2.885
C -31.326 -51.643 -2.985
C -32.583 -50.974 -0.854
C -32.603 -50.918 -2.418
C -31.289 -51.736 -0.381
C -30.076 -50.817 -5.047
C -32.626 -49.352 -4.45
C -32.641 -50.826 -5.004
C -31.351 -51.587 -4.55
C -29.966 -51.048 1.687
C -32.541 -49.549 1.285
C -31.267 -51.791 1.185
C -32.547 -51.068 1.731
C -28.71 -48.697 -0.851
C -28.735 -48.646 -2.415
C -30.032 -49.391 -2.932
C -31.283 -48.717 -0.799
C -31.306 -48.665 -2.363
C -29.989 -49.478 -0.328
C -28.784 -48.567 -5
C -31.351 -48.583 -4.949
C -30.06 -49.341 -4.498
C -28.664 -48.782 1.733
C -29.963 -49.531 1.238
C -31.241 -48.805 1.785
C -28.711 -51.714 -0.428
C -28.753 -51.625 -3.032
C -28.781 -51.571 -4.597
C -28.686 -51.767 1.138
C -24.856 -50.899 -1.002
C -24.881 -50.849 -2.565
C -27.414 -49.452 -0.381
C -27.459 -49.368 -2.985
C -26.178 -51.597 -3.084
C -27.432 -50.933 -0.949
C -27.457 -50.881 -2.513
C -26.134 -51.684 -0.48
C -24.928 -50.766 -5.151
C -27.488 -49.319 -4.551
C -27.505 -50.797 -5.099
C -26.206 -51.544 -4.649
C -24.813 -50.984 1.583
C -27.387 -49.504 1.184
C -26.108 -51.736 1.086
C -27.387 -51.019 1.636
C -23.561 -48.631 -0.957
C -23.586 -48.583 -2.521
C -24.883 -49.336 -3.039
C -26.136 -48.667 -0.905
C -26.162 -48.618 -2.47
C -24.839 -49.418 -0.435
C -23.631 -48.505 -5.106
C -26.211 -48.54 -5.055
C -24.911 -49.287 -4.605
C -23.519 -48.713 1.628
C -24.813 -49.47 1.131
C -26.089 -48.751 1.679
C -23.558 -51.646 -0.53
C -23.599 -51.561 -3.135
C -23.626 -51.508 -4.7
C -23.533 -51.697 1.035
C -22.265 -49.379 -0.483
C -22.304 -49.298 -3.087
C -21.019 -51.52 -3.178
C -22.281 -50.859 -1.05
C -22.303 -50.81 -2.613
C -20.983 -51.604 -0.574
C -22.33 -49.249 -4.653
C -22.346 -50.727 -5.199
C -21.042 -51.467 -4.744
C -22.242 -49.43 1.082
C -20.962 -51.655 0.992
C -22.242 -50.943 1.536
C -20.987 -48.59 -1.001
C -21.008 -48.543 -2.566
C -21.046 -48.465 -5.15
C -20.951 -48.672 1.584
H -35.216 -50.789 -6.052
H -37.773 -50.768 -6.026
H -35.115 -51.127 2.845
H -37.683 -51.116 2.872
H -33.931 -48.56 -5.987
H -36.486 -48.551 -5.953
H -33.805 -48.862 2.91
H -36.384 -48.861 2.944
H -30.099 -50.79 -6.129
H -32.659 -50.796 -6.085
H -29.947 -51.093 2.768
H -32.533 -51.116 2.811
H -28.809 -48.542 -6.082
H -31.374 -48.557 -6.031
H -28.642 -48.823 2.814
H -31.222 -48.848 2.866
H -24.952 -50.739 -6.232
H -27.53 -50.77 -6.18
H -24.792 -51.026 2.664
H -27.366 -51.063 2.717
H -23.653 -48.48 -6.188
H -26.235 -48.515 -6.136
H -23.498 -48.753 2.709
H -26.067 -48.791 2.76
H -22.365 -50.7 -6.28
H -22.224 -50.984 2.617
H -21.063 -48.44 -6.232
H -20.934 -48.71 2.665
H -41.506 -48.793 3
H -42.726 -50.992 3.022
H -44.009 -48.708 3.106
H -40.227 -51.073 2.906
H -38.956 -48.841 2.971
H -39.039 -48.531 -5.927
H -41.575 -48.494 -5.915
H -42.821 -50.671 -6.069
H -40.317 -50.733 -6.009
H -44.069 -48.419 -5.986
C 7.26 -51.398 -0.599
C 7.26 -51.315 -3.206
C 7.26 -51.263 -4.772
C 7.26 -51.446 0.967
C 11.109 -50.634 -1.099
C 11.107 -50.585 -2.663
C 8.556 -49.153 -0.53
C 8.555 -49.073 -3.136
C 9.822 -51.316 -3.207
C 8.545 -50.632 -1.097
C 8.544 -50.583 -2.661
C 9.824 -51.4 -0.601
C 11.102 -50.502 -5.253
C 8.554 -49.025 -4.702
C 8.542 -50.501 -5.251
C 9.819 -51.264 -4.773
C 11.112 -50.717 1.489
C 8.556 -49.202 1.037
C 9.825 -51.449 0.965
C 8.546 -50.714 1.491
C 12.405 -48.388 -1.031
C 12.401 -48.34 -2.596
C 11.116 -49.075 -3.138
C 9.841 -48.386 -1.028
C 9.839 -48.338 -2.593
C 11.12 -49.156 -0.532
C 12.396 -48.262 -5.184
C 9.837 -48.26 -5.182
C 11.113 -49.026 -4.704
C 12.409 -48.469 1.556
C 11.122 -49.205 1.035
C 9.843 -48.466 1.559
C 12.389 -51.403 -0.604
C 12.384 -51.319 -3.211
C 12.38 -51.267 -4.777
C 12.392 -51.452 0.962
C 16.24 -50.644 -1.113
C 16.234 -50.595 -2.677
C 13.684 -49.159 -0.536
C 13.677 -49.078 -3.142
C 14.947 -51.324 -3.217
C 13.674 -50.638 -1.104
C 13.67 -50.589 -2.668
C 14.956 -51.408 -0.611
C 16.223 -50.512 -5.265
C 13.673 -49.03 -4.708
C 13.662 -50.506 -5.257
C 14.941 -51.272 -4.783
C 16.25 -50.726 1.474
C 13.688 -49.208 1.03
C 14.96 -51.456 0.955
C 13.68 -50.721 1.483
C 17.534 -48.397 -1.046
C 17.526 -48.349 -2.611
C 16.239 -49.083 -3.15
C 14.969 -48.392 -1.037
C 14.963 -48.344 -2.601
C 16.25 -49.164 -0.544
C 17.512 -48.271 -5.198
C 14.955 -48.266 -5.189
C 16.232 -49.035 -4.716
C 17.545 -48.478 1.54
C 16.256 -49.213 1.022
C 14.976 -48.473 1.55
C 17.524 -51.415 -0.623
C 17.511 -51.332 -3.229
C 17.503 -51.281 -4.794
C 17.53 -51.463 0.943
C 21.374 -50.66 -1.149
C 21.364 -50.615 -2.713
C 18.816 -49.17 -0.557
C 18.8 -49.09 -3.163
C 20.077 -51.345 -3.247
C 18.807 -50.652 -1.127
C 18.799 -50.604 -2.691
C 20.092 -51.425 -0.643
C 21.342 -50.536 -5.299
C 18.791 -49.042 -4.728
C 18.783 -50.522 -5.278
C 20.066 -51.296 -4.812
C 21.392 -50.74 1.437
C 18.824 -49.219 1.009
C 20.101 -51.471 0.923
C 18.821 -50.734 1.459
C 22.658 -48.402 -1.086
C 22.644 -48.357 -2.65
C 21.36 -49.098 -3.183
C 20.097 -48.402 -1.062
C 20.086 -48.355 -2.627
C 21.381 -49.175 -0.578
C 22.617 -48.28 -5.236
C 20.067 -48.277 -5.213
C 21.346 -49.051 -4.748
C 22.682 -48.482 1.5
C 21.392 -49.223 0.988
C 20.115 -48.482 1.524
C 22.659 -51.434 -0.669
C 22.641 -51.361 -3.272
C 22.627 -51.315 -4.837
C 22.67 -51.477 0.897
C 26.49 -50.645 -1.21
C 26.474 -50.605 -2.774
C 23.942 -49.173 -0.606
C 23.915 -49.099 -3.21
C 25.198 -51.364 -3.302
C 23.935 -50.662 -1.178
C 23.923 -50.62 -2.741
C 25.22 -51.43 -0.7
C 26.435 -50.532 -5.359
C 23.897 -49.054 -4.775
C 23.894 -50.545 -5.326
C 25.178 -51.323 -4.867
C 26.514 -50.713 1.376
C 23.957 -49.218 0.96
C 25.232 -51.467 0.866
C 23.956 -50.736 1.408
C 27.775 -48.373 -1.156
C 27.751 -48.33 -2.72
C 26.467 -49.085 -3.244
C 25.216 -48.393 -1.117
C 25.198 -48.349 -2.681
C 26.501 -49.157 -0.641
C 27.702 -48.253 -5.305
C 25.161 -48.273 -5.267
C 26.441 -49.041 -4.809
C 27.809 -48.446 1.429
C 26.519 -49.199 0.925
C 25.246 -48.47 1.468
C 27.777 -51.399 -0.728
C 27.747 -51.335 -3.337
C 27.718 -51.295 -4.902
C 27.788 -51.433 0.837
C 31.586 -50.564 -1.294
C 31.562 -50.519 -2.85
C 29.063 -49.129 -0.679
C 29.021 -49.057 -3.288
C 30.304 -51.288 -3.396
C 29.05 -50.614 -1.242
C 29.029 -50.572 -2.816
C 30.342 -51.36 -0.744
C 31.489 -50.431 -5.544
C 28.985 -49.012 -4.852
C 28.97 -50.494 -5.405
C 30.27 -51.243 -4.978
C 31.608 -50.631 1.399
C 29.082 -49.169 0.886
C 30.356 -51.399 0.838
C 29.071 -50.676 1.349
C 32.877 -48.304 -1.262
C 32.847 -48.258 -2.818
C 31.582 -49.024 -3.358
C 30.339 -48.348 -1.198
C 30.312 -48.303 -2.772
C 31.631 -49.101 -0.708
C 32.764 -48.169 -5.511
C 30.243 -48.222 -5.361
C 31.541 -48.976 -4.94
C 32.909 -48.373 1.43
C 31.652 -49.144 0.875
C 30.371 -48.415 1.391
C 2.132 -51.397 -0.607
C 2.137 -51.315 -3.214
C 2.14 -51.264 -4.78
C 2.129 -51.445 0.959
C 5.982 -50.631 -1.098
C 5.982 -50.582 -2.662
C 3.427 -49.152 -0.535
C 3.431 -49.072 -3.141
C 4.699 -51.314 -3.208
C 3.418 -50.631 -1.102
C 3.42 -50.582 -2.666
C 4.696 -51.397 -0.601
C 5.983 -50.5 -5.251
C 3.434 -49.024 -4.707
C 3.424 -50.5 -5.255
C 4.7 -51.263 -4.774
C 5.98 -50.712 1.491
C 3.424 -49.2 1.032
C 4.694 -51.445 0.965
C 3.413 -50.712 1.487
C 7.278 -48.384 -1.028
C 7.278 -48.336 -2.592
C 5.993 -49.072 -3.137
C 4.714 -48.384 -1.03
C 4.715 -48.336 -2.595
C 5.992 -49.152 -0.53
C 7.278 -48.259 -5.181
C 4.718 -48.259 -5.183
C 5.994 -49.024 -4.703
C 7.277 -48.464 1.559
C 5.99 -49.201 1.036
C 4.71 -48.463 1.557
C -2.997 -51.405 -0.629
C -2.991 -51.323 -3.235
C -2.987 -51.271 -4.801
C -3.001 -51.453 0.937
C 0.854 -50.632 -1.11
C 0.857 -50.583 -2.674
C -1.703 -49.158 -0.554
C -1.697 -49.078 -3.16
C -0.426 -51.317 -3.224
C -1.711 -50.636 -1.121
C -1.708 -50.588 -2.685
C -0.432 -51.4 -0.617
C 0.864 -50.502 -5.263
C -1.692 -49.03 -4.726
C -1.7 -50.506 -5.273
C -0.422 -51.266 -4.789
C 0.847 -50.713 1.479
C -1.708 -49.206 1.012
C -0.437 -51.448 0.949
C -1.719 -50.717 1.468
C 2.15 -48.385 -1.037
C 2.152 -48.337 -2.601
C 0.868 -49.074 -3.149
C -0.416 -48.388 -1.047
C -0.412 -48.34 -2.611
C 0.862 -49.154 -0.543
C 2.158 -48.26 -5.189
C -0.405 -48.264 -5.199
C 0.872 -49.026 -4.715
C 2.143 -48.464 1.551
C 0.858 -49.202 1.023
C -0.424 -48.467 1.541
C -8.129 -51.43 -0.648
C -8.129 -51.348 -3.254
C -8.13 -51.296 -4.82
C -8.13 -51.479 0.918
C -4.277 -50.644 -1.132
C -4.274 -50.596 -2.697
C -6.837 -49.179 -0.576
C -6.835 -49.099 -3.182
C -5.559 -51.333 -3.246
C -6.845 -50.657 -1.142
C -6.844 -50.609 -2.706
C -5.563 -51.415 -0.64
C -4.268 -50.514 -5.285
C -6.833 -49.051 -4.748
C -6.841 -50.527 -5.294
C -5.556 -51.281 -4.812
C -4.284 -50.724 1.456
C -6.839 -49.227 0.99
C -5.566 -51.463 0.926
C -6.848 -50.737 1.446
C -2.982 -48.394 -1.058
C -2.979 -48.347 -2.623
C -4.264 -49.086 -3.172
C -5.55 -48.405 -1.07
C -5.548 -48.358 -2.634
C -4.269 -49.166 -0.566
C -2.972 -48.27 -5.21
C -5.543 -48.28 -5.221
C -4.261 -49.038 -4.738
C -2.99 -48.473 1.529
C -4.273 -49.214 1
C -5.556 -48.483 1.518
C -13.266 -51.483 -0.644
C -13.279 -51.4 -3.25
C -13.288 -51.347 -4.815
C -13.259 -51.532 0.922
C -9.414 -50.676 -1.147
C -9.416 -50.628 -2.711
C -11.975 -49.224 -0.579
C -11.984 -49.144 -3.184
C -10.703 -51.37 -3.255
C -11.985 -50.702 -1.145
C -11.99 -50.654 -2.709
C -10.697 -51.453 -0.649
C -9.418 -50.546 -5.298
C -11.99 -49.095 -4.75
C -12 -50.572 -5.296
C -10.707 -51.318 -4.821
C -9.412 -50.756 1.441
C -11.97 -49.273 0.987
C -10.694 -51.501 0.916
C -11.977 -50.783 1.443
C -8.12 -48.421 -1.077
C -8.12 -48.374 -2.642
C -9.408 -49.119 -3.186
C -10.691 -48.444 -1.079
C -10.695 -48.397 -2.644
C -9.405 -49.198 -0.581
C -8.119 -48.297 -5.228
C -10.7 -48.319 -5.229
C -9.41 -49.07 -4.752
C -8.121 -48.5 1.51
C -9.404 -49.247 0.985
C -10.686 -48.523 1.508
C -18.41 -51.56 -0.607
C -18.438 -51.477 -3.212
C -18.456 -51.424 -4.778
C -18.393 -51.611 0.958
C -14.557 -50.735 -1.136
C -14.567 -50.687 -2.7
C -17.118 -49.295 -0.551
C -17.143 -49.215 -3.155
C -15.858 -51.436 -3.236
C -17.131 -50.774 -1.117
C -17.145 -50.726 -2.681
C -15.837 -51.519 -0.63
C -14.584 -50.605 -5.286
C -17.159 -49.166 -4.721
C -17.171 -50.643 -5.267
C -15.871 -51.383 -4.801
C -14.542 -50.817 1.452
C -17.104 -49.345 1.015
C -15.826 -51.569 0.935
C -17.108 -50.856 1.47
C -13.263 -48.473 -1.073
C -13.271 -48.426 -2.638
C -14.563 -49.177 -3.174
C -15.837 -48.509 -1.059
C -15.85 -48.462 -2.624
C -14.546 -49.257 -0.569
C -13.284 -48.349 -5.223
C -15.871 -48.384 -5.209
C -14.574 -49.128 -4.74
C -13.252 -48.552 1.513
C -14.537 -49.306 0.997
C -15.818 -48.589 1.527
C -19.706 -50.816 -1.088
C -19.725 -50.768 -2.652
C -19.759 -50.685 -5.238
C -19.674 -50.899 1.498
C -18.412 -48.549 -1.035
C -18.429 -48.502 -2.6
C -19.724 -49.257 -3.126
C -19.691 -49.337 -0.522
C -18.459 -48.424 -5.185
C -19.745 -49.207 -4.692
C -18.384 -48.629 1.55
C -19.672 -49.387 1.044
H 26.415 -50.502 -6.44
H 23.877 -50.514 -6.407
H 26.525 -50.755 2.457
H 23.967 -50.78 2.489
H 27.68 -48.224 -6.387
H 25.144 -48.244 -6.348
H 27.825 -48.486 2.511
H 25.26 -48.512 2.549
H 31.403 -50.37 -6.621
H 28.931 -50.455 -6.485
H 31.568 -50.634 2.481
H 29.067 -50.704 2.43
H 32.676 -48.11 -6.588
H 30.2 -48.184 -6.442
H 32.875 -48.375 2.511
H 30.373 -48.442 2.473
H -1.695 -50.479 -6.355
H -1.724 -50.756 2.549
H -4.263 -50.486 -6.366
H -6.838 -50.498 -6.376
H -4.288 -50.763 2.537
H -6.851 -50.776 2.528
H -2.966 -48.243 -6.292
H -5.538 -48.253 -6.303
H -2.994 -48.51 2.61
H -5.559 -48.52 2.599
H -9.418 -50.517 -6.38
H -12.002 -50.543 -6.378
H -9.412 -50.795 2.522
H -11.974 -50.821 2.524
H -8.117 -48.269 -6.31
H -10.7 -48.292 -6.311
H -8.122 -48.536 2.591
H -10.684 -48.559 2.589
H -14.591 -50.576 -6.368
H -17.182 -50.615 -6.348
H -14.535 -50.855 2.533
H -17.097 -50.895 2.551
H -13.288 -48.321 -6.305
H -15.879 -48.357 -6.29
H -13.246 -48.589 2.595
H -15.809 -48.625 2.608
H -19.774 -50.658 -6.319
H -19.66 -50.939 2.579
H -18.471 -48.398 -6.266
H -18.371 -48.667 2.632
H 20.121 -48.523 2.605
H 5.979 -50.753 2.572
H 7.276 -48.503 2.641
H 18.826 -50.776 2.541
H 17.549 -48.517 2.621
H 4.709 -48.502 2.638
H 16.252 -50.767 2.556
H 14.978 -48.512 2.631
H 3.411 -50.752 2.568
H 2.14 -48.502 2.632
H 13.681 -50.761 2.565
H 0.843 -50.753 2.56
H 12.41 -48.507 2.637
H -0.428 -48.504 2.622
H 11.113 -50.757 2.57
H 9.843 -48.504 2.64
H 21.4 -50.783 2.518
H 22.692 -48.523 2.581
H 8.546 -50.754 2.572
H 13.658 -50.477 -6.339
H 11.099 -50.474 -6.334
H 22.603 -48.25 -6.318
H -0.4 -48.237 -6.281
H 8.541 -50.473 -6.332
H 20.057 -48.247 -6.295
H 9.835 -48.234 -6.263
H 7.277 -48.233 -6.263
H 3.426 -50.473 -6.337
H 4.72 -48.233 -6.265
H 18.773 -50.491 -6.36
H 16.216 -50.482 -6.347
H 0.867 -50.475 -6.344
H 14.95 -48.238 -6.271
H 12.393 -48.235 -6.266
H 21.328 -50.504 -6.38
H 5.984 -50.472 -6.333
H 17.505 -48.242 -6.28
H 2.161 -48.234 -6.271
C -40.293 -55.377 -1
C -40.311 -55.317 -2.551
C -40.317 -55.196 -5.234
C -40.245 -55.5 1.688
C -39.017 -53.191 -0.882
C -39.034 -53.132 -2.455
C -40.328 -53.83 -3.015
C -41.557 -53.14 -0.856
C -41.576 -53.082 -2.411
C -40.298 -53.937 -0.367
C -39.047 -53.015 -5.046
C -41.588 -52.969 -5.096
C -40.337 -53.764 -4.595
C -38.979 -53.301 1.709
C -40.278 -54.007 1.214
C -41.51 -53.246 1.833
C -39.05 -56.205 -0.53
C -39.075 -56.094 -3.165
C -39.078 -56.025 -4.739
C -39.032 -56.277 1.044
C -35.185 -55.469 -1.024
C -35.197 -55.405 -2.589
C -37.737 -53.984 -0.416
C -37.761 -53.876 -3.025
C -36.494 -56.131 -3.153
C -37.758 -55.457 -1.02
C -37.772 -55.396 -2.591
C -36.477 -56.243 -0.544
C -35.214 -55.283 -5.178
C -37.772 -53.805 -4.589
C -37.78 -55.268 -5.179
C -36.503 -56.055 -4.724
C -35.168 -55.572 1.565
C -37.718 -54.052 1.15
C -36.462 -56.305 1.026
C -37.731 -55.576 1.569
C -33.883 -53.223 -0.927
C -33.898 -53.163 -2.49
C -35.192 -53.89 -3.035
C -36.454 -53.219 -0.908
C -36.468 -53.159 -2.472
C -35.169 -53.996 -0.432
C -33.927 -53.058 -5.076
C -36.489 -53.047 -5.058
C -35.208 -53.822 -4.6
C -33.856 -53.324 1.658
C -35.153 -54.057 1.134
C -36.427 -53.33 1.678
C -33.889 -56.226 -0.534
C -33.909 -56.118 -3.146
C -33.923 -56.043 -4.716
C -33.875 -56.276 1.038
C -30.016 -55.44 -1.058
C -30.036 -55.382 -2.624
C -32.589 -53.985 -0.449
C -32.618 -53.885 -3.054
C -31.33 -56.112 -3.16
C -32.6 -55.456 -1.031
C -32.615 -55.395 -2.596
C -31.3 -56.211 -0.547
C -30.074 -55.274 -5.216
C -32.638 -53.821 -4.618
C -32.642 -55.28 -5.188
C -31.35 -56.041 -4.731
C -29.982 -55.521 1.535
C -32.57 -54.04 1.117
C -31.282 -56.255 1.027
C -32.576 -55.545 1.562
C -28.725 -53.19 -0.999
C -28.748 -53.136 -2.563
C -30.043 -53.873 -3.088
C -31.304 -53.211 -0.956
C -31.324 -53.154 -2.52
C -30.007 -53.967 -0.483
C -28.793 -53.042 -5.149
C -31.361 -53.056 -5.106
C -30.068 -53.812 -4.653
C -28.684 -53.278 1.587
C -29.984 -54.018 1.083
C -31.27 -53.304 1.629
C -28.713 -56.191 -0.582
C -28.751 -56.096 -3.195
C -28.776 -56.027 -4.767
C -28.691 -56.232 0.992
C -24.852 -55.381 -1.152
C -24.875 -55.327 -2.718
C -27.425 -53.941 -0.529
C -27.467 -53.851 -3.134
C -26.17 -56.068 -3.243
C -27.433 -55.415 -1.102
C -27.456 -55.36 -2.668
C -26.128 -56.16 -0.63
C -24.922 -55.222 -5.31
C -27.494 -53.791 -4.7
C -27.501 -55.255 -5.26
C -26.197 -55.999 -4.815
C -24.81 -55.458 1.441
C -27.4 -53.991 1.037
C -26.104 -56.202 0.944
C -27.392 -55.493 1.491
C -23.569 -53.123 -1.1
C -23.593 -53.071 -2.664
C -24.888 -53.818 -3.185
C -26.147 -53.16 -1.05
C -26.171 -53.108 -2.613
C -24.846 -53.907 -0.58
C -23.637 -52.98 -5.25
C -26.219 -53.016 -5.2
C -24.915 -53.759 -4.751
C -23.528 -53.207 1.487
C -24.821 -53.956 0.986
C -26.103 -53.246 1.536
C -23.547 -56.122 -0.678
C -23.587 -56.031 -3.293
C -23.613 -55.96 -4.865
C -23.523 -56.163 0.894
C -22.268 -53.866 -0.627
C -22.307 -53.778 -3.232
C -21.004 -55.988 -3.335
C -22.272 -55.339 -1.199
C -22.294 -55.286 -2.764
C -20.969 -56.078 -0.721
C -22.332 -53.718 -4.798
C -22.336 -55.181 -5.357
C -21.027 -55.916 -4.908
C -22.246 -53.914 0.939
C -20.949 -56.119 0.852
C -22.235 -55.415 1.395
C -20.993 -53.08 -1.143
C -21.013 -53.029 -2.707
C -21.052 -52.938 -5.293
C -20.958 -53.163 1.444
H -35.213 -55.231 -6.258
H -37.772 -55.207 -6.26
H -35.173 -55.628 2.646
H -37.721 -55.642 2.649
H -33.938 -53.02 -6.157
H -36.496 -53.003 -6.139
H -33.849 -53.378 2.739
H -36.422 -53.389 2.758
H -30.093 -55.236 -6.297
H -32.652 -55.237 -6.269
H -29.968 -55.565 2.616
H -32.573 -55.592 2.643
H -28.816 -53.012 -6.231
H -31.379 -53.023 -6.188
H -28.665 -53.324 2.667
H -31.257 -53.352 2.71
H -24.946 -55.186 -6.391
H -27.526 -55.218 -6.341
H -24.79 -55.498 2.522
H -27.373 -55.535 2.572
H -23.66 -52.951 -6.331
H -26.243 -52.987 -6.281
H -23.509 -53.249 2.568
H -26.083 -53.29 2.617
H -22.357 -55.144 -6.438
H -22.218 -55.454 2.476
H -21.07 -52.908 -6.375
H -20.943 -53.204 2.525
H -41.439 -53.271 2.912
H -40.161 -55.542 2.766
H -38.953 -53.352 2.79
H -39.044 -52.96 -6.126
H -41.564 -52.902 -6.176
H -40.29 -55.12 -6.313
C 7.241 -55.872 -0.743
C 7.241 -55.784 -3.361
C 7.24 -55.716 -4.934
C 7.241 -55.91 0.83
C 11.088 -55.113 -1.248
C 11.086 -55.061 -2.814
C 8.531 -53.638 -0.672
C 8.53 -53.553 -3.281
C 9.802 -55.786 -3.364
C 8.525 -55.111 -1.244
C 8.523 -55.059 -2.81
C 9.805 -55.874 -0.746
C 11.08 -54.957 -5.411
C 8.528 -53.494 -4.847
C 8.521 -54.956 -5.408
C 9.799 -55.717 -4.936
C 11.092 -55.186 1.349
C 8.532 -53.684 0.894
C 9.806 -55.912 0.828
C 8.526 -55.183 1.353
C 12.38 -52.878 -1.175
C 12.377 -52.827 -2.739
C 11.091 -53.555 -3.284
C 9.816 -52.875 -1.171
C 9.814 -52.824 -2.735
C 11.096 -53.641 -0.675
C 12.37 -52.737 -5.329
C 9.81 -52.734 -5.325
C 11.088 -53.496 -4.85
C 12.385 -52.959 1.414
C 11.098 -53.686 0.891
C 9.818 -52.956 1.419
C 12.37 -55.876 -0.75
C 12.364 -55.788 -3.368
C 12.36 -55.719 -4.941
C 12.373 -55.915 0.823
C 16.223 -55.124 -1.264
C 16.217 -55.072 -2.83
C 13.662 -53.645 -0.681
C 13.655 -53.558 -3.289
C 14.928 -55.793 -3.376
C 13.654 -55.117 -1.253
C 13.65 -55.065 -2.82
C 14.937 -55.881 -0.758
C 16.206 -54.969 -5.425
C 13.65 -53.5 -4.855
C 13.642 -54.961 -5.416
C 14.923 -55.724 -4.948
C 16.232 -55.195 1.332
C 13.665 -53.69 0.885
C 14.941 -55.918 0.815
C 13.66 -55.189 1.343
C 17.516 -52.892 -1.195
C 17.51 -52.842 -2.759
C 16.22 -53.565 -3.299
C 14.947 -52.883 -1.182
C 14.942 -52.832 -2.746
C 16.23 -53.651 -0.691
C 17.497 -52.752 -5.347
C 14.932 -52.742 -5.336
C 16.214 -53.507 -4.865
C 17.527 -52.971 1.393
C 16.236 -53.696 0.875
C 14.955 -52.964 1.407
C 17.507 -55.889 -0.771
C 17.497 -55.803 -3.388
C 17.49 -55.735 -4.96
C 17.514 -55.925 0.802
C 21.374 -55.157 -1.302
C 21.373 -55.114 -2.868
C 18.802 -53.662 -0.708
C 18.79 -53.579 -3.315
C 20.074 -55.824 -3.406
C 18.795 -55.136 -1.28
C 18.791 -55.086 -2.846
C 20.083 -55.904 -0.791
C 21.361 -55.022 -5.458
C 18.781 -53.522 -4.88
C 18.777 -54.986 -5.44
C 20.066 -55.759 -4.978
C 21.385 -55.217 1.29
C 18.809 -53.705 0.858
C 20.089 -55.937 0.782
C 18.807 -55.204 1.315
C 22.659 -52.921 -1.241
C 22.654 -52.88 -2.805
C 21.364 -53.603 -3.337
C 20.088 -52.905 -1.215
C 20.082 -52.858 -2.778
C 21.376 -53.678 -0.733
C 22.635 -52.803 -5.388
C 20.065 -52.772 -5.365
C 21.354 -53.551 -4.902
C 22.674 -52.99 1.345
C 21.383 -53.717 0.834
C 20.102 -52.981 1.373
C 22.664 -55.93 -0.814
C 22.663 -55.867 -3.424
C 22.657 -55.813 -4.995
C 22.667 -55.955 0.757
C 26.54 -55.19 -1.33
C 26.549 -55.17 -2.909
C 23.949 -53.696 -0.76
C 23.94 -53.635 -3.362
C 25.266 -55.935 -3.434
C 23.959 -55.189 -1.324
C 23.964 -55.159 -2.89
C 25.253 -55.968 -0.829
C 26.531 -55.125 -5.488
C 23.928 -53.594 -4.927
C 23.955 -55.09 -5.474
C 25.261 -55.905 -5.009
C 26.52 -55.208 1.256
C 23.954 -53.727 0.805
C 25.245 -55.978 0.746
C 23.959 -55.233 1.265
C 27.778 -52.889 -1.289
C 27.768 -52.855 -2.863
C 26.503 -53.636 -3.387
C 25.223 -52.923 -1.269
C 25.218 -52.889 -2.832
C 26.512 -53.684 -0.782
C 27.723 -52.788 -5.452
C 25.192 -52.823 -5.414
C 26.485 -53.604 -4.953
C 27.781 -52.935 1.303
C 26.513 -53.705 0.783
C 25.234 -52.981 1.316
C 27.849 -55.924 -0.801
C 27.868 -55.907 -3.456
C 27.867 -55.895 -5.044
C 27.832 -55.929 0.786
C 29.068 -53.62 -0.78
C 29.05 -53.567 -3.433
C 29.071 -55.083 -1.351
C 29.074 -55.058 -2.909
C 29.026 -53.53 -5.017
C 29.034 -54.999 -5.614
C 29.07 -53.646 0.803
C 29.048 -55.11 1.352
C 30.309 -52.821 -1.328
C 30.294 -52.78 -2.885
C 30.233 -52.698 -5.581
C 30.315 -52.878 1.366
C 2.116 -55.871 -0.749
C 2.121 -55.784 -3.367
C 2.123 -55.717 -4.94
C 2.113 -55.908 0.825
C 5.962 -55.11 -1.244
C 5.962 -55.058 -2.81
C 3.404 -53.636 -0.676
C 3.408 -53.551 -3.284
C 4.681 -55.784 -3.362
C 3.4 -55.109 -1.247
C 3.401 -55.058 -2.813
C 4.679 -55.871 -0.744
C 5.962 -54.956 -5.407
C 3.41 -53.494 -4.85
C 3.405 -54.956 -5.41
C 4.682 -55.716 -4.935
C 5.96 -55.181 1.354
C 3.402 -53.681 0.891
C 4.677 -55.908 0.83
C 3.395 -55.18 1.351
C 7.252 -52.873 -1.169
C 7.252 -52.822 -2.733
C 5.969 -53.552 -3.281
C 4.689 -52.872 -1.171
C 4.69 -52.822 -2.735
C 5.968 -53.637 -0.672
C 7.251 -52.733 -5.324
C 4.692 -52.733 -5.326
C 5.969 -53.494 -4.847
C 7.251 -52.953 1.42
C 5.967 -53.682 0.894
C 4.686 -52.952 1.419
C -3.007 -55.877 -0.77
C -3.001 -55.79 -3.388
C -2.998 -55.722 -4.961
C -3.012 -55.914 0.804
C 0.838 -55.11 -1.254
C 0.84 -55.059 -2.82
C -1.722 -53.641 -0.694
C -1.716 -53.556 -3.303
C -0.44 -55.786 -3.376
C -1.725 -55.113 -1.265
C -1.721 -55.062 -2.831
C -0.446 -55.872 -0.758
C 0.846 -54.957 -5.417
C -1.712 -53.498 -4.868
C -1.714 -54.96 -5.428
C -0.436 -55.718 -4.949
C 0.83 -55.18 1.344
C -1.727 -53.685 0.873
C -0.45 -55.909 0.816
C -1.733 -55.183 1.333
C 2.126 -52.873 -1.177
C 2.128 -52.822 -2.741
C 0.847 -53.553 -3.292
C -0.438 -52.875 -1.186
C -0.434 -52.825 -2.75
C 0.841 -53.637 -0.683
C 2.133 -52.734 -5.331
C -0.428 -52.736 -5.34
C 0.85 -53.495 -4.858
C 2.12 -52.952 1.413
C 0.837 -53.682 0.883
C -0.446 -52.954 1.404
C -8.13 -55.9 -0.789
C -8.13 -55.813 -3.407
C -8.131 -55.743 -4.98
C -8.131 -55.938 0.784
C -4.287 -55.12 -1.277
C -4.285 -55.068 -2.843
C -6.85 -53.659 -0.716
C -6.848 -53.575 -3.324
C -5.565 -55.799 -3.399
C -6.85 -55.131 -1.286
C -6.85 -55.08 -2.853
C -5.569 -55.886 -0.781
C -4.278 -54.966 -5.439
C -6.847 -53.516 -4.89
C -6.847 -54.977 -5.449
C -5.562 -55.73 -4.972
C -4.295 -55.19 1.321
C -6.852 -53.704 0.851
C -5.572 -55.923 0.792
C -6.855 -55.202 1.311
C -3.002 -52.88 -1.198
C -2.999 -52.83 -2.762
C -4.281 -53.563 -3.314
C -5.567 -52.889 -1.209
C -5.565 -52.84 -2.773
C -4.286 -53.647 -0.706
C -2.992 -52.741 -5.352
C -5.56 -52.75 -5.362
C -4.277 -53.505 -4.88
C -3.01 -52.959 1.392
C -4.29 -53.692 0.861
C -5.573 -52.968 1.381
C -13.257 -55.952 -0.787
C -13.27 -55.864 -3.404
C -13.278 -55.793 -4.976
C -13.251 -55.991 0.787
C -9.415 -55.15 -1.292
C -9.417 -55.098 -2.858
C -11.982 -53.704 -0.719
C -11.991 -53.619 -3.327
C -10.699 -55.835 -3.409
C -11.981 -55.176 -1.29
C -11.987 -55.124 -2.856
C -10.693 -55.922 -0.791
C -9.42 -54.995 -5.454
C -11.997 -53.559 -4.893
C -11.997 -55.02 -5.452
C -10.703 -55.764 -4.982
C -9.414 -55.221 1.306
C -11.977 -53.75 0.847
C -10.69 -55.96 0.782
C -11.974 -55.247 1.307
C -8.133 -52.905 -1.217
C -8.134 -52.855 -2.781
C -9.418 -53.593 -3.329
C -10.702 -52.927 -1.218
C -10.705 -52.877 -2.782
C -9.415 -53.678 -0.721
C -8.134 -52.765 -5.369
C -10.711 -52.787 -5.371
C -9.42 -53.534 -4.895
C -8.135 -52.984 1.373
C -9.414 -53.723 0.846
C -10.698 -53.006 1.371
C -18.395 -56.032 -0.752
C -18.423 -55.943 -3.368
C -18.441 -55.872 -4.94
C -18.379 -56.073 0.821
C -14.55 -55.209 -1.281
C -14.56 -55.158 -2.847
C -17.121 -53.777 -0.692
C -17.145 -53.691 -3.299
C -15.845 -55.901 -3.391
C -17.121 -55.25 -1.264
C -17.135 -55.198 -2.83
C -15.824 -55.989 -0.774
C -14.577 -55.053 -5.442
C -17.161 -53.631 -4.865
C -17.161 -55.093 -5.423
C -15.858 -55.83 -4.963
C -14.535 -55.281 1.316
C -17.107 -53.824 0.874
C -15.813 -56.029 0.799
C -17.099 -55.323 1.332
C -13.272 -52.957 -1.213
C -13.279 -52.907 -2.777
C -14.567 -53.652 -3.317
C -15.844 -52.994 -1.199
C -15.856 -52.944 -2.763
C -14.55 -53.738 -0.71
C -13.293 -52.817 -5.365
C -15.877 -52.853 -5.35
C -14.578 -53.592 -4.883
C -13.261 -53.037 1.376
C -14.541 -53.784 0.856
C -15.825 -53.074 1.39
C -19.695 -55.294 -1.236
C -19.714 -55.242 -2.802
C -19.748 -55.137 -5.395
C -19.665 -55.369 1.359
C -18.417 -53.036 -1.176
C -18.434 -52.985 -2.74
C -19.725 -53.734 -3.271
C -19.694 -53.821 -0.665
C -18.464 -52.895 -5.327
C -19.746 -53.674 -4.837
C -18.391 -53.117 1.412
C -19.675 -53.869 0.901
H 26.5 -55.093 -6.569
H 23.942 -55.057 -6.555
H 26.493 -55.214 2.337
H 23.961 -55.266 2.346
H 27.686 -52.752 -6.533
H 25.173 -52.794 -6.496
H 27.768 -52.961 2.384
H 25.24 -53.022 2.398
H 28.936 -54.945 -6.69
H 28.988 -55.1 2.432
H 30.146 -52.637 -6.658
H 30.271 -52.878 2.448
H -1.71 -54.923 -6.509
H -1.739 -55.22 2.414
H -4.275 -54.929 -6.521
H -6.845 -54.939 -6.53
H -4.3 -55.226 2.403
H -6.858 -55.238 2.393
H -2.987 -52.711 -6.433
H -5.557 -52.72 -6.444
H -3.015 -52.999 2.474
H -5.577 -53.008 2.462
H -9.42 -54.956 -6.535
H -12 -54.982 -6.533
H -9.415 -55.256 2.387
H -11.972 -55.283 2.389
H -8.132 -52.734 -6.451
H -10.713 -52.756 -6.452
H -8.137 -53.023 2.455
H -10.697 -53.045 2.453
H -14.584 -55.015 -6.523
H -17.173 -55.055 -6.505
H -14.531 -55.317 2.397
H -17.091 -55.36 2.414
H -13.298 -52.785 -6.446
H -15.886 -52.822 -6.432
H -13.257 -53.076 2.458
H -15.818 -53.114 2.471
H -19.764 -55.099 -6.477
H -19.653 -55.407 2.44
H -18.477 -52.864 -6.408
H -18.379 -53.158 2.493
H 20.109 -53.024 2.454
H 5.959 -55.219 2.435
H 7.251 -52.995 2.502
H 18.813 -55.241 2.397
H 17.531 -53.013 2.475
H 4.684 -52.993 2.5
H 16.234 -55.233 2.414
H 14.956 -53.006 2.488
H 3.392 -55.217 2.432
H 2.116 -52.992 2.494
H 13.661 -55.228 2.424
H 0.826 -55.217 2.425
H 12.385 -53.001 2.496
H -0.451 -52.994 2.485
H 11.092 -55.224 2.43
H 9.818 -52.997 2.5
H 21.392 -55.254 2.372
H 22.682 -53.033 2.426
H 8.525 -55.221 2.434
H 13.637 -54.923 -6.497
H 11.077 -54.92 -6.492
H 22.619 -52.77 -6.469
H -0.423 -52.706 -6.422
H 8.518 -54.919 -6.489
H 20.052 -52.738 -6.446
H 9.807 -52.703 -6.407
H 7.25 -52.703 -6.405
H 3.406 -54.919 -6.491
H 4.693 -52.703 -6.407
H 18.767 -54.945 -6.521
H 16.199 -54.929 -6.506
H 0.849 -54.921 -6.499
H 14.926 -52.71 -6.417
H 12.366 -52.705 -6.41
H 21.348 -54.983 -6.539
H 5.961 -54.919 -6.488
H 17.488 -52.719 -6.428
H 2.136 -52.704 -6.413
C -39.072 -57.671 -1.165
C -39.095 -57.612 -2.748
C -39.08 -57.491 -5.354
C -39.049 -57.792 1.442
C -37.793 -58.476 -0.679
C -37.817 -58.363 -3.314
C -37.812 -58.298 -4.896
C -37.777 -58.539 0.899
C -33.89 -57.693 -1.116
C -33.905 -57.627 -2.695
C -35.195 -58.32 -3.29
C -36.487 -57.719 -1.146
C -36.503 -57.653 -2.72
C -35.175 -58.436 -0.605
C -33.919 -57.491 -5.306
C -36.504 -57.518 -5.326
C -35.201 -58.241 -4.843
C -33.879 -57.769 1.498
C -35.165 -58.483 0.95
C -36.481 -57.818 1.461
C -32.59 -58.42 -0.586
C -32.618 -58.313 -3.277
C -32.632 -58.237 -4.831
C -32.577 -58.457 0.973
C -28.716 -57.664 -1.153
C -28.738 -57.606 -2.733
C -30.035 -58.305 -3.295
C -31.303 -57.683 -1.121
C -31.322 -57.622 -2.7
C -29.999 -58.405 -0.603
C -28.779 -57.482 -5.346
C -31.351 -57.494 -5.313
C -30.056 -58.231 -4.85
C -28.678 -57.725 1.463
C -29.98 -58.439 0.955
C -31.278 -57.748 1.496
C -27.408 -58.38 -0.645
C -27.448 -58.284 -3.337
C -27.474 -58.209 -4.893
C -27.384 -58.414 0.913
C -23.544 -57.595 -1.249
C -23.567 -57.54 -2.83
C -24.861 -58.25 -3.388
C -26.129 -57.634 -1.2
C -26.152 -57.578 -2.78
C -24.819 -58.345 -0.695
C -23.612 -57.414 -5.444
C -26.199 -57.453 -5.394
C -24.887 -58.173 -4.944
C -23.503 -57.656 1.367
C -24.794 -58.381 0.862
C -26.086 -57.695 1.415
C -22.235 -58.303 -0.741
C -22.274 -58.208 -3.435
C -22.299 -58.13 -4.992
C -22.213 -58.339 0.816
C -20.963 -57.551 -1.291
C -20.984 -57.497 -2.872
C -21.022 -57.369 -5.487
C -20.929 -57.611 1.326
H -33.917 -57.45 -6.387
H -36.481 -57.46 -6.406
H -33.89 -57.823 2.578
H -36.5 -57.882 2.541
H -28.801 -57.45 -6.427
H -31.363 -57.46 -6.395
H -28.662 -57.773 2.544
H -31.272 -57.797 2.576
H -23.635 -57.38 -6.525
H -26.224 -57.421 -6.475
H -23.485 -57.703 2.447
H -26.066 -57.742 2.496
H -21.04 -57.335 -6.568
H -20.915 -57.656 2.407
H -39.067 -57.869 2.521
H -39.074 -57.412 -6.433
C 8.517 -58.077 -0.781
C 8.516 -57.986 -3.479
C 8.514 -57.911 -5.035
C 8.518 -58.109 0.777
C 12.363 -57.349 -1.321
C 12.36 -57.295 -2.902
C 11.076 -57.987 -3.483
C 9.8 -57.347 -1.316
C 9.798 -57.293 -2.897
C 11.081 -58.079 -0.785
C 12.353 -57.171 -5.521
C 9.794 -57.169 -5.516
C 11.073 -57.912 -5.039
C 12.369 -57.405 1.299
C 11.083 -58.111 0.773
C 9.802 -57.403 1.304
C 13.646 -58.082 -0.791
C 13.638 -57.99 -3.488
C 13.633 -57.915 -5.045
C 13.65 -58.113 0.767
C 17.498 -57.362 -1.34
C 17.492 -57.31 -2.921
C 16.202 -57.996 -3.497
C 14.929 -57.354 -1.328
C 14.924 -57.3 -2.909
C 16.213 -58.087 -0.8
C 17.48 -57.187 -5.539
C 14.915 -57.176 -5.528
C 16.196 -57.922 -5.054
C 17.509 -57.415 1.279
C 16.219 -58.118 0.758
C 14.937 -57.409 1.292
C 18.783 -58.098 -0.814
C 18.771 -58.01 -3.511
C 18.764 -57.937 -5.068
C 18.79 -58.126 0.744
C 22.659 -57.41 -1.372
C 22.661 -57.376 -2.952
C 21.35 -58.042 -3.524
C 20.072 -57.378 -1.357
C 20.068 -57.331 -2.938
C 21.358 -58.117 -0.831
C 22.66 -57.277 -5.56
C 20.057 -57.212 -5.554
C 21.343 -57.974 -5.082
C 22.661 -57.444 1.239
C 21.364 -58.141 0.726
C 20.084 -57.426 1.261
C 23.944 -58.163 -0.838
C 23.951 -58.12 -3.522
C 23.949 -58.074 -5.075
C 23.939 -58.175 0.714
C 27.856 -57.418 -1.348
C 27.88 -57.427 -2.906
C 26.651 -58.212 -3.487
C 25.273 -57.486 -1.367
C 25.289 -57.477 -2.95
C 26.61 -58.193 -0.796
C 27.912 -57.429 -5.622
C 25.304 -57.432 -5.544
C 26.681 -58.21 -5.045
C 27.783 -57.395 1.387
C 26.581 -58.176 0.758
C 25.241 -57.486 1.237
C 3.393 -58.075 -0.781
C 3.397 -57.985 -3.479
C 3.399 -57.912 -5.036
C 3.391 -58.105 0.777
C 7.237 -57.345 -1.313
C 7.237 -57.292 -2.894
C 5.956 -57.985 -3.477
C 4.676 -57.344 -1.313
C 4.677 -57.291 -2.895
C 5.955 -58.076 -0.779
C 7.235 -57.169 -5.513
C 4.678 -57.169 -5.514
C 5.956 -57.911 -5.034
C 7.237 -57.4 1.307
C 5.954 -58.107 0.779
C 4.673 -57.398 1.307
C -1.727 -58.078 -0.798
C -1.721 -57.988 -3.497
C -1.717 -57.914 -5.054
C -1.732 -58.109 0.76
C 2.115 -57.344 -1.318
C 2.117 -57.291 -2.899
C 0.838 -57.986 -3.486
C -0.446 -57.346 -1.327
C -0.443 -57.293 -2.908
C 0.833 -58.076 -0.788
C 2.122 -57.17 -5.518
C -0.436 -57.171 -5.527
C 0.841 -57.913 -5.042
C 2.109 -57.398 1.303
C 0.829 -58.106 0.771
C -0.454 -57.399 1.294
C -6.843 -58.096 -0.821
C -6.842 -58.005 -3.52
C -6.84 -57.929 -5.077
C -6.845 -58.128 0.737
C -3.006 -57.35 -1.339
C -3.003 -57.297 -2.92
C -4.281 -57.994 -3.51
C -5.565 -57.358 -1.351
C -5.564 -57.306 -2.932
C -4.285 -58.085 -0.811
C -2.996 -57.175 -5.539
C -5.559 -57.182 -5.551
C -4.277 -57.919 -5.066
C -3.014 -57.404 1.282
C -4.289 -58.116 0.747
C -5.572 -57.413 1.271
C -11.959 -58.139 -0.826
C -11.969 -58.047 -3.525
C -11.975 -57.969 -5.082
C -11.955 -58.172 0.732
C -8.125 -57.373 -1.359
C -8.126 -57.32 -2.94
C -9.404 -58.022 -3.526
C -10.686 -57.394 -1.361
C -10.691 -57.342 -2.943
C -9.4 -58.114 -0.827
C -8.126 -57.195 -5.559
C -10.697 -57.216 -5.561
C -9.406 -57.945 -5.083
C -8.127 -57.428 1.263
C -9.4 -58.146 0.731
C -10.683 -57.45 1.26
C -17.086 -58.213 -0.802
C -17.112 -58.119 -3.499
C -17.127 -58.041 -5.056
C -17.073 -58.247 0.756
C -13.249 -57.424 -1.357
C -13.258 -57.371 -2.938
C -14.538 -58.08 -3.516
C -15.816 -57.462 -1.344
C -15.829 -57.408 -2.925
C -14.52 -58.173 -0.818
C -13.271 -57.245 -5.555
C -15.85 -57.282 -5.542
C -14.549 -58.002 -5.073
C -13.239 -57.48 1.265
C -14.512 -58.206 0.74
C -15.798 -57.519 1.276
C -18.387 -57.505 -1.323
C -18.404 -57.451 -2.904
C -19.69 -58.163 -3.473
C -19.657 -58.258 -0.777
C -18.434 -57.324 -5.52
C -19.711 -58.085 -5.029
C -18.361 -57.564 1.296
C -19.639 -58.293 0.78
H 27.683 -57.315 -6.673
H 25.295 -57.421 -6.626
H 27.512 -57.284 2.429
H 25.212 -57.517 2.318
H -2.992 -57.142 -6.621
H -5.556 -57.149 -6.632
H -3.02 -57.446 2.363
H -5.577 -57.455 2.352
H -8.125 -57.161 -6.64
H -10.699 -57.182 -6.642
H -8.131 -57.47 2.344
H -10.683 -57.492 2.341
H -13.277 -57.21 -6.637
H -15.859 -57.247 -6.623
H -13.236 -57.522 2.346
H -15.792 -57.561 2.357
H -18.448 -57.29 -6.601
H -18.351 -57.607 2.377
H 20.09 -57.466 2.342
H 7.237 -57.445 2.388
H 17.513 -57.457 2.361
H 4.671 -57.442 2.388
H 14.938 -57.453 2.373
H 2.105 -57.441 2.384
H 12.369 -57.45 2.38
H -0.46 -57.442 2.375
H 9.802 -57.447 2.385
H 22.664 -57.479 2.32
H 22.656 -57.246 -6.642
H -0.433 -57.14 -6.609
H 20.047 -57.177 -6.635
H 9.79 -57.136 -6.598
H 7.233 -57.137 -6.595
H 4.678 -57.138 -6.595
H 14.909 -57.142 -6.609
H 12.349 -57.138 -6.602
H 17.472 -57.152 -6.62
H 2.123 -57.138 -6.6
H -57.601 -26.223 0.267
H -57.598 -26.154 -1.909
H -56.34 -28.466 -1.975
H -56.342 -28.533 0.202
H -57.596 -26.091 -4.071
H -56.337 -28.405 -4.138
H 32.488 -51.09 -1.01
H 32.455 -51.024 -3.195
H 32.416 -50.961 -5.37
H 32.52 -51.16 1.156
H 33.779 -48.832 -0.982
H 33.736 -48.767 -3.166
H 33.689 -48.703 -5.338
H 33.821 -48.902 1.184
H -68.978 -5.438 0.988
H -68.92 -5.24 -1.182
H -68.864 -5.084 -3.35
H -69.042 -5.61 3.109
H -56.345 -28.608 2.364
H -42.45 -53.669 -0.549
H -42.481 -53.583 -2.729
H -41.241 -55.77 -2.87
H -41.209 -55.86 -0.688
H -42.501 -53.508 -4.877
H -41.252 -55.695 -5.017
H -42.435 -53.761 1.612
H -41.201 -55.96 1.474
H 45.471 -28.272 -3
H 45.549 -28.344 -0.823
H 45.395 -28.203 -5.172
H 45.625 -28.418 1.337
H 46.779 -25.987 -2.966
H 46.854 -26.059 -0.788
H 46.705 -25.918 -5.137
H 46.928 -26.131 1.373
H -53.827 -33.136 0.072
H -53.824 -33.071 -2.107
H -53.821 -33.011 -4.273
H -53.83 -33.208 2.232
H -52.57 -35.431 0.008
H -55.081 -30.771 -2.041
H -55.085 -30.837 0.137
H -55.079 -30.711 -4.206
H -55.087 -30.91 2.298
H 58.545 -5.639 -0.372
H 58.553 -5.566 -2.544
H 58.575 -5.54 -4.703
H 58.537 -5.698 1.746
H 30.004 -55.501 -3.241
H 30.004 -55.539 -1.045
H 59.86 -3.394 1.796
H 30 -55.458 -5.448
H 30.001 -55.571 1.129
H 31.194 -53.275 -3.225
H 31.214 -53.34 -1.039
H 31.168 -53.215 -5.408
H 31.23 -53.404 1.127
H -67.692 -7.685 0.848
H -67.639 -7.512 -1.323
H -66.38 -9.82 -1.433
H -66.425 -9.971 0.739
H -67.588 -7.358 -3.508
H -66.338 -9.679 -3.606
H -67.738 -7.852 2.994
H -66.466 -10.12 2.892
H 42.933 -32.913 -0.878
H 42.854 -32.842 -3.056
H 42.776 -32.774 -5.228
H 43.01 -32.986 1.281
H 44.242 -30.629 -0.853
H 44.163 -30.558 -3.03
H 44.086 -30.489 -5.202
H 44.319 -30.703 1.307
H -52.567 -35.366 -2.172
H -51.31 -37.657 -2.235
H -51.312 -37.722 -0.055
H -52.565 -35.306 -4.338
H -51.309 -37.597 -4.402
H -52.572 -35.502 2.167
H -51.314 -37.793 2.104
H 55.889 -10.06 -2.69
H 55.928 -10.109 -0.509
H 55.96 -10.163 1.654
H 57.206 -7.805 -2.639
H 57.229 -7.861 -0.461
H 57.189 -7.765 -4.82
H 57.242 -7.922 1.693
H 55.853 -10.013 -4.867
H -63.905 -14.604 0.584
H -63.879 -14.491 -1.587
H -63.856 -14.383 -3.747
H -63.93 -14.726 2.744
H -65.129 -12.15 -1.516
H -65.165 -12.281 0.655
H -65.097 -12.027 -3.68
H -65.198 -12.415 2.813
H 40.236 -37.407 -3.092
H 40.312 -37.475 -0.914
H 40.162 -37.34 -5.267
H 40.385 -37.547 1.245
H 41.544 -35.126 -3.077
H 41.623 -35.195 -0.899
H 41.467 -35.058 -5.25
H 41.699 -35.268 1.26
H -50.053 -39.946 -2.295
H -50.054 -40.01 -0.115
H -50.054 -39.885 -4.463
H -50.054 -40.081 2.043
H -48.795 -42.295 -0.174
H -48.796 -42.231 -2.355
H -48.8 -42.17 -4.522
H -48.793 -42.366 1.984
H 53.34 -14.644 -0.579
H 53.287 -14.591 -2.76
H 53.232 -14.538 -4.933
H 53.395 -14.701 1.584
H 54.633 -12.372 -0.544
H 54.586 -12.323 -2.725
H 54.538 -12.273 -4.899
H 54.678 -12.425 1.621
H -62.644 -16.934 0.519
H -62.626 -16.833 -1.653
H -61.371 -19.173 -1.717
H -61.382 -19.262 0.455
H -62.611 -16.74 -3.811
H -61.362 -19.092 -3.876
H -62.66 -17.043 2.681
H -61.392 -19.362 2.618
H 37.691 -42.027 -0.934
H 37.626 -41.963 -3.115
H 37.56 -41.898 -5.288
H 37.753 -42.098 1.228
H 39.001 -39.753 -0.925
H 38.93 -39.687 -3.104
H 38.859 -39.621 -5.278
H 39.069 -39.824 1.236
H -47.534 -44.578 -0.232
H -47.539 -44.513 -2.413
H -46.281 -46.792 -2.473
H -46.27 -46.858 -0.292
H -47.547 -44.452 -4.579
H -46.293 -46.729 -4.637
H -47.529 -44.649 1.925
H -46.261 -46.932 1.865
H 50.689 -19.14 -2.843
H 50.753 -19.204 -0.663
H 50.624 -19.078 -5.016
H 50.818 -19.27 1.498
H 51.988 -16.864 -2.8
H 52.048 -16.922 -0.62
H 51.928 -16.806 -4.974
H 52.108 -16.983 1.542
H -58.86 -23.908 0.33
H -58.856 -23.835 -1.844
H -58.854 -23.768 -4.004
H -58.863 -23.992 2.493
H -60.114 -21.508 -1.781
H -60.121 -21.588 0.393
H -60.109 -21.435 -3.939
H -60.126 -21.678 2.556
H 35.027 -46.504 -3.143
H 35.078 -46.568 -0.961
H 34.974 -46.44 -5.316
H 35.128 -46.638 1.205
H 36.325 -44.235 -3.127
H 36.383 -44.299 -0.945
H 36.265 -44.171 -5.3
H 36.439 -44.369 1.219
H -45.02 -49.066 -2.539
H -45.002 -49.136 -0.359
H -45.037 -49 -4.699
H -44.99 -49.213 1.799
H -43.728 -51.408 -0.44
H -43.754 -51.333 -2.62
H -43.774 -51.261 -4.774
H -43.714 -51.493 1.719
H 48.156 -23.773 -0.749
H 48.084 -23.703 -2.927
H 48.013 -23.635 -5.098
H 48.228 -23.844 1.413
H 49.456 -21.488 -0.706
H 49.388 -21.42 -2.885
H 49.319 -21.355 -5.057
H 49.524 -21.557 1.455
H -57.603 -26.302 2.429
H -35.136 -59.464 -0.94
H -35.166 -59.371 -3.036
H -35.166 -59.24 -5.258
H -35.129 -59.511 1.287
H -29.999 -59.436 -0.93
H -30.029 -59.356 -3.037
H -32.588 -59.452 -0.913
H -32.618 -59.364 -3.019
H -30.06 -59.233 -5.26
H -32.636 -59.238 -5.242
H -29.97 -59.466 1.296
H -32.571 -59.485 1.313
H -24.813 -59.375 -1.026
H -24.843 -59.301 -3.134
H -27.405 -59.41 -0.974
H -27.435 -59.335 -3.081
H -24.884 -59.173 -5.357
H -27.475 -59.209 -5.304
H -24.775 -59.408 1.2
H -27.368 -59.441 1.252
H -22.226 -59.333 -1.073
H -22.254 -59.26 -3.182
H -22.291 -59.13 -5.406
H -22.192 -59.367 1.154
H 11.077 -59.109 -1.115
H 11.074 -59.038 -3.225
H 8.514 -59.108 -1.111
H 8.513 -59.036 -3.221
H 11.069 -58.912 -5.453
H 8.512 -58.911 -5.448
H 11.081 -59.138 1.114
H 8.516 -59.135 1.119
H 16.205 -59.118 -1.128
H 16.197 -59.047 -3.239
H 13.641 -59.113 -1.121
H 13.635 -59.041 -3.231
H 16.187 -58.922 -5.466
H 13.628 -58.915 -5.458
H 16.215 -59.144 1.101
H 13.647 -59.14 1.109
H 21.34 -59.149 -1.156
H 21.33 -59.092 -3.266
H 18.771 -59.129 -1.141
H 18.762 -59.061 -3.253
H 21.314 -58.976 -5.49
H 18.749 -58.938 -5.479
H 21.357 -59.167 1.071
H 18.786 -59.152 1.088
H 23.898 -59.195 -1.158
H 23.899 -59.167 -3.255
H 23.889 -59.078 -5.474
H 23.895 -59.197 1.065
H 5.953 -59.106 -1.108
H 5.954 -59.036 -3.218
H 3.392 -59.106 -1.11
H 3.395 -59.035 -3.219
H 5.954 -58.912 -5.446
H 3.398 -58.912 -5.447
H 5.952 -59.133 1.122
H 3.388 -59.131 1.121
H 0.833 -59.107 -1.116
H 0.836 -59.036 -3.226
H -1.725 -59.109 -1.128
H -1.722 -59.039 -3.238
H 0.842 -58.913 -5.454
H -1.715 -58.915 -5.466
H 0.826 -59.132 1.114
H -1.733 -59.135 1.103
H -4.282 -59.115 -1.141
H -4.281 -59.045 -3.251
H -6.838 -59.126 -1.152
H -6.839 -59.056 -3.263
H -4.274 -58.919 -5.479
H -6.836 -58.928 -5.491
H -4.289 -59.142 1.09
H -6.842 -59.154 1.079
H -9.393 -59.144 -1.158
H -9.398 -59.073 -3.269
H -11.949 -59.169 -1.157
H -11.959 -59.098 -3.269
H -9.4 -58.945 -5.496
H -11.967 -58.969 -5.495
H -9.393 -59.172 1.073
H -11.944 -59.198 1.074
H -14.509 -59.203 -1.149
H -14.524 -59.131 -3.261
H -17.074 -59.243 -1.133
H -17.094 -59.171 -3.245
H -14.539 -59.002 -5.486
H -17.116 -59.041 -5.47
H -14.497 -59.232 1.082
H -17.054 -59.274 1.096
H -19.646 -59.288 -1.109
H -19.671 -59.215 -3.219
H -19.701 -59.084 -5.443
H -19.619 -59.32 1.119
C -52.685 -3.628 1.587
C -52.71 -3.475 -1.046
C -52.725 -3.388 -2.616
C -52.669 -3.716 3.157
C -48.855 -2.871 1.033
C -48.878 -2.792 -0.519
C -50.161 -3.489 -1.081
C -51.41 -2.869 1.077
C -51.428 -2.784 -0.475
C -50.127 -3.632 1.552
C -48.919 -2.664 -3.201
C -51.462 -2.648 -3.158
C -50.183 -3.406 -2.651
C -48.812 -3.013 3.705
C -50.105 -3.715 3.121
C -51.375 -3.02 3.749
C -47.571 -3.632 1.507
C -47.611 -3.497 -1.126
C -47.636 -3.419 -2.695
C -47.545 -3.71 3.076
C -43.745 -2.867 0.931
C -43.771 -2.797 -0.621
C -45.059 -3.502 -1.174
C -46.3 -2.87 0.983
C -46.326 -2.795 -0.569
C -45.015 -3.629 1.458
C -43.819 -2.684 -3.301
C -46.372 -2.676 -3.25
C -45.085 -3.428 -2.744
C -43.697 -2.993 3.603
C -44.988 -3.703 3.028
C -46.253 -3.004 3.655
C -42.459 -3.625 1.409
C -42.504 -3.505 -1.223
C -42.531 -3.434 -2.793
C -42.432 -3.695 2.979
C -38.632 -2.86 0.834
C -38.657 -2.796 -0.719
C -39.946 -3.506 -1.27
C -41.189 -2.864 0.881
C -41.215 -2.797 -0.672
C -39.903 -3.62 1.362
C -38.701 -2.693 -3.397
C -41.262 -2.69 -3.351
C -39.972 -3.438 -2.84
C -38.587 -2.976 3.505
C -39.876 -3.688 2.932
C -41.142 -2.984 3.552
C -37.345 -3.617 1.318
C -37.386 -3.506 -1.314
C -37.411 -3.439 -2.884
C -37.32 -3.682 2.888
C -33.511 -2.858 0.754
C -33.533 -2.795 -0.799
C -34.824 -3.505 -1.353
C -36.073 -2.858 0.791
C -36.096 -2.795 -0.762
C -34.786 -3.615 1.278
C -33.569 -2.693 -3.477
C -36.136 -2.694 -3.44
C -34.846 -3.439 -2.924
C -33.474 -2.972 3.426
C -34.763 -3.68 2.848
C -36.032 -2.972 3.463
C -32.224 -3.616 1.243
C -32.259 -3.504 -1.388
C -32.28 -3.437 -2.959
C -32.203 -3.681 2.813
C -28.379 -2.868 0.695
C -28.398 -2.801 -0.857
C -29.692 -3.505 -1.419
C -30.947 -2.861 0.722
C -30.967 -2.797 -0.83
C -29.658 -3.62 1.212
C -28.429 -2.694 -3.536
C -31 -2.692 -3.509
C -29.711 -3.437 -2.99
C -28.347 -2.987 3.366
C -29.639 -3.686 2.782
C -30.913 -2.977 3.394
C -27.089 -3.627 1.184
C -27.122 -3.509 -1.447
C -27.14 -3.439 -3.018
C -27.07 -3.695 2.754
C -23.231 -2.893 0.64
C -23.251 -2.823 -0.912
C -24.549 -3.517 -1.476
C -25.807 -2.878 0.669
C -25.826 -2.81 -0.884
C -24.515 -3.638 1.156
C -23.285 -2.71 -3.593
C -25.858 -2.699 -3.563
C -24.568 -3.445 -3.046
C -23.196 -3.019 3.312
C -24.496 -3.708 2.726
C -25.775 -3.001 3.34
C -21.937 -3.652 1.124
C -21.974 -3.528 -1.509
C -21.994 -3.457 -3.079
C -21.916 -3.723 2.694
C -20.651 -2.91 0.605
C -20.673 -2.839 -0.947
C -20.711 -2.726 -3.629
C -20.612 -3.037 3.278
C -57.811 -3.599 1.609
C -57.807 -3.423 -1.025
C -57.805 -3.326 -2.594
C -57.81 -3.698 3.178
C -53.966 -2.863 1.108
C -53.978 -2.771 -0.443
C -55.257 -3.454 -1.026
C -56.525 -2.85 1.123
C -56.53 -2.752 -0.428
C -55.246 -3.618 1.608
C -53.999 -2.625 -3.127
C -56.534 -2.593 -3.114
C -55.265 -3.362 -2.595
C -53.943 -3.025 3.781
C -55.237 -3.711 3.177
C -56.517 -3.024 3.796
C -62.962 -3.532 1.555
C -62.922 -3.33 -1.079
C -62.896 -3.218 -2.649
C -62.978 -3.642 3.122
C -59.089 -2.83 1.118
C -59.084 -2.723 -0.432
C -60.36 -3.382 -1.043
C -61.661 -2.801 1.095
C -61.647 -2.685 -0.454
C -60.382 -3.571 1.591
C -59.071 -2.551 -3.119
C -61.612 -2.497 -3.143
C -60.347 -3.278 -2.613
C -59.097 -3.017 3.792
C -60.389 -3.675 3.159
C -61.685 -3.002 3.769
C -68.163 -3.453 1.459
C -68.08 -3.227 -1.224
C -68.017 -3.103 -2.816
C -68.202 -3.568 3.044
C -64.248 -2.765 1.055
C -64.221 -2.641 -0.493
C -65.496 -3.272 -1.134
C -66.853 -2.728 1.002
C -66.812 -2.597 -0.554
C -65.556 -3.487 1.507
C -64.161 -2.435 -3.184
C -66.715 -2.373 -3.255
C -65.452 -3.152 -2.704
C -64.285 -2.977 3.731
C -65.581 -3.599 3.074
C -66.904 -2.943 3.687
C -69.451 -2.709 0.915
C -69.393 -2.573 -0.62
C -69.257 -2.339 -3.429
C -69.532 -2.915 3.684
H -33.583 -2.894 -4.54
H -36.152 -2.896 -4.503
H -33.459 -3.264 4.467
H -36.015 -3.263 4.505
H -28.441 -2.89 -4.6
H -31.012 -2.891 -4.572
H -28.337 -3.283 4.407
H -30.901 -3.27 4.435
H -23.298 -2.902 -4.658
H -25.869 -2.893 -4.628
H -23.184 -3.322 4.351
H -25.765 -3.301 4.38
H -20.725 -2.919 -4.693
H -20.598 -3.342 4.316
H -64.13 -2.58 -4.256
H -66.657 -2.496 -4.328
H -69.215 -2.474 -4.501
H -41.122 -3.279 4.593
H -53.936 -3.344 4.815
H -43.676 -3.292 4.643
H -56.518 -3.351 4.828
H -46.232 -3.307 4.693
H -59.107 -3.353 4.82
H -48.793 -3.321 4.742
H -51.361 -3.334 4.784
H -38.568 -3.269 4.547
H -38.718 -2.894 -4.46
H -61.592 -2.654 -4.214
H -41.28 -2.889 -4.414
H -51.476 -2.832 -4.224
H -54.007 -2.805 -4.194
H -56.533 -2.768 -4.182
H -46.391 -2.868 -4.314
H -48.938 -2.852 -4.266
H -43.839 -2.88 -4.365
H -59.06 -2.718 -4.188
C 8.97 -3.653 0.547
C 8.922 -3.628 -2.098
C 8.893 -3.614 -3.671
C 9.001 -3.669 2.119
C 12.803 -2.924 -0.071
C 12.775 -2.917 -1.624
C 11.484 -3.629 -2.146
C 10.242 -2.931 -0.02
C 10.213 -2.919 -1.574
C 11.532 -3.645 0.499
C 12.725 -2.915 -4.316
C 10.163 -2.907 -4.266
C 11.456 -3.62 -3.718
C 12.856 -2.945 2.621
C 11.562 -3.656 2.071
C 10.295 -2.96 2.671
C 14.093 -3.637 0.451
C 14.046 -3.63 -2.194
C 14.018 -3.625 -3.766
C 14.123 -3.643 2.023
C 17.925 -2.912 -0.172
C 17.898 -2.914 -1.726
C 16.608 -3.631 -2.242
C 15.364 -2.918 -0.122
C 15.337 -2.916 -1.675
C 16.654 -3.629 0.403
C 17.85 -2.927 -4.417
C 15.287 -2.921 -4.366
C 16.58 -3.63 -3.814
C 17.976 -2.917 2.52
C 16.684 -3.631 1.975
C 15.416 -2.931 2.57
C 19.215 -3.622 0.356
C 19.17 -3.63 -2.289
C 19.143 -3.634 -3.862
C 19.244 -3.62 1.928
C 23.048 -2.901 -0.268
C 23.023 -2.909 -1.822
C 21.733 -3.629 -2.335
C 20.487 -2.906 -0.221
C 20.46 -2.912 -1.775
C 21.776 -3.616 0.31
C 22.98 -2.932 -4.511
C 20.414 -2.931 -4.465
C 21.707 -3.636 -3.907
C 21.803 -3.611 1.882
C 20.535 -2.906 2.471
C 24.337 -3.61 0.267
C 24.296 -3.627 -2.378
C 24.272 -3.635 -3.95
C 24.363 -3.604 1.839
C 28.172 -2.891 -0.347
C 28.151 -2.9 -1.901
C 26.861 -3.622 -2.417
C 25.61 -2.896 -0.31
C 25.587 -2.905 -1.864
C 26.899 -3.605 0.227
C 28.116 -2.924 -4.59
C 25.547 -2.93 -4.553
C 26.839 -3.631 -3.99
C 28.21 -2.885 2.345
C 26.922 -3.599 1.799
C 29.461 -3.601 0.192
C 29.426 -3.616 -2.452
C 29.407 -3.623 -4.025
C 29.482 -3.596 1.764
C 33.298 -2.884 -0.404
C 33.28 -2.887 -1.958
C 31.991 -3.609 -2.482
C 30.735 -2.887 -0.378
C 30.716 -2.894 -1.932
C 32.023 -3.598 0.162
C 33.253 -2.902 -4.648
C 30.685 -2.914 -4.621
C 31.974 -3.613 -4.055
C 33.328 -2.886 2.288
C 32.042 -3.595 1.734
C 30.768 -2.884 2.314
C 34.586 -3.597 0.136
C 34.556 -3.6 -2.509
C 34.54 -3.601 -4.081
C 34.603 -3.597 1.708
C 35.861 -2.881 -0.425
C 35.844 -2.88 -1.979
C 35.82 -2.887 -4.67
C 35.889 -2.891 2.266
C 7.679 -2.937 0.031
C 7.65 -2.92 -1.523
C 6.358 -3.627 -2.05
C 6.407 -3.662 0.595
C 7.6 -2.9 -4.215
C 6.329 -3.607 -3.622
C 7.733 -2.975 2.722
C 6.438 -3.684 2.167
C -16.773 -3.68 1.045
C -16.815 -3.56 -1.589
C -16.839 -3.491 -3.16
C -16.747 -3.751 2.615
C -14.233 -3.576 -1.635
C -15.486 -2.943 0.52
C -15.511 -2.876 -1.032
C -14.189 -3.692 1.001
C -15.555 -2.769 -3.717
C -14.258 -3.51 -3.205
C -14.161 -3.76 2.571
C -15.439 -3.066 3.195
C -18.069 -2.927 0.565
C -18.093 -2.858 -0.987
C -19.395 -3.543 -1.547
C -19.356 -3.667 1.087
C -18.134 -2.747 -3.671
C -19.418 -3.473 -3.117
C -18.026 -3.054 3.239
C -19.332 -3.738 2.657
H 28.104 -3.193 -5.638
H 25.533 -3.199 -5.601
H 28.226 -3.125 3.4
H 33.245 -3.164 -5.697
H 30.675 -3.181 -5.67
H 33.341 -3.131 3.342
H 30.783 -3.126 3.368
H 35.813 -3.145 -5.721
H 35.901 -3.14 3.319
H -15.571 -2.969 -4.781
H -15.42 -3.372 4.233
H -18.15 -2.942 -4.735
H -18.009 -3.36 4.276
H 20.555 -3.149 3.525
H 7.756 -3.239 3.771
H 17.997 -3.164 3.573
H 15.438 -3.181 3.623
H 12.878 -3.2 3.672
H 10.317 -3.219 3.722
H 22.964 -3.2 -5.559
H 20.397 -3.196 -5.514
H 10.147 -3.157 -5.318
H 7.583 -3.146 -5.268
H 15.27 -3.179 -5.417
H 12.708 -3.168 -5.368
H 17.833 -3.189 -5.466
C 38.425 -2.879 -0.446
C 38.408 -2.874 -2
C 37.119 -3.591 -2.532
C 37.148 -3.596 0.112
C 38.384 -2.873 -4.691
C 37.104 -3.588 -4.105
C 38.452 -2.898 2.246
C 37.165 -3.601 1.685
C 39.712 -3.596 0.088
C 39.682 -3.583 -2.557
C 39.667 -3.575 -4.13
C 39.729 -3.606 1.66
C 40.989 -2.879 -0.469
C 40.971 -2.869 -2.023
C 40.945 -2.859 -4.715
C 41.017 -2.906 2.223
H 38.377 -3.126 -5.743
H 38.464 -3.151 3.297
H 40.936 -3.109 -5.768
H 41.031 -3.164 3.273
C 43.553 -2.88 -0.498
C 43.535 -2.864 -2.052
C 42.245 -3.575 -2.586
C 42.276 -3.597 0.06
C 43.507 -2.847 -4.744
C 42.229 -3.562 -4.158
C 43.583 -2.915 2.195
C 42.293 -3.612 1.632
C 44.84 -3.598 0.026
C 44.81 -3.568 -2.62
C 44.793 -3.55 -4.192
C 44.858 -3.618 1.598
C 46.119 -2.881 -0.533
C 46.103 -2.861 -2.086
C 46.075 -2.836 -4.779
C 46.148 -2.924 2.161
H 43.496 -3.094 -5.798
H 43.599 -3.177 3.244
H 46.06 -3.08 -5.833
H 46.165 -3.19 3.209
C 48.69 -2.882 -0.571
C 48.677 -2.857 -2.124
C 47.38 -3.56 -2.659
C 47.407 -3.599 -0.013
C 48.653 -2.823 -4.816
C 47.364 -3.537 -4.231
C 48.712 -2.933 2.124
C 47.422 -3.624 1.559
C 49.977 -3.598 -0.052
C 49.959 -3.55 -2.697
C 49.948 -3.52 -4.27
C 49.985 -3.629 1.52
C 51.267 -2.883 -0.603
C 51.262 -2.852 -2.155
C 51.251 -2.808 -4.847
C 51.272 -2.944 2.092
H 48.637 -3.066 -5.871
H 48.728 -3.203 3.172
H 51.235 -3.046 -5.903
H 51.284 -3.218 3.138
C 53.856 -2.886 -0.614
C 53.865 -2.846 -2.166
C 52.553 -3.537 -2.724
C 52.553 -3.598 -0.08
C 53.874 -2.786 -4.859
C 52.551 -3.499 -4.297
C 53.831 -2.958 2.079
C 52.548 -3.635 1.491
C 55.139 -3.601 -0.08
C 55.165 -3.522 -2.728
C 55.175 -3.476 -4.302
C 55.113 -3.644 1.491
C 56.489 -2.842 -2.144
C 56.525 -2.763 -4.842
H 53.863 -3.013 -5.917
H 53.829 -3.238 3.124
H 56.507 -2.956 -5.907
C 59.059 -2.932 -0.518
C 59.106 -2.85 -2.053
C 57.791 -3.521 -2.708
C 57.733 -3.624 -0.025
C 59.175 -2.767 -4.851
C 57.819 -3.479 -4.302
C 57.689 -3.666 1.561
H 59.174 -2.922 -5.922
H -70.282 -3.007 -1.059
H -70.364 -3.228 1.174
H -70.168 -2.851 -3.149
H -70.419 -3.315 3.21
H 60.052 -3.313 -4.528
H 59.944 -3.466 -0.199
H 60.013 -3.312 -2.419
H -61.702 -3.35 4.802
C 5.171 -2.992 2.773
C 2.608 -3.009 2.827
C 0.041 -3.026 2.883
C -2.53 -3.044 2.94
C -5.105 -3.058 2.997
C -7.684 -3.069 3.051
C -10.267 -3.075 3.101
C -12.852 -3.074 3.149
H -2.504 -3.328 3.984
H -5.08 -3.349 4.039
H -7.661 -3.365 4.091
H -10.245 -3.375 4.141
H -12.832 -3.377 4.188
H 5.195 -3.259 3.821
H 2.632 -3.281 3.874
H 0.067 -3.305 3.928
C 3.842 -3.671 0.645
C 3.793 -3.626 -1.999
C 3.763 -3.6 -3.571
C 3.875 -3.698 2.216
C 5.116 -2.944 0.083
C 5.086 -2.921 -1.47
C 5.035 -2.892 -4.162
C -1.294 -3.688 0.751
C -1.345 -3.621 -1.891
C -1.375 -3.582 -3.463
C -1.26 -3.729 2.322
C 2.55 -2.951 0.138
C 2.52 -2.922 -1.415
C 1.225 -3.624 -1.946
C -0.018 -2.957 0.196
C -0.048 -2.922 -1.357
C 1.276 -3.68 0.697
C 2.467 -2.882 -4.107
C -0.102 -2.872 -4.049
C 1.195 -3.592 -3.518
C 1.309 -3.714 2.268
C -6.443 -3.701 0.858
C -6.493 -3.611 -1.782
C -6.522 -3.56 -3.353
C -6.411 -3.754 2.429
C -2.589 -2.963 0.255
C -2.619 -2.922 -1.298
C -3.917 -3.617 -1.836
C -5.163 -2.966 0.313
C -5.192 -2.919 -1.24
C -3.867 -3.696 0.805
C -2.673 -2.86 -3.989
C -5.245 -2.846 -3.93
C -3.947 -3.572 -3.408
C -3.833 -3.743 2.376
C -11.605 -3.699 0.955
C -11.651 -3.591 -1.682
C -11.677 -3.529 -3.253
C -11.576 -3.763 2.526
C -7.74 -2.967 0.369
C -7.769 -2.913 -1.184
C -9.071 -3.602 -1.731
C -10.32 -2.963 0.422
C -10.348 -2.904 -1.131
C -9.023 -3.702 0.908
C -7.819 -2.83 -3.872
C -10.396 -2.812 -3.818
C -9.098 -3.545 -3.302
C -8.992 -3.761 2.478
C -12.903 -2.955 0.472
C -12.929 -2.892 -1.08
C -12.975 -2.792 -3.767
H -2.691 -3.085 -5.047
H -5.263 -3.065 -4.989
H -7.836 -3.044 -4.933
H -10.412 -3.021 -4.88
H -12.991 -2.995 -4.829
H -0.12 -3.103 -5.106
H 5.018 -3.133 -5.217
H 2.449 -3.119 -5.163
H -64.174 -0.485 -4.046
H -66.729 -0.418 -4.088
H -69.302 -0.374 -4.183
H -69.606 -3.303 4.698
H -66.909 -3.294 4.719
H -64.304 -3.334 4.76
H -78.847 2.179 -3.358
C 29.726 63.383 -0.285
C 29.63 63.128 2.337
C 30.578 60.772 2.095
C 30.916 62.455 0.194
C 30.876 62.316 1.785
C 30.672 61.033 -0.589
C 29.532 62.998 3.926
C 30.712 62.078 4.368
C 30.46 60.618 3.644
C 29.784 63.541 -1.869
C 30.741 61.211 -2.131
C 31.023 62.735 -2.387
C 28.328 62.645 0.057
C 28.272 62.474 1.6
C 28.121 62.173 4.263
C 28.43 62.963 -2.579
H 30.64 61.925 5.437
H 31.093 62.886 -3.456
H 28.106 61.947 5.321
H 28.486 63.153 -3.642
H 27.508 63.311 -0.178
H 27.41 63.025 1.952
H 27.263 62.821 4.139
H 27.569 63.539 -2.264
H 31.476 60.362 -0.317
H 31.447 60.192 1.813
H 31.241 59.961 4.004
H 31.589 60.651 -2.504
C 29.297 60.297 -0.279
C 29.249 60.147 1.307
C 29.066 59.84 3.891
C 29.414 60.634 -2.856
C 26.736 60.387 -0.467
C 26.674 60.22 1.074
C 27.99 60.909 1.863
C 28.101 61.203 -0.757
C 26.521 59.905 3.714
C 27.887 60.739 3.44
C 26.844 60.694 -3.107
C 28.158 61.391 -2.33
C 29.141 58.869 -1.105
C 29.051 58.606 1.572
C 28.952 58.435 3.116
C 29.197 59.063 -2.648
H 28.963 59.641 4.949
H 29.505 60.83 -3.916
H 26.441 59.693 4.772
H 26.963 60.854 -4.171
H 25.783 60.742 1.397
H 25.9 61.02 -0.734
H 25.665 60.538 3.519
H 25.941 61.242 -2.873
H 30 58.262 -0.85
H 29.966 58.112 1.275
H 29.791 57.851 3.472
H 30.086 58.58 -3.032
C 32.594 64.585 0.515
C 32.566 64.49 2.085
C 32.481 64.347 4.704
C 32.663 64.76 -2.103
C 29.972 64.815 0.457
C 29.937 64.684 1.995
C 31.326 65.279 2.648
C 31.387 65.443 -0.001
C 29.84 64.476 4.681
C 31.274 65.202 4.22
C 30.05 65.062 -2.203
C 31.431 65.544 -1.561
C 32.338 63.141 -0.183
C 32.266 62.943 2.506
C 32.169 62.842 4.056
C 32.399 63.262 -1.724
H 32.46 64.27 5.783
H 32.687 64.828 -3.183
H 29.89 64.303 5.748
H 30.049 65.24 -3.27
H 29.088 65.238 2.371
H 29.119 65.432 0.208
H 28.987 65.131 4.57
H 29.182 65.579 -1.817
H 33.129 62.468 0.118
H 32.941 62.184 4.434
H 33.215 62.653 -2.091
H 33.113 62.329 2.232
C -41.763 62.799 -0.647
C -41.751 62.77 2.012
C -39.226 62.656 2.016
C -40.454 63.519 -0.115
C -40.449 63.505 1.484
C -39.237 62.682 -0.694
C -41.757 62.75 3.609
C -40.453 63.47 4.099
C -39.231 62.64 3.578
C -41.792 62.815 -2.245
C -39.268 62.684 -2.259
C -40.496 63.543 -2.733
C -41.75 61.302 -0.121
C -41.749 61.289 1.442
C -41.752 61.258 4.13
C -41.786 61.332 -2.815
H -40.431 63.458 5.18
H -40.499 63.575 -3.814
H -41.724 61.268 5.211
H -41.759 61.38 -3.895
H -42.668 60.822 -0.434
H -42.668 60.801 1.738
H -42.684 60.765 3.887
H -42.724 60.837 -2.598
H -38.315 63.172 -0.413
H -38.311 63.147 1.714
H -38.328 63.117 3.936
H -38.376 63.166 -2.637
C -39.231 61.183 -0.147
C -39.228 61.166 1.453
C -39.24 61.145 4.09
C -39.272 61.184 -2.786
C -40.552 58.981 -0.121
C -40.57 58.976 1.417
C -40.522 60.447 1.99
C -40.523 60.464 -0.689
C -40.565 58.938 4.169
C -40.523 60.423 3.582
C -40.572 58.992 -2.917
C -40.553 60.465 -2.288
C -37.973 60.436 -0.727
C -37.967 60.41 2.035
C -37.97 60.403 3.583
C -38.004 60.411 -2.275
H -39.229 61.141 5.172
H -39.262 61.196 -3.868
H -40.928 59.007 5.186
H -40.778 59.121 -3.971
H -41.466 58.449 1.717
H -41.409 58.437 -0.496
H -41.351 58.368 3.693
H -41.445 58.451 -2.577
H -37.058 60.921 -0.414
H -37.052 60.866 1.68
H -37.078 60.856 3.995
H -37.118 60.839 -2.725
C -41.66 65.837 -0.044
C -41.66 65.823 1.533
C -41.659 65.795 4.171
C -41.678 65.876 -2.683
C -42.995 63.597 -0.065
C -42.99 63.578 1.481
C -42.907 65.026 2.077
C -42.912 65.061 -0.605
C -42.982 63.55 4.202
C -42.91 65.01 3.647
C -43.024 63.647 -2.782
C -42.927 65.087 -2.173
C -40.424 65.036 -0.64
C -40.417 65.011 2.067
C -40.42 64.991 3.619
C -40.444 65.048 -2.193
H -41.629 65.775 5.252
H -41.671 65.903 -3.765
H -42.941 63.567 5.283
H -43.021 63.705 -3.862
H -43.885 63.066 1.81
H -43.896 63.099 -0.398
H -43.904 63.043 3.948
H -43.938 63.131 -2.518
H -39.496 65.504 -0.339
H -39.514 65.449 3.993
H -39.544 65.513 -2.574
H -39.499 65.495 1.761
C 30.951 -61.881 -3.053
C 30.814 -61.802 -0.401
C 28.253 -61.964 -0.569
C 29.691 -62.714 -2.561
C 29.621 -62.681 -0.965
C 28.373 -62.033 -3.259
C 30.725 -61.755 1.193
C 29.462 -62.582 1.632
C 28.166 -61.908 0.987
C 31.053 -61.932 -4.648
C 28.477 -62.083 -4.817
C 29.865 -62.816 -5.157
C 30.696 -60.389 -2.634
C 30.634 -60.348 -1.071
C 30.495 -60.271 1.622
C 30.831 -60.49 -5.333
H 29.356 -62.524 2.707
H 29.937 -62.914 -6.232
H 30.372 -60.247 2.697
H 30.841 -60.625 -6.406
H 31.562 -59.811 -2.93
H 31.463 -59.729 -0.753
H 31.384 -59.685 1.43
H 31.682 -59.851 -5.139
H 27.498 -62.619 -3.008
H 27.43 -62.583 -0.899
H 27.297 -62.466 1.309
H 27.683 -62.705 -5.211
C 28.132 -60.512 -2.81
C 28.087 -60.483 -1.213
C 27.974 -60.396 1.413
C 28.268 -60.59 -5.425
C 29.266 -58.221 -2.844
C 29.238 -58.194 -1.306
C 29.291 -59.641 -0.648
C 29.387 -59.708 -3.323
C 29.168 -58.133 1.464
C 29.227 -59.601 0.945
C 29.321 -58.273 -5.637
C 29.461 -59.735 -4.921
C 26.799 -59.832 -3.48
C 26.73 -59.795 -0.74
C 26.677 -59.756 0.802
C 26.872 -59.846 -5.031
H 27.889 -60.344 2.491
H 28.31 -60.665 -6.504
H 29.488 -58.119 2.498
H 29.53 -58.456 -6.683
H 30.089 -57.6 -1.002
H 30.1 -57.641 -3.216
H 29.951 -57.573 0.97
H 30.15 -57.642 -5.344
H 25.892 -60.348 -3.193
H 25.858 -60.313 -1.118
H 25.788 -60.24 1.184
H 26.029 -60.346 -5.489
C 31.208 -64.871 -2.269
C 31.139 -64.847 -0.693
C 30.981 -64.769 1.925
C 31.371 -64.968 -4.888
C 32.276 -62.513 -2.336
C 32.2 -62.477 -0.787
C 32.293 -63.93 -0.112
C 32.418 -63.994 -2.781
C 32.02 -62.392 1.924
C 32.202 -63.885 1.463
C 32.443 -62.636 -5.042
C 32.516 -64.053 -4.343
C 29.899 -64.232 -2.987
C 29.765 -64.169 -0.297
C 29.672 -64.116 1.25
C 30.004 -64.284 -4.532
H 30.869 -64.718 3
H 31.436 -65.043 -5.965
H 31.871 -62.371 2.996
H 32.507 -62.766 -6.114
H 33.017 -61.861 -0.433
H 33.152 -61.95 -2.63
H 32.912 -61.807 1.743
H 33.285 -62.01 -4.777
H 29.005 -64.782 -2.723
H 28.802 -64.667 1.58
H 29.189 -64.863 -4.947
H 28.936 -64.776 -0.635
C -40.633 -62.759 -3.46
C -40.599 -62.81 -0.795
C -41.724 -60.552 -0.741
C -41.876 -61.963 -2.9
C -41.854 -61.997 -1.303
C -41.759 -60.494 -3.447
C -40.578 -62.838 0.803
C -41.813 -62.028 1.319
C -41.704 -60.579 0.812
C -40.634 -62.753 -5.064
C -41.75 -60.481 -5.009
C -41.888 -61.954 -5.524
C -39.325 -62.07 -2.929
C -39.301 -62.118 -1.372
C -39.259 -62.185 1.32
C -39.345 -62.015 -5.636
H -41.808 -62.015 2.401
H -41.929 -61.944 -6.606
H -39.25 -62.191 2.402
H -39.421 -61.958 -6.714
H -38.468 -62.629 -3.282
H -38.428 -62.696 -1.101
H -38.394 -62.766 1.028
H -38.451 -62.599 -5.462
H -42.631 -59.926 -3.15
H -42.591 -59.976 -1.039
H -42.546 -60.013 1.187
H -42.602 -59.926 -5.378
C -40.455 -59.817 -2.876
C -40.429 -59.866 -1.286
C -40.393 -59.949 1.337
C -40.447 -59.752 -5.502
C -37.923 -59.872 -2.865
C -37.9 -59.935 -1.313
C -39.179 -60.672 -0.784
C -39.21 -60.585 -3.444
C -37.863 -60.04 1.362
C -39.155 -60.721 0.8
C -37.932 -59.755 -5.559
C -39.202 -60.549 -5.036
C -40.373 -58.34 -3.366
C -40.341 -58.434 -0.669
C -40.325 -58.488 0.882
C -40.357 -58.295 -4.925
H -40.4 -59.98 2.419
H -40.465 -59.704 -6.583
H -37.862 -60.093 2.442
H -38.003 -59.647 -6.634
H -37.037 -60.533 -1.053
H -37.067 -60.425 -3.227
H -36.996 -60.611 1.055
H -37.042 -60.353 -5.412
H -41.289 -57.849 -3.066
H -41.243 -57.913 -0.962
H -41.216 -58.007 1.263
H -41.237 -57.785 -5.294
C -43.303 -64.089 -2.823
C -43.292 -64.112 -1.247
C -43.261 -64.112 1.395
C -43.335 -64.116 -5.461
C -40.739 -64.221 -2.888
C -40.722 -64.259 -1.34
C -42.044 -64.876 -0.708
C -42.061 -64.838 -3.395
C -40.692 -64.285 1.383
C -42.032 -64.882 0.861
C -40.788 -64.219 -5.623
C -42.074 -64.856 -4.957
C -43.202 -62.628 -3.426
C -43.169 -62.657 -0.713
C -43.151 -62.663 0.836
C -43.205 -62.64 -4.979
H -43.246 -64.078 2.476
H -43.377 -64.13 -6.542
H -40.682 -64.276 2.465
H -40.906 -64.213 -6.699
H -39.806 -64.753 -1.044
H -39.863 -64.725 -3.276
H -39.804 -64.812 1.061
H -39.851 -64.729 -5.444
H -44.031 -62.005 -3.12
H -43.958 -62.051 1.215
H -44.029 -62.058 -5.369
H -44.009 -62.051 -1.029
C 68.948 1.11 -0.779
C 68.845 1.073 0.792
C 68.668 0.996 3.41
C 69.13 1.178 -3.391
C 68.758 -0.449 1.29
C 68.931 -0.382 -1.362
C 68.656 -0.499 2.867
C 69.043 -0.342 -2.932
H 68.592 0.986 4.489
H 69.184 1.225 -4.471
