31730
GENERATED BY SAMSON 2025 R1
C -3.419 79.718 0.562
C -3.436 79.708 2.121
C -3.529 76.822 -0.033
C -3.539 76.806 2.68
C -4.727 79.03 2.671
C -4.771 77.591 0.523
C -4.782 77.575 2.114
C -4.703 79.058 -0.002
C -3.455 79.705 4.829
C -3.545 76.814 4.238
C -4.802 77.572 4.752
C -4.739 79.036 4.268
C -3.405 79.741 -2.148
C -3.524 76.844 -1.593
C -4.698 79.087 -1.595
C -4.756 77.634 -2.118
C -5.917 79.836 0.566
C -5.933 79.81 2.116
C -6.086 77.003 -0.059
C -6.11 76.979 2.651
C -5.973 79.767 4.868
C -6.13 76.988 4.21
C -5.91 79.894 -2.125
C -6.072 77.026 -1.618
C 8.078 78.235 2.728
C 7.778 76.794 0.597
C 7.77 76.781 2.188
C 8.092 78.259 0.072
C 7.738 76.795 4.811
C 8.066 78.248 4.312
C 8.097 78.274 -1.507
C 7.805 76.826 -2.029
C 6.963 79.299 0.56
C 6.97 79.296 2.137
C 6.423 76.367 0.024
C 6.401 76.368 2.727
C 5.541 78.799 2.663
C 5.332 77.305 0.576
C 5.326 77.315 2.153
C 5.54 78.781 0.043
C 6.963 79.324 4.746
C 6.383 76.384 4.281
C 5.319 77.36 4.789
C 5.543 78.817 4.249
C 6.949 79.283 -2.049
C 6.438 76.382 -1.533
C 5.536 78.781 -1.544
C 5.344 77.315 -2.061
C 4.325 79.701 0.557
C 4.33 79.715 2.133
C 4.03 76.715 0.014
C 4.018 76.743 2.719
C 2.942 79.037 2.668
C 2.846 77.516 0.562
C 2.842 77.535 2.151
C 2.944 79.005 0.021
C 4.345 79.74 4.739
C 4.013 76.774 4.274
C 2.839 77.59 4.776
C 2.945 79.068 4.247
C 4.321 79.688 -2.047
C 4.04 76.718 -1.541
C 2.948 79.002 -1.559
C 2.86 77.515 -2.063
C 1.615 79.643 0.557
C 1.61 79.663 2.106
C 1.577 76.785 0.004
C 1.571 76.813 2.713
C 0.337 78.954 2.673
C 0.308 77.47 0.553
C 0.304 77.484 2.143
C 0.346 78.931 0.005
C 1.614 79.709 4.803
C 1.572 76.845 4.271
C 0.301 77.524 4.783
C 0.336 78.982 4.266
C 1.629 79.621 -2.151
C 1.584 76.786 -1.555
C 0.353 78.933 -1.589
C 0.318 77.47 -2.088
C -0.91 79.662 0.558
C -0.923 79.668 2.117
C -0.967 76.757 -0.012
C -0.97 76.768 2.702
C -0.933 79.685 4.823
C -0.971 76.789 4.261
C -0.896 79.661 -2.149
C -0.964 76.766 -1.571
C 8.764 82.857 2.589
C 8.465 81.464 0.447
C 8.508 81.459 1.998
C 8.699 82.855 -0.138
C 8.55 81.434 4.697
C 8.781 82.846 4.15
C 8.663 82.848 -1.701
C 8.347 81.477 -2.319
C 7.64 83.809 0.469
C 7.673 83.809 2.05
C 7.151 80.802 -0.03
C 7.199 80.8 2.614
C 6.297 83.262 2.605
C 5.996 81.747 0.515
C 6.022 81.747 2.103
C 6.245 83.26 -0.016
C 7.707 83.801 4.676
C 7.214 80.804 4.186
C 6.069 81.755 4.681
C 6.326 83.26 4.184
C 7.569 83.81 -2.152
C 7.123 80.788 -1.607
C 6.214 83.247 -1.596
C 5.942 81.724 -2.06
C 5.137 84.24 0.525
C 5.168 84.242 2.104
C 4.579 81.209 0.019
C 4.616 81.224 2.658
C 3.838 83.692 2.703
C 3.554 82.268 0.58
C 3.579 82.276 2.133
C 3.789 83.682 -0.016
C 5.236 84.242 4.725
C 4.643 81.23 4.233
C 3.664 82.286 4.859
C 3.877 83.695 4.265
C 5.106 84.222 -2.099
C 4.557 81.196 -1.552
C 3.772 83.668 -1.579
C 3.537 82.245 -2.135
C 9.597 87.236 2.59
C 9.292 85.815 0.456
C 9.321 85.818 2.014
C 9.549 87.232 -0.131
C 9.349 85.807 4.718
C 9.615 87.226 4.154
C 9.513 87.22 -1.694
C 9.224 85.8 -2.246
C 8.467 88.202 0.451
C 8.495 88.204 2.045
C 7.909 85.266 -0.064
C 7.96 85.267 2.581
C 7.102 87.693 2.59
C 6.79 86.222 0.488
C 6.821 86.223 2.07
C 7.055 87.691 -0.045
C 8.522 88.185 4.675
C 7.984 85.258 4.161
C 6.867 86.214 4.671
C 7.129 87.681 4.172
C 8.402 88.177 -2.178
C 7.876 85.258 -1.641
C 7.025 87.675 -1.627
C 6.742 86.208 -2.113
C 5.937 88.664 0.494
C 5.965 88.666 2.088
C 5.385 85.71 -0.017
C 5.434 85.715 2.628
C 4.611 88.142 2.676
C 4.312 86.715 0.543
C 4.34 86.717 2.102
C 4.562 88.138 -0.046
C 6.024 88.642 4.718
C 5.467 85.709 4.206
C 4.406 86.703 4.804
C 4.644 88.131 4.241
C 5.903 88.634 -2.137
C 5.359 85.697 -1.596
C 4.541 88.122 -1.611
C 4.281 86.691 -2.161
C 8.7 89.647 -0.123
C 8.747 89.65 2.607
C 7.601 90.584 0.474
C 7.629 90.586 2.046
C 8.769 89.638 4.177
C 7.672 90.563 4.772
C 8.668 89.63 -1.692
C 7.552 90.554 -2.251
C 6.222 90.102 -0.082
C 6.269 90.105 2.65
C 6.297 90.091 4.219
C 6.196 90.084 -1.651
C -2.198 78.971 2.674
C -2.23 77.491 0.538
C -2.237 77.489 2.134
C -2.182 78.973 0.003
C -2.247 77.507 4.763
C -2.206 78.985 4.265
C -2.175 78.989 -1.588
C -2.219 77.513 -2.092
H -3.573 75.763 2.37
H -3.574 75.776 0.266
H -3.575 75.79 4.611
H -3.455 79.643 5.917
H -4.814 77.529 5.842
H -3.569 75.824 -1.976
H -3.404 79.69 -3.236
H -4.75 77.623 -3.209
H -3.359 80.802 -1.912
H -3.427 80.77 4.604
H -3.403 80.748 2.444
H -3.374 80.761 0.25
H -6.186 75.937 2.344
H -6.17 75.957 0.235
H -6.224 75.965 4.578
H -6.029 79.569 5.938
H -6.142 76.005 -1.999
H -5.898 79.954 -3.213
H -5.708 80.87 -1.739
H -5.747 80.802 4.854
H -5.722 80.767 2.53
H -5.67 80.835 0.312
H 7.697 76.768 5.902
H 7.808 76.819 -3.12
H 6.951 79.371 5.835
H 5.314 77.364 5.88
H 6.958 79.252 -3.139
H 5.345 77.301 -3.152
H 4.343 79.754 5.828
H 2.844 77.587 5.867
H 4.323 79.692 -3.137
H 2.873 77.492 -3.154
H 1.576 75.763 2.424
H 1.578 75.74 0.313
H 1.581 75.823 4.655
H 1.628 79.707 5.892
H 0.301 77.508 5.874
H 1.59 75.758 -1.921
H 1.649 79.564 -3.239
H 0.326 77.44 -3.178
H 1.482 80.648 -1.925
H 1.471 80.726 4.511
H 1.474 80.677 2.409
H 1.485 80.642 0.207
H -0.973 75.721 2.402
H -0.98 75.713 0.297
H -0.97 75.767 4.642
H -0.934 79.632 5.911
H -0.982 75.742 -1.946
H -0.897 79.604 -3.238
H -0.877 80.725 -1.92
H -0.935 80.748 4.591
H -0.918 80.711 2.431
H -0.897 80.703 0.236
H 8.609 81.414 5.785
H 8.119 81.599 -3.377
H 7.731 83.798 5.767
H 6.097 81.757 5.771
H 7.534 83.829 -3.242
H 5.903 81.712 -3.15
H 5.265 84.249 5.815
H 3.788 82.312 5.941
H 5.089 84.22 -3.189
H 3.574 82.247 -3.224
H 9.632 83.148 -2.093
H 9.258 80.936 -2.368
H 3.001 84.321 2.416
H 2.554 82.062 0.278
H 2.597 82.067 2.494
H 2.962 84.314 0.294
H 2.633 82.073 4.71
H 3.074 84.32 4.648
H 2.953 84.287 -1.939
H 2.523 82.058 -1.879
H 9.754 83.17 2.269
H 9.305 80.972 0.023
H 9.416 80.972 2.239
H 9.703 83.158 0.144
H 9.404 80.931 4.306
H 9.762 83.152 4.506
H 9.317 85.841 5.807
H 9.157 85.832 -3.333
H 8.542 88.18 5.766
H 6.888 86.213 5.762
H 8.385 88.169 -3.269
H 6.725 86.206 -3.203
H 6.042 88.637 5.808
H 4.487 86.719 5.891
H 5.884 88.626 -3.227
H 4.326 86.702 -3.25
H 10.474 87.557 -2.086
H 10.076 85.164 -2.034
H 3.802 88.811 2.388
H 3.312 86.414 0.244
H 3.352 86.417 2.437
H 3.764 88.809 0.268
H 3.384 86.405 4.601
H 3.867 88.792 4.628
H 3.751 88.782 -1.973
H 3.266 86.391 -1.923
H 10.581 87.576 2.27
H 10.114 85.187 0.126
H 10.155 85.193 2.317
H 10.544 87.572 0.154
H 10.196 85.172 4.482
H 10.589 87.565 4.512
H 7.68 90.499 5.859
H 7.524 90.488 -3.338
H -2.255 77.482 5.853
H -2.211 77.492 -3.183
H 9.686 90.007 0.166
H 9.722 90.011 2.284
H 9.743 89.978 4.533
H 9.63 89.969 -2.081
H 7.824 91.61 2.361
H 7.786 91.607 0.15
H 7.862 91.609 4.54
H 7.75 91.601 -2.029
H 5.441 90.791 0.236
H 5.478 90.792 2.357
H 5.523 90.755 4.605
H 5.409 90.748 -2.013
H 6.25 75.374 -1.908
H 6.216 75.339 0.321
H 6.193 75.341 2.427
H 6.161 75.383 4.655
H 3.953 75.693 -1.909
H 3.934 75.674 0.321
H 3.919 75.696 2.431
H 3.91 75.757 4.658
C 11.953 77.927 0.667
C 11.939 77.916 2.226
C 11.294 75.104 0.064
C 11.29 75.082 2.778
C 10.549 77.487 2.78
C 10.224 76.091 0.627
C 10.216 76.072 2.218
C 10.57 77.519 0.105
C 11.93 77.908 4.935
C 11.291 75.086 4.336
C 10.204 76.064 4.857
C 10.544 77.491 4.377
C 11.961 77.957 -2.044
C 11.298 75.13 -1.496
C 10.574 77.552 -1.487
C 10.24 76.138 -2.016
C 9.532 78.51 0.681
C 9.516 78.481 2.23
C 8.823 75.762 0.047
C 8.803 75.736 2.758
C 9.475 78.436 4.988
C 8.789 75.743 4.317
C 9.541 78.574 -2.012
C 8.837 75.786 -1.512
C 22.933 74.149 2.753
C 22.277 72.841 0.614
C 22.275 72.817 2.204
C 22.927 74.193 0.103
C 22.277 72.817 4.834
C 22.942 74.15 4.334
C 22.927 74.226 -1.476
C 22.294 72.899 -2.017
C 22.053 75.455 0.615
C 22.07 75.441 2.192
C 20.869 72.727 0.053
C 20.863 72.715 2.765
C 20.565 75.261 2.724
C 20.024 73.868 0.628
C 20.029 73.869 2.205
C 20.544 75.262 0.103
C 22.089 75.447 4.799
C 20.865 72.727 4.32
C 20.051 73.898 4.849
C 20.582 75.269 4.312
C 22.023 75.469 -1.994
C 20.879 72.752 -1.503
C 20.534 75.274 -1.485
C 20.022 73.896 -2.016
C 19.55 76.408 0.63
C 19.566 76.41 2.206
C 18.634 73.56 0.071
C 18.642 73.573 2.781
C 18.067 76.033 2.747
C 17.651 74.579 0.633
C 17.659 74.589 2.222
C 18.05 76.017 0.097
C 19.599 76.418 4.812
C 18.654 73.597 4.337
C 17.68 74.63 4.851
C 18.083 76.055 4.325
C 19.533 76.412 -1.977
C 18.637 73.57 -1.484
C 18.046 76.024 -1.482
C 17.651 74.591 -1.996
C 16.877 76.904 0.644
C 16.883 76.916 2.194
C 16.269 74.11 0.078
C 16.281 74.126 2.791
C 15.497 76.465 2.763
C 15.169 75.025 0.637
C 15.174 75.031 2.228
C 15.491 76.453 0.094
C 16.908 76.947 4.89
C 16.295 74.15 4.349
C 15.189 75.061 4.869
C 15.508 76.485 4.357
C 16.875 76.897 -2.063
C 16.27 74.118 -1.481
C 15.492 76.46 -1.5
C 15.169 75.035 -2.006
C 14.401 77.405 0.654
C 14.396 77.407 2.213
C 13.786 74.565 0.075
C 13.795 74.565 2.79
C 14.4 77.415 4.919
C 13.804 74.58 4.349
C 14.404 77.413 -2.054
C 13.785 74.579 -1.484
C 24.552 78.555 2.672
C 23.977 77.251 0.532
C 24.017 77.232 2.086
C 24.487 78.575 -0.053
C 24.048 77.21 4.797
C 24.569 78.542 4.234
C 24.446 78.587 -1.617
C 23.863 77.304 -2.228
C 23.643 79.73 0.551
C 23.678 79.719 2.131
C 22.55 76.888 0.044
C 22.601 76.865 2.688
C 22.22 79.467 2.686
C 21.613 78.051 0.593
C 21.643 78.04 2.181
C 22.163 79.482 0.066
C 23.714 79.705 4.755
C 22.622 76.858 4.26
C 21.694 78.027 4.757
C 22.25 79.454 4.265
C 23.567 79.754 -2.07
C 22.515 76.894 -1.532
C 22.127 79.483 -1.514
C 21.552 78.054 -1.983
C 21.277 80.666 0.61
C 21.31 80.658 2.189
C 20.113 77.825 0.097
C 20.16 77.82 2.736
C 19.898 80.391 2.79
C 19.325 79.065 0.664
C 19.356 79.06 2.217
C 19.841 80.4 0.071
C 21.383 80.639 4.809
C 20.191 77.813 4.31
C 19.447 79.043 4.942
C 19.94 80.381 4.351
C 21.236 80.664 -2.013
C 20.085 77.825 -1.474
C 19.819 80.397 -1.491
C 19.298 79.058 -2.053
C 26.247 82.701 2.663
C 25.661 81.372 0.529
C 25.693 81.365 2.087
C 26.193 82.712 -0.058
C 25.724 81.346 4.791
C 26.267 82.686 4.227
C 26.151 82.71 -1.622
C 25.583 81.377 -2.173
C 25.329 83.878 0.527
C 25.361 83.872 2.12
C 24.196 81.109 0.015
C 24.252 81.094 2.659
C 23.896 83.649 2.669
C 23.293 82.272 0.569
C 23.326 82.264 2.151
C 23.843 83.66 0.036
C 25.391 83.845 4.75
C 24.277 81.079 4.238
C 23.376 82.243 4.751
C 23.923 83.63 4.252
C 25.253 83.871 -2.102
C 24.157 81.112 -1.562
C 23.806 83.654 -1.546
C 23.236 82.273 -2.031
C 22.943 84.838 0.578
C 22.975 84.831 2.171
C 21.812 82.057 0.068
C 21.868 82.046 2.712
C 21.545 84.59 2.763
C 20.962 83.255 0.631
C 20.995 83.248 2.189
C 21.49 84.6 0.042
C 23.034 84.794 4.8
C 21.901 82.031 4.29
C 21.063 83.218 4.891
C 21.58 84.57 4.327
C 22.897 84.82 -2.053
C 21.78 82.054 -1.511
C 21.461 84.592 -1.523
C 20.92 83.243 -2.073
C 25.843 85.249 -0.047
C 25.898 85.239 2.682
C 24.957 86.387 0.553
C 24.988 86.38 2.125
C 25.921 85.221 4.252
C 25.033 86.347 4.849
C 25.805 85.242 -1.616
C 24.894 86.371 -2.172
C 23.507 86.191 0.002
C 23.561 86.18 2.732
C 23.59 86.16 4.301
C 23.474 86.182 -1.568
C 13.015 76.958 2.774
C 12.693 75.52 0.633
C 12.692 75.513 2.229
C 13.022 76.967 0.101
C 12.694 75.524 4.859
C 13.016 76.968 4.364
C 13.026 76.987 -1.49
C 12.699 75.549 -2
H 11.06 74.065 2.465
H 11.055 74.085 0.362
H 11.07 74.084 4.707
H 11.922 77.843 6.023
H 10.187 76.018 5.947
H 11.062 74.138 -1.882
H 11.95 77.909 -3.133
H 10.24 76.13 -3.107
H 12.207 78.99 -1.806
H 12.156 78.949 4.712
H 12.168 78.93 2.552
H 12.193 78.944 0.357
H 8.529 74.728 2.448
H 8.542 74.751 0.339
H 8.503 74.756 4.684
H 9.381 78.236 6.055
H 8.573 74.799 -1.895
H 9.563 78.636 -3.1
H 9.923 79.491 -1.618
H 9.891 79.41 4.997
H 9.904 79.376 2.653
H 9.967 79.441 0.432
H 22.257 72.794 5.925
H 22.285 72.91 -3.109
H 22.099 75.479 5.888
H 20.057 73.895 5.94
H 22.021 75.454 -3.083
H 20.013 73.893 -3.107
H 19.604 76.428 5.902
H 17.69 74.621 5.943
H 19.53 76.423 -3.066
H 17.654 74.572 -3.087
H 16.077 73.096 2.497
H 16.066 73.085 0.384
H 16.103 73.145 4.73
H 16.925 76.939 5.979
H 15.191 75.04 5.96
H 16.073 73.11 -1.851
H 16.881 76.849 -3.151
H 15.168 75.008 -3.097
H 16.93 77.932 -1.825
H 16.966 77.975 4.602
H 16.95 77.936 2.503
H 16.942 77.913 0.301
H 13.593 73.539 2.486
H 13.578 73.541 0.381
H 13.613 73.575 4.728
H 14.393 77.361 6.008
H 13.575 73.577 -1.863
H 14.39 77.361 -3.142
H 14.624 78.453 -1.82
H 14.6 78.46 4.689
H 14.599 78.429 2.531
H 14.61 78.426 0.335
H 24.064 77.212 5.887
H 23.689 77.45 -3.293
H 23.736 79.701 5.845
H 21.719 78.021 5.847
H 23.536 79.776 -3.16
H 21.514 78.054 -3.073
H 21.414 80.639 5.899
H 19.575 79.04 6.024
H 21.217 80.667 -3.104
H 19.335 79.057 -3.142
H 25.454 78.688 -2.01
H 24.642 76.584 -2.223
H 19.205 81.178 2.507
H 18.304 79.063 0.362
H 18.353 79.051 2.58
H 19.16 81.186 0.386
H 18.394 79.042 4.793
H 19.28 81.154 4.738
H 19.141 81.171 -1.847
H 18.267 79.075 -1.798
H 25.584 78.659 2.351
H 24.692 76.575 0.127
H 24.776 76.54 2.356
H 25.532 78.671 0.227
H 24.787 76.514 4.477
H 25.593 78.645 4.588
H 25.702 81.387 5.88
H 25.518 81.423 -3.259
H 25.412 83.836 5.841
H 23.398 82.239 5.841
H 25.231 83.868 -3.193
H 23.214 82.276 -3.122
H 23.054 84.785 5.891
H 21.146 83.217 5.977
H 22.873 84.817 -3.143
H 20.963 83.248 -3.162
H 27.158 82.849 -2.017
H 26.291 80.582 -1.966
H 20.886 85.408 2.477
H 19.922 83.163 0.334
H 19.967 83.154 2.526
H 20.843 85.417 0.359
H 20 83.131 4.689
H 20.952 85.373 4.717
H 20.819 85.398 -1.882
H 19.866 83.155 -1.832
H 27.279 82.838 2.341
H 26.338 80.592 0.195
H 26.385 80.583 2.387
H 27.236 82.846 0.224
H 26.425 80.553 4.552
H 27.29 82.824 4.582
H 25.031 86.283 5.937
H 24.85 86.313 -3.259
H 12.685 75.496 5.95
H 12.7 75.529 -3.091
H 26.882 85.406 0.238
H 26.924 85.398 2.357
H 26.944 85.36 4.605
H 26.813 85.382 -2.009
H 25.384 87.345 2.44
H 25.341 87.353 0.229
H 25.427 87.334 4.617
H 25.298 87.357 -1.95
H 22.881 87.022 0.322
H 22.922 87.013 2.442
H 22.964 86.965 4.69
H 22.834 86.99 -1.926
H 20.473 71.812 -1.884
H 20.443 71.768 0.347
H 20.427 71.763 2.462
H 20.428 71.797 4.692
H 18.339 72.587 -1.856
H 18.327 72.559 0.375
H 18.326 72.572 2.489
H 18.345 72.621 4.718
C 26.599 72.82 0.665
C 26.595 72.759 2.222
C 25.169 70.315 -0.016
C 25.139 70.225 2.702
C 25.139 72.764 2.769
C 24.439 71.55 0.594
C 24.426 71.503 2.185
C 25.15 72.847 0.101
C 26.596 72.672 4.924
C 25.136 70.193 4.262
C 24.424 71.452 4.827
C 25.144 72.738 4.363
C 26.61 72.939 -2.036
C 25.19 70.382 -1.574
C 25.159 72.914 -1.49
C 24.462 71.652 -2.05
C 24.402 74.076 0.691
C 24.401 74.03 2.238
C 23.014 71.598 0.03
C 22.993 71.545 2.745
C 24.393 73.979 4.955
C 22.99 71.539 4.305
C 24.408 74.177 -1.991
C 23.032 71.641 -1.528
C 36.05 66.29 2.567
C 35.294 65.124 0.363
C 35.245 65.035 1.938
C 36.153 66.425 -0.076
C 35.119 64.93 4.551
C 35.991 66.232 4.155
C 36.206 66.505 -1.657
C 35.401 65.261 -2.253
C 35.569 67.822 0.444
C 35.54 67.749 2.017
C 33.832 65.273 -0.249
C 33.745 65.121 2.377
C 34.035 67.809 2.509
C 33.282 66.62 0.338
C 33.245 66.541 1.912
C 34.082 67.927 -0.096
C 35.471 67.659 4.616
C 33.681 65.029 3.937
C 33.175 66.397 4.487
C 33.999 67.727 4.078
C 35.606 67.925 -2.156
C 33.894 65.375 -1.813
C 34.115 68.013 -1.664
C 33.358 66.781 -2.246
C 33.348 69.235 0.471
C 33.329 69.165 2.044
C 31.847 66.616 -0.241
C 31.781 66.462 2.413
C 31.788 69.021 2.585
C 31.055 67.812 0.392
C 31.025 67.731 1.965
C 31.817 69.167 -0.051
C 33.316 69.038 4.639
C 31.74 66.364 3.953
C 31.017 67.578 4.587
C 31.782 68.938 4.17
C 33.377 69.349 -2.124
C 31.894 66.726 -1.785
C 31.841 69.26 -1.634
C 31.103 67.98 -2.233
C 30.941 70.305 0.588
C 30.928 70.217 2.13
C 29.599 67.851 -0.163
C 29.556 67.704 2.544
C 29.496 70.192 2.681
C 28.806 69.033 0.476
C 28.782 68.952 2.066
C 29.515 70.337 0.013
C 30.92 70.049 4.849
C 29.55 67.63 4.1
C 28.778 68.831 4.703
C 29.496 70.123 4.271
C 30.99 70.48 -2.096
C 29.63 67.948 -1.716
C 29.544 70.433 -1.574
C 28.846 69.191 -2.16
C 28.778 71.559 0.629
C 28.772 71.479 2.185
C 27.361 69.058 -0.082
C 27.325 68.937 2.633
C 28.77 71.358 4.887
C 27.32 68.883 4.192
C 28.802 71.703 -2.072
C 27.388 69.143 -1.64
C 38.65 70.369 2.609
C 37.868 69.275 0.417
C 37.882 69.19 1.966
C 38.638 70.49 -0.114
C 37.848 69.053 4.662
C 38.63 70.295 4.167
C 38.633 70.546 -1.677
C 37.809 69.428 -2.355
C 38.041 71.766 0.521
C 38.044 71.699 2.1
C 36.393 69.167 -0.085
C 36.382 69.04 2.553
C 36.552 71.702 2.632
C 35.707 70.485 0.49
C 35.698 70.412 2.08
C 36.551 71.812 0.014
C 38.03 71.593 4.721
C 36.358 68.974 4.124
C 35.695 70.309 4.644
C 36.55 71.634 4.21
C 38.022 71.878 -2.099
C 36.393 69.223 -1.661
C 36.547 71.866 -1.565
C 35.696 70.573 -2.076
C 35.922 73.138 0.582
C 35.922 73.075 2.16
C 34.2 70.567 -0.028
C 34.181 70.456 2.609
C 34.478 73.065 2.732
C 33.696 71.945 0.548
C 33.683 71.887 2.101
C 34.481 73.168 0.012
C 35.943 72.962 4.779
C 34.177 70.382 4.181
C 33.702 71.76 4.814
C 34.489 72.992 4.293
C 35.934 73.226 -2.039
C 34.202 70.626 -1.6
C 34.485 73.223 -1.551
C 33.751 72.028 -2.204
C 41.162 74.115 2.744
C 40.357 72.984 0.569
C 40.361 72.927 2.127
C 41.156 74.21 0.026
C 40.343 72.832 4.829
C 41.154 74.056 4.306
C 41.141 74.259 -1.538
C 40.328 73.078 -2.131
C 40.535 75.511 0.632
C 40.539 75.455 2.225
C 38.875 73.026 0.033
C 38.88 72.923 2.675
C 39.05 75.508 2.754
C 38.217 74.331 0.611
C 38.221 74.271 2.193
C 39.042 75.602 0.122
C 40.524 75.358 4.851
C 38.875 72.856 4.253
C 38.223 74.169 4.788
C 39.048 75.443 4.335
C 40.502 75.589 -1.996
C 38.867 73.08 -1.543
C 39.032 75.647 -1.46
C 38.206 74.417 -1.987
C 38.388 76.922 0.687
C 38.392 76.865 2.279
C 36.732 74.421 0.09
C 36.737 74.322 2.732
C 36.933 76.89 2.852
C 36.131 75.753 0.678
C 36.135 75.696 2.236
C 36.925 76.987 0.133
C 38.405 76.75 4.905
C 36.74 74.255 4.309
C 36.157 75.579 4.936
C 36.94 76.822 4.414
C 38.38 76.983 -1.942
C 36.729 74.472 -1.488
C 36.92 77.028 -1.431
C 36.132 75.827 -2.024
C 41.321 76.77 0.1
C 41.33 76.677 2.826
C 40.669 78.045 0.721
C 40.674 77.992 2.291
C 41.326 76.616 4.393
C 40.674 77.886 5.007
C 41.307 76.812 -1.469
C 40.647 78.114 -2.002
C 39.218 78.154 0.153
C 39.226 78.06 2.879
C 39.228 77.996 4.446
C 39.208 78.193 -1.417
C 27.326 71.482 2.733
C 26.612 70.283 0.542
C 26.594 70.219 2.137
C 27.34 71.597 0.065
C 26.592 70.133 4.769
C 27.329 71.433 4.323
C 27.358 71.681 -1.524
C 26.641 70.415 -2.089
H 24.607 69.337 2.367
H 24.646 69.399 0.256
H 24.608 69.305 4.611
H 26.566 72.591 6.011
H 24.407 71.398 5.917
H 24.688 69.506 -1.987
H 26.594 72.943 -3.125
H 24.451 71.676 -3.141
H 27.13 73.854 -1.756
H 27.144 73.592 4.726
H 27.122 73.644 2.577
H 27.121 73.735 0.386
H 22.463 70.648 2.429
H 22.493 70.683 0.312
H 22.453 70.658 4.664
H 24.311 73.882 6.037
H 22.534 70.753 -1.923
H 24.436 74.246 -3.078
H 25.012 74.97 -1.603
H 25.059 74.799 4.825
H 25.018 74.809 2.63
H 25.047 74.883 0.436
H 35.015 64.87 5.635
H 35.446 65.292 -3.341
H 35.441 67.672 5.705
H 33.142 66.35 5.576
H 35.615 67.933 -3.245
H 33.38 66.855 -3.334
H 33.332 69 5.727
H 31.026 67.469 5.672
H 33.378 69.387 -3.213
H 31.103 68.028 -3.322
H 29.022 66.837 2.192
H 29.073 66.949 0.096
H 29.036 66.74 4.438
H 30.89 69.887 5.926
H 28.771 68.747 5.791
H 29.112 67.107 -2.146
H 31.025 70.593 -3.179
H 28.842 69.242 -3.25
H 31.336 71.384 -1.663
H 31.306 71.026 4.742
H 31.297 71.115 2.555
H 31.293 71.274 0.361
H 26.8 68.049 2.286
H 26.847 68.135 0.177
H 26.8 67.986 4.53
H 28.738 71.267 5.972
H 26.891 68.27 -2.065
H 28.785 71.72 -3.161
H 29.321 72.616 -1.782
H 29.313 72.283 4.699
H 29.295 72.363 2.551
H 29.294 72.481 0.361
H 37.866 69.006 5.751
H 37.646 69.693 -3.398
H 38.038 71.553 5.81
H 35.702 70.269 5.734
H 38.015 71.943 -3.187
H 35.677 70.608 -3.165
H 35.952 72.927 5.869
H 33.748 71.712 5.902
H 35.943 73.268 -3.129
H 33.929 72.032 -3.278
H 39.652 70.457 -2.049
H 38.457 68.594 -2.481
H 33.969 73.991 2.475
H 32.731 72.209 0.184
H 32.696 72.14 2.411
H 33.968 74.067 0.347
H 32.704 72.041 4.569
H 33.998 73.876 4.697
H 33.983 74.13 -1.882
H 32.725 72.292 -2.141
H 39.693 70.291 2.312
H 38.499 68.546 -0.036
H 38.567 68.404 2.179
H 39.677 70.377 0.183
H 38.472 68.264 4.284
H 39.649 70.188 4.536
H 40.313 72.856 5.917
H 40.292 73.167 -3.216
H 40.53 75.323 5.941
H 38.23 74.136 5.878
H 40.497 75.619 -3.086
H 38.203 74.454 -3.077
H 38.41 76.716 5.995
H 36.23 75.537 6.022
H 38.372 77.015 -3.033
H 36.193 75.853 -3.112
H 42.164 74.206 -1.917
H 40.863 72.154 -1.941
H 36.454 77.83 2.584
H 35.097 75.878 0.369
H 35.104 75.802 2.56
H 36.449 77.907 0.467
H 35.1 75.711 4.73
H 36.478 77.724 4.82
H 36.456 77.955 -1.772
H 35.078 75.945 -1.797
H 42.206 74.054 2.437
H 40.873 72.095 0.22
H 40.882 72.018 2.41
H 42.201 74.129 0.322
H 40.877 71.921 4.582
H 42.179 73.98 4.674
H 40.652 77.809 6.094
H 40.61 78.096 -3.091
H 26.583 70.067 5.858
H 26.631 70.451 -3.18
H 42.367 76.713 0.398
H 42.373 76.639 2.514
H 42.352 76.543 4.757
H 42.329 76.761 -1.848
H 41.249 78.852 2.634
H 41.242 78.925 0.428
H 41.258 78.781 4.794
H 41.235 78.995 -1.749
H 38.765 79.085 0.488
H 38.769 79.011 2.606
H 38.77 78.901 4.849
H 38.747 79.121 -1.759
C 39.715 64.952 0.576
C 39.656 64.909 2.134
C 38.273 62.474 -0.126
C 38.221 62.371 2.581
C 38.176 64.851 2.652
C 37.486 63.7 0.435
C 37.441 63.628 2.025
C 38.278 64.959 -0.023
C 39.576 64.845 4.838
C 38.196 62.332 4.138
C 37.36 63.535 4.652
C 38.13 64.809 4.246
C 39.802 65.047 -2.127
C 38.313 62.545 -1.684
C 38.333 65.044 -1.609
C 37.581 63.83 -2.195
C 37.559 66.168 0.579
C 37.486 66.093 2.122
C 36.028 63.842 -0.197
C 35.943 63.703 2.499
C 37.326 65.943 4.899
C 35.891 63.647 4.057
C 37.676 66.335 -2.108
C 36.086 63.925 -1.753
C 49.027 57.82 2.684
C 47.979 56.789 0.553
C 47.974 56.771 2.144
C 49.036 57.85 0.03
C 47.973 56.784 4.767
C 49.033 57.828 4.268
C 49.041 57.87 -1.549
C 48.004 56.82 -2.074
C 48.637 59.34 0.533
C 48.645 59.325 2.11
C 46.609 57.174 -0.013
C 46.605 57.167 2.694
C 47.172 59.682 2.643
C 46.199 58.548 0.55
C 46.205 58.546 2.127
C 47.156 59.686 0.024
C 48.663 59.335 4.718
C 46.609 57.18 4.248
C 46.23 58.57 4.767
C 47.187 59.687 4.231
C 48.609 59.353 -2.076
C 46.622 57.191 -1.569
C 47.15 59.7 -1.564
C 46.209 58.571 -2.09
C 46.615 61.119 0.55
C 46.624 61.116 2.126
C 44.791 58.751 -0.013
C 44.8 58.753 2.695
C 45.066 61.281 2.666
C 44.209 60.047 0.544
C 44.213 60.047 2.133
C 45.062 61.28 0.022
C 46.652 61.114 4.728
C 44.816 58.77 4.251
C 44.235 60.072 4.76
C 45.082 61.294 4.245
C 46.604 61.131 -2.052
C 44.797 58.765 -1.569
C 45.067 61.294 -1.557
C 44.227 60.072 -2.083
C 44.226 62.516 0.575
C 44.218 62.515 2.125
C 42.754 60.065 -0.027
C 42.757 60.051 2.685
C 42.726 62.521 2.676
C 41.992 61.273 0.528
C 41.985 61.257 2.118
C 42.751 62.538 0.014
C 44.226 62.524 4.812
C 42.77 60.061 4.243
C 41.98 61.257 4.756
C 42.725 62.527 4.268
C 44.25 62.534 -2.116
C 42.766 60.087 -1.585
C 42.774 62.564 -1.578
C 42.027 61.316 -2.111
C 41.956 63.762 0.578
C 41.922 63.744 2.135
C 40.535 61.25 -0.065
C 40.516 61.198 2.648
C 41.881 63.721 4.832
C 40.513 61.188 4.207
C 42.015 63.812 -2.119
C 40.557 61.293 -1.623
C 52.069 61.327 2.568
C 51.053 60.338 0.425
C 51.088 60.304 1.976
C 52.007 61.374 -0.159
C 51.116 60.251 4.677
C 52.081 61.302 4.129
C 51.97 61.398 -1.722
C 50.956 60.429 -2.341
C 51.643 62.748 0.455
C 51.674 62.722 2.035
C 49.595 60.508 -0.049
C 49.638 60.468 2.594
C 50.221 63.019 2.596
C 49.136 61.926 0.505
C 49.159 61.903 2.092
C 50.172 63.06 -0.023
C 51.705 62.685 4.661
C 49.656 60.455 4.166
C 49.205 61.873 4.669
C 50.247 62.994 4.176
C 51.576 62.804 -2.165
C 49.562 60.522 -1.626
C 50.135 63.076 -1.602
C 49.075 61.952 -2.07
C 49.782 64.484 0.526
C 49.811 64.461 2.105
C 47.651 62.25 0.015
C 47.688 62.227 2.65
C 48.388 64.723 2.705
C 47.36 63.692 0.577
C 47.383 63.677 2.131
C 48.339 64.756 -0.01
C 49.874 64.41 4.723
C 47.715 62.21 4.224
C 47.456 63.628 4.844
C 48.425 64.696 4.266
C 49.74 64.504 -2.094
C 47.624 62.261 -1.556
C 48.315 64.764 -1.572
C 47.336 63.699 -2.134
C 55.181 64.497 2.566
C 54.129 63.501 0.432
C 54.16 63.477 1.989
C 55.127 64.539 -0.154
C 54.189 63.435 4.693
C 55.198 64.467 4.129
C 55.083 64.559 -1.717
C 54.053 63.545 -2.27
C 54.767 65.94 0.438
C 54.799 65.915 2.031
C 52.671 63.815 -0.078
C 52.722 63.771 2.567
C 53.358 66.261 2.586
C 52.268 65.225 0.484
C 52.299 65.199 2.066
C 53.305 66.302 -0.047
C 54.825 65.867 4.66
C 52.744 63.741 4.145
C 52.345 65.15 4.665
C 53.382 66.226 4.168
C 54.687 65.974 -2.19
C 52.632 63.836 -1.654
C 53.264 66.316 -1.629
C 52.21 65.257 -2.115
C 52.92 67.729 0.502
C 52.953 67.704 2.096
C 50.808 65.578 -0.012
C 50.86 65.539 2.632
C 51.537 68.015 2.694
C 50.48 67.008 0.559
C 50.512 66.985 2.118
C 51.48 68.056 -0.028
C 53.004 67.635 4.725
C 50.89 65.507 4.21
C 50.574 66.92 4.82
C 51.568 67.978 4.258
C 52.862 67.739 -2.128
C 50.773 65.592 -1.59
C 51.446 68.065 -1.592
C 50.43 67.021 -2.144
C 55.763 67.014 -0.134
C 55.818 66.971 2.594
C 55.375 68.399 0.473
C 55.407 68.374 2.045
C 55.839 66.937 4.162
C 55.448 68.312 4.768
C 55.72 67.029 -1.703
C 55.303 68.421 -2.251
C 53.956 68.769 -0.072
C 54.012 68.726 2.658
C 54.038 68.689 4.228
C 53.916 68.779 -1.642
C 40.438 63.695 2.667
C 39.741 62.461 0.487
C 39.716 62.418 2.082
C 40.502 63.752 0.001
C 39.673 62.378 4.708
C 40.411 63.677 4.257
C 40.544 63.805 -1.588
C 39.806 62.545 -2.139
H 37.739 61.458 2.238
H 37.751 61.556 0.134
H 37.719 61.411 4.476
H 39.531 64.762 5.924
H 37.294 63.456 5.738
H 37.814 61.671 -2.104
H 39.81 65.035 -3.216
H 37.624 63.856 -3.285
H 40.326 65.962 -1.851
H 40.061 65.801 4.649
H 40.136 65.82 2.493
H 40.236 65.871 0.305
H 35.412 62.827 2.141
H 35.453 62.955 0.046
H 35.335 62.766 4.375
H 37.091 65.672 5.927
H 35.555 63.079 -2.183
H 37.766 66.439 -3.189
H 38.285 67.071 -1.638
H 37.952 66.774 5.085
H 38.059 66.832 2.613
H 38.248 66.934 0.401
H 47.935 56.779 5.858
H 47.998 56.821 -3.165
H 48.684 59.372 5.807
H 46.23 58.573 5.859
H 48.597 59.334 -3.165
H 46.202 58.568 -3.181
H 46.663 61.124 5.817
H 44.233 60.062 5.852
H 46.602 61.144 -3.141
H 44.234 60.063 -3.174
H 42.241 59.14 2.387
H 42.226 59.158 0.267
H 42.272 59.163 4.614
H 44.225 62.492 5.901
H 41.958 61.232 5.847
H 42.249 59.203 -1.964
H 44.257 62.516 -3.205
H 42.041 61.306 -3.202
H 44.657 63.484 -1.846
H 44.64 63.484 4.564
H 44.631 63.454 2.448
H 44.64 63.453 0.259
H 40.042 60.272 2.329
H 40.032 60.327 0.218
H 40.05 60.268 4.566
H 41.849 63.662 5.92
H 40.064 60.405 -2.021
H 42.011 63.793 -3.209
H 42.528 64.735 -1.857
H 42.361 64.675 4.622
H 42.397 64.665 2.473
H 42.458 64.684 0.285
H 51.156 60.2 5.765
H 50.831 60.657 -3.399
H 51.729 62.665 5.751
H 49.231 61.856 5.759
H 51.554 62.845 -3.255
H 49.034 61.969 -3.16
H 49.902 64.393 5.813
H 47.559 63.583 5.928
H 49.723 64.518 -3.185
H 47.381 63.683 -3.223
H 52.942 61.119 -2.119
H 51.417 59.476 -2.385
H 48.037 65.712 2.425
H 46.394 64.038 0.273
H 46.425 64.01 2.481
H 47.996 65.737 0.307
H 46.459 63.983 4.674
H 48.102 65.66 4.654
H 47.969 65.734 -1.924
H 46.365 64.071 -1.897
H 53.065 61.044 2.243
H 51.475 59.462 0
H 51.57 59.396 2.218
H 53.013 61.074 0.119
H 51.549 59.363 4.285
H 53.068 61.015 4.482
H 54.189 63.474 5.782
H 54.009 63.616 -3.356
H 54.847 65.844 5.751
H 52.369 65.131 5.756
H 54.664 65.983 -3.281
H 52.189 65.271 -3.206
H 53.024 67.613 5.815
H 50.659 66.88 5.905
H 52.838 67.75 -3.218
H 50.469 67.014 -3.233
H 56.068 64.309 -2.116
H 54.414 62.543 -2.067
H 51.238 69.024 2.414
H 49.479 67.314 0.267
H 49.525 67.282 2.46
H 51.193 69.055 0.293
H 49.556 67.241 4.627
H 51.295 68.957 4.652
H 51.155 69.055 -1.946
H 49.419 67.333 -1.9
H 56.186 64.234 2.239
H 54.465 62.526 0.094
H 54.511 62.493 2.284
H 56.144 64.267 0.125
H 54.541 62.439 4.447
H 56.198 64.204 4.48
H 55.429 68.248 5.856
H 55.239 68.388 -3.338
H 39.629 62.34 5.797
H 39.836 62.548 -3.229
H 56.784 66.763 0.147
H 56.827 66.729 2.263
H 56.839 66.674 4.51
H 56.705 66.778 -2.1
H 56.142 69.114 2.36
H 56.097 69.148 0.15
H 56.188 69.076 4.535
H 56.052 69.178 -2.027
H 53.694 69.774 0.253
H 53.738 69.741 2.375
H 53.769 69.669 4.622
H 53.631 69.771 -1.995
H 45.913 56.45 -1.946
H 45.879 56.421 0.282
H 45.874 56.416 2.394
H 45.885 56.452 4.62
H 44.175 57.948 -1.942
H 44.156 57.916 0.286
H 44.165 57.916 2.404
H 44.196 57.954 4.629
C 52.089 55.401 0.579
C 52.083 55.389 2.138
C 49.966 53.432 -0.018
C 49.972 53.397 2.694
C 50.692 55.817 2.706
C 49.632 54.847 0.556
C 49.626 54.825 2.148
C 50.707 55.85 0.034
C 52.093 55.371 4.844
C 49.989 53.39 4.252
C 49.634 54.809 4.785
C 50.701 55.814 4.302
C 52.092 55.44 -2.128
C 49.971 53.462 -1.578
C 50.717 55.885 -1.559
C 49.652 54.896 -2.085
C 50.389 57.254 0.62
C 50.37 57.229 2.17
C 48.28 55.356 -0.009
C 48.268 55.327 2.701
C 50.334 57.199 4.918
C 48.273 55.331 4.261
C 50.414 57.32 -2.069
C 48.294 55.38 -1.568
C 59.209 46.153 2.553
C 57.948 45.374 0.43
C 57.952 45.352 2.02
C 59.203 46.19 -0.1
C 57.972 45.355 4.641
C 59.228 46.152 4.136
C 59.2 46.215 -1.679
C 57.958 45.408 -2.195
C 59.143 47.724 0.409
C 59.163 47.7 1.985
C 56.681 46.044 -0.12
C 56.698 46.029 2.583
C 57.806 48.357 2.533
C 56.577 47.475 0.45
C 56.598 47.468 2.027
C 57.763 48.375 -0.084
C 59.207 47.694 4.593
C 56.716 46.035 4.136
C 56.654 47.473 4.662
C 57.837 48.35 4.12
C 59.094 47.753 -2.199
C 56.685 46.062 -1.676
C 57.744 48.396 -1.671
C 56.564 47.504 -2.185
C 57.559 49.882 0.449
C 57.589 49.87 2.025
C 55.233 47.992 -0.09
C 55.273 47.988 2.614
C 56.133 50.373 2.582
C 54.967 49.392 0.477
C 54.994 49.39 2.066
C 56.084 50.38 -0.064
C 57.646 49.847 4.629
C 55.31 47.995 4.168
C 55.059 49.399 4.689
C 56.174 50.375 4.16
C 57.519 49.905 -2.154
C 55.225 48.005 -1.645
C 56.068 50.394 -1.643
C 54.948 49.412 -2.147
C 55.602 51.768 0.495
C 55.628 51.768 2.044
C 53.547 49.786 -0.061
C 53.591 49.778 2.648
C 54.232 52.169 2.63
C 53.141 51.164 0.509
C 53.163 51.158 2.099
C 54.196 52.176 -0.037
C 55.691 51.766 4.739
C 53.631 49.782 4.206
C 53.217 51.158 4.738
C 54.268 52.171 4.223
C 55.568 51.775 -2.212
C 53.536 49.801 -1.62
C 54.186 52.191 -1.631
C 53.121 51.188 -2.131
C 53.83 53.579 0.536
C 53.84 53.574 2.095
C 51.73 51.574 -0.036
C 51.762 51.553 2.677
C 53.871 53.563 4.799
C 51.793 51.55 4.236
C 53.813 53.6 -2.17
C 51.723 51.597 -1.595
C 62.95 48.956 2.416
C 61.732 48.2 0.28
C 61.775 48.151 1.831
C 62.875 49.028 -0.309
C 61.817 48.079 4.529
C 62.972 48.921 3.977
C 62.828 49.066 -1.871
C 61.63 48.32 -2.481
C 62.805 50.447 0.313
C 62.845 50.407 1.892
C 60.331 48.664 -0.18
C 60.39 48.603 2.462
C 61.49 50.985 2.468
C 60.186 50.145 0.382
C 60.221 50.11 1.969
C 61.425 51.048 -0.152
C 62.891 50.351 4.518
C 60.42 48.577 4.034
C 60.286 50.055 4.546
C 61.526 50.947 4.047
C 62.728 50.525 -2.307
C 60.285 48.692 -1.756
C 61.377 51.078 -1.731
C 60.106 50.195 -2.192
C 61.338 52.519 0.405
C 61.377 52.482 1.984
C 58.799 50.773 -0.093
C 58.864 50.729 2.545
C 60.055 53.025 2.602
C 58.828 52.24 0.483
C 58.867 52.211 2.036
C 59.985 53.082 -0.116
C 61.454 52.406 4.604
C 58.903 50.697 4.119
C 58.962 52.129 4.76
C 60.101 52.983 4.163
C 61.276 52.557 -2.218
C 58.758 50.796 -1.663
C 59.947 53.101 -1.678
C 58.772 52.265 -2.232
C 66.632 51.475 2.403
C 65.391 50.705 0.273
C 65.43 50.67 1.831
C 66.566 51.535 -0.317
C 65.47 50.614 4.535
C 66.655 51.438 3.967
C 66.515 51.569 -1.88
C 65.303 50.773 -2.427
C 66.49 52.979 0.281
C 66.529 52.943 1.874
C 64.018 51.296 -0.226
C 64.083 51.233 2.419
C 65.188 53.558 2.44
C 63.906 52.758 0.343
C 63.945 52.72 1.925
C 65.124 53.618 -0.193
C 66.563 52.883 4.504
C 64.11 51.193 3.998
C 63.999 52.654 4.525
C 65.215 53.514 4.022
C 66.399 53.036 -2.347
C 63.972 51.331 -1.802
C 65.075 53.646 -1.774
C 63.835 52.81 -2.256
C 65.025 55.092 0.363
C 65.063 55.056 1.956
C 62.544 53.393 -0.14
C 62.611 53.333 2.503
C 63.74 55.634 2.565
C 62.499 54.856 0.436
C 62.537 54.82 1.994
C 63.674 55.694 -0.156
C 65.116 54.969 4.585
C 62.646 53.289 4.081
C 62.603 54.736 4.696
C 63.773 55.586 4.128
C 64.951 55.123 -2.267
C 62.5 53.419 -1.719
C 63.631 55.715 -1.72
C 62.431 54.89 -2.267
C 67.669 53.846 -0.296
C 67.734 53.785 2.433
C 67.558 55.278 0.317
C 67.596 55.243 1.889
C 67.758 53.743 4.002
C 67.64 55.166 4.613
C 67.618 53.874 -1.864
C 67.473 55.322 -2.406
C 66.234 55.916 -0.217
C 66.3 55.855 2.513
C 66.327 55.809 4.082
C 66.187 55.939 -1.786
C 52.449 53.983 2.671
C 51.362 52.981 0.534
C 51.371 52.966 2.13
C 52.437 54.003 0.001
C 51.402 52.957 4.758
C 52.469 53.981 4.261
C 52.439 54.028 -1.59
C 51.361 53.02 -2.096
H 49.209 52.686 2.385
H 49.199 52.719 0.28
H 49.249 52.681 4.625
H 52.06 55.316 5.932
H 49.605 54.776 5.875
H 49.215 52.776 -1.962
H 52.047 55.417 -3.217
H 49.639 54.898 -3.176
H 52.876 56.156 -1.891
H 52.861 56.109 4.621
H 52.843 56.1 2.462
H 52.854 56.113 0.269
H 47.481 54.639 2.395
H 47.49 54.666 0.283
H 47.494 54.662 4.628
H 50.169 57.088 5.99
H 47.525 54.706 -1.95
H 50.457 57.367 -3.157
H 51.248 57.868 -1.684
H 51.226 57.773 4.899
H 51.2 57.754 2.582
H 51.268 57.791 0.367
H 57.941 45.352 5.732
H 57.943 45.415 -3.286
H 59.243 47.72 5.681
H 56.666 47.467 5.753
H 59.067 47.741 -3.288
H 56.543 47.507 -3.276
H 57.666 49.846 5.718
H 55.074 49.381 5.78
H 57.51 49.92 -3.244
H 54.929 49.401 -3.238
H 52.847 49.037 2.359
H 52.81 49.045 0.247
H 52.917 49.05 4.589
H 55.711 51.742 5.828
H 53.217 51.135 5.828
H 52.807 49.076 -1.986
H 55.531 51.736 -3.3
H 53.094 51.175 -3.221
H 56.192 52.602 -1.981
H 56.306 52.59 4.451
H 56.252 52.577 2.35
H 56.212 52.572 0.149
H 51.015 50.82 2.377
H 50.985 50.843 0.271
H 51.074 50.824 4.616
H 53.845 53.514 5.887
H 50.98 50.891 -1.97
H 53.761 53.574 -3.258
H 54.583 54.334 -1.94
H 54.621 54.318 4.569
H 54.585 54.304 2.41
H 54.573 54.308 0.216
H 61.853 48.017 5.617
H 61.546 48.568 -3.538
H 62.918 50.321 5.608
H 60.318 50.025 5.635
H 62.704 50.574 -3.397
H 60.059 50.225 -3.281
H 61.49 52.38 5.693
H 59.079 52.049 5.841
H 61.251 52.58 -3.308
H 58.789 52.252 -3.322
H 63.722 48.6 -2.278
H 61.892 47.294 -2.525
H 59.903 54.065 2.328
H 57.972 52.804 0.195
H 58.029 52.753 2.411
H 59.848 54.11 0.207
H 58.081 52.708 4.625
H 59.977 53.989 4.559
H 59.8 54.122 -2.026
H 57.925 52.847 -1.963
H 63.868 48.482 2.081
H 61.97 47.258 -0.15
H 62.068 47.162 2.065
H 63.803 48.532 -0.042
H 62.062 47.121 4.135
H 63.886 48.442 4.318
H 65.484 50.649 5.623
H 65.266 50.855 -3.513
H 66.585 52.853 5.594
H 64.025 52.628 5.615
H 66.37 53.055 -3.437
H 63.809 52.834 -3.346
H 65.137 54.941 5.675
H 62.682 54.679 5.781
H 64.92 55.143 -3.357
H 62.459 54.879 -3.356
H 67.43 51.134 -2.287
H 65.46 49.718 -2.229
H 63.636 56.682 2.289
H 61.575 55.352 0.152
H 61.629 55.303 2.344
H 63.585 56.729 0.17
H 61.666 55.248 4.507
H 63.693 56.598 4.527
H 63.533 56.744 -2.07
H 61.503 55.392 -2.013
H 67.566 51.025 2.068
H 65.526 49.684 -0.069
H 65.583 49.635 2.121
H 67.514 51.071 -0.047
H 65.619 49.569 4.285
H 67.588 50.987 4.309
H 67.612 55.104 5.701
H 67.395 55.306 -3.493
H 51.39 52.933 5.848
H 51.341 53.013 -3.187
H 68.625 53.402 -0.023
H 68.676 53.356 2.095
H 68.691 53.294 4.343
H 68.533 53.439 -2.269
H 68.46 55.828 2.201
H 68.408 55.876 -0.009
H 68.51 55.776 4.379
H 68.354 55.921 -2.187
H 66.171 56.951 0.112
H 66.221 56.904 2.233
H 66.251 56.821 4.48
H 66.094 56.968 -2.135
H 55.833 45.489 -2.048
H 55.81 45.461 0.179
H 55.82 45.455 2.287
H 55.855 45.479 4.513
H 54.432 47.349 -2.012
H 54.431 47.321 0.217
H 54.459 47.323 2.327
H 54.521 47.344 4.553
C 61.695 43.181 0.426
C 61.696 43.166 1.986
C 59.218 41.676 -0.161
C 59.232 41.634 2.551
C 60.422 43.858 2.562
C 59.174 43.13 0.417
C 59.174 43.106 2.008
C 60.427 43.895 -0.111
C 61.715 43.139 4.693
C 59.255 41.62 4.108
C 59.192 43.08 4.645
C 60.44 43.848 4.158
C 61.689 43.225 -2.282
C 59.221 41.709 -1.721
C 60.434 43.932 -1.703
C 59.187 43.181 -2.223
C 60.405 45.33 0.479
C 60.394 45.305 2.029
C 57.948 43.908 -0.138
C 57.947 43.873 2.571
C 60.369 45.272 4.779
C 57.962 43.871 4.13
C 60.424 45.397 -2.211
C 57.956 43.933 -1.696
C 66.886 32.737 2.371
C 65.492 32.221 0.251
C 65.497 32.196 1.842
C 66.879 32.78 -0.282
C 65.526 32.19 4.463
C 66.911 32.73 3.955
C 66.874 32.809 -1.861
C 65.499 32.258 -2.374
C 67.12 34.295 0.226
C 67.141 34.264 1.803
C 64.377 33.123 -0.294
C 64.4 33.1 2.409
C 65.938 35.169 2.356
C 64.554 34.546 0.277
C 64.579 34.531 1.854
C 65.891 35.2 -0.262
C 67.192 34.245 4.41
C 64.424 33.1 3.962
C 64.645 34.521 4.489
C 65.974 35.153 3.943
C 67.068 34.337 -2.381
C 64.378 33.143 -1.851
C 65.87 35.227 -1.849
C 64.538 34.581 -2.359
C 65.984 36.716 0.274
C 66.017 36.696 1.849
C 63.333 35.312 -0.259
C 63.382 35.296 2.445
C 64.688 37.468 2.412
C 63.345 36.735 0.309
C 63.378 36.725 1.899
C 64.631 37.489 -0.235
C 66.078 36.658 4.453
C 63.425 35.293 3.999
C 63.453 36.717 4.522
C 64.734 37.459 3.989
C 65.941 36.751 -2.33
C 63.323 35.329 -1.814
C 64.613 37.509 -1.814
C 63.321 36.763 -2.314
C 64.429 38.942 0.326
C 64.461 38.934 1.875
C 62.025 37.397 -0.223
C 62.078 37.376 2.486
C 63.171 39.594 2.467
C 61.896 38.826 0.349
C 61.923 38.813 1.939
C 63.126 39.614 -0.201
C 64.533 38.915 4.57
C 62.123 37.369 4.044
C 61.986 38.798 4.577
C 63.213 39.586 4.059
C 64.386 38.96 -2.381
C 62.012 37.416 -1.782
C 63.112 39.634 -1.794
C 61.87 38.859 -2.29
C 63.042 41.059 0.375
C 63.059 41.048 1.933
C 60.588 39.504 -0.189
C 60.627 39.471 2.523
C 63.099 41.025 4.638
C 60.663 39.459 4.081
C 63.017 41.088 -2.331
C 60.579 39.531 -1.748
C 71.102 34.758 2.218
C 69.752 34.258 0.087
C 69.791 34.198 1.636
C 71.032 34.849 -0.506
C 69.827 34.114 4.335
C 71.122 34.717 3.779
C 70.987 34.899 -2.068
C 69.665 34.401 -2.675
C 71.241 36.253 0.117
C 71.278 36.203 1.697
C 68.466 34.986 -0.367
C 68.522 34.909 2.275
C 70.064 37.032 2.278
C 68.613 36.465 0.197
C 68.647 36.421 1.784
C 70.002 37.111 -0.341
C 71.323 36.134 4.322
C 68.552 34.875 3.847
C 68.71 36.35 4.36
C 70.097 36.985 3.857
C 71.171 36.35 -2.502
C 68.42 35.025 -1.943
C 69.955 37.153 -1.92
C 68.534 36.535 -2.377
C 70.204 38.57 0.218
C 70.241 38.523 1.797
C 67.372 37.351 -0.272
C 67.437 37.29 2.366
C 69.052 39.311 2.421
C 67.687 38.784 0.306
C 67.726 38.745 1.859
C 68.984 39.386 -0.297
C 70.312 38.429 4.416
C 67.475 37.248 3.94
C 67.814 38.641 4.583
C 69.094 39.258 3.982
C 70.141 38.624 -2.404
C 67.33 37.384 -1.842
C 68.945 39.415 -1.859
C 67.627 38.825 -2.409
C 75.203 36.514 2.193
C 73.828 36.004 0.068
C 73.865 35.959 1.625
C 75.14 36.591 -0.526
C 73.904 35.89 4.329
C 75.224 36.47 3.757
C 75.091 36.637 -2.089
C 73.745 36.092 -2.632
C 75.348 38.021 0.074
C 75.385 37.976 1.667
C 72.594 36.852 -0.425
C 72.655 36.772 2.219
C 74.19 38.838 2.239
C 72.77 38.306 0.146
C 72.807 38.258 1.728
C 74.13 38.915 -0.394
C 75.416 37.904 4.296
C 72.68 36.724 3.798
C 72.857 38.177 4.327
C 74.214 38.787 3.821
C 75.26 38.1 -2.553
C 72.549 36.897 -2.001
C 74.082 38.954 -1.975
C 72.7 38.376 -2.453
C 74.32 40.378 0.164
C 74.357 40.332 1.757
C 71.555 39.194 -0.331
C 71.619 39.117 2.312
C 73.174 41.155 2.372
C 71.797 40.637 0.247
C 71.833 40.592 1.805
C 73.111 41.232 -0.349
C 74.402 40.232 4.385
C 71.651 39.065 3.889
C 71.892 40.49 4.506
C 73.203 41.098 3.935
C 74.245 40.428 -2.465
C 71.511 39.231 -1.909
C 73.066 41.264 -1.913
C 71.727 40.689 -2.456
C 76.67 38.644 -0.507
C 76.732 38.566 2.222
C 76.842 40.069 0.109
C 76.878 40.024 1.68
C 76.753 38.518 3.79
C 76.916 39.935 4.404
C 76.62 38.684 -2.075
C 76.757 40.134 -2.615
C 75.665 40.953 -0.42
C 75.727 40.875 2.31
C 75.751 40.821 3.879
C 75.617 40.988 -1.988
C 61.777 41.717 2.516
C 60.503 40.955 0.383
C 60.517 40.935 1.979
C 61.756 41.746 -0.155
C 60.557 40.914 4.606
C 61.804 41.707 4.106
C 61.755 41.774 -1.745
C 60.497 40.999 -2.246
H 58.342 41.089 2.244
H 58.327 41.129 0.14
H 58.39 41.071 4.484
H 61.676 43.088 5.781
H 59.163 43.049 5.735
H 58.343 41.185 -2.102
H 61.634 43.212 -3.37
H 59.168 43.188 -3.314
H 62.601 43.772 -2.05
H 62.614 43.71 4.467
H 62.584 43.711 2.306
H 62.584 43.728 0.113
H 57.034 43.363 2.268
H 57.035 43.393 0.158
H 57.064 43.375 4.502
H 60.188 45.193 5.851
H 57.063 43.431 -2.074
H 60.466 45.437 -3.299
H 61.353 45.766 -1.833
H 61.355 45.659 4.757
H 61.312 45.655 2.436
H 61.37 45.683 0.219
H 65.498 32.192 5.554
H 65.482 32.268 -3.465
H 67.237 34.262 5.499
H 64.659 34.512 5.579
H 67.035 34.33 -3.47
H 64.514 34.589 -3.449
H 66.101 36.651 5.542
H 63.467 36.695 5.613
H 65.931 36.768 -3.419
H 63.297 36.757 -3.405
H 61.204 36.793 2.199
H 61.161 36.812 0.087
H 61.283 36.788 4.428
H 64.552 38.887 5.658
H 61.986 38.773 5.668
H 61.156 36.846 -2.146
H 64.338 38.929 -3.469
H 61.837 38.852 -3.381
H 65.16 39.65 -2.154
H 65.295 39.604 4.279
H 65.231 39.607 2.178
H 65.182 39.612 -0.022
H 59.751 38.898 2.225
H 59.716 38.931 0.12
H 59.818 38.886 4.464
H 63.067 40.98 5.727
H 59.712 38.983 -2.121
H 62.956 41.074 -3.419
H 63.916 41.658 -2.105
H 63.98 41.619 4.405
H 63.933 41.618 2.246
H 63.912 41.629 0.052
H 69.855 34.043 5.422
H 69.627 34.665 -3.731
H 71.347 36.097 5.412
H 68.739 36.312 5.45
H 71.153 36.405 -3.592
H 68.49 36.576 -3.466
H 70.346 38.394 5.505
H 67.917 38.536 5.662
H 70.117 38.654 -3.494
H 67.636 38.811 -3.498
H 71.773 34.269 -2.479
H 69.723 33.344 -2.726
H 69.103 40.362 2.148
H 66.956 39.504 0.022
H 67.01 39.438 2.239
H 69.051 40.421 0.027
H 67.061 39.38 4.453
H 69.17 40.268 4.379
H 68.997 40.446 -2.205
H 66.91 39.558 -2.134
H 71.909 34.116 1.879
H 69.803 33.289 -0.348
H 69.888 33.17 1.867
H 71.847 34.182 -0.244
H 69.88 33.127 3.937
H 71.927 34.068 4.116
H 73.928 35.921 5.418
H 73.72 36.182 -3.718
H 75.436 37.869 5.386
H 72.881 38.145 5.417
H 75.231 38.126 -3.644
H 72.676 38.406 -3.543
H 74.421 40.199 5.475
H 71.962 40.417 5.591
H 74.215 40.455 -3.555
H 71.749 40.675 -3.545
H 75.902 36.034 -2.5
H 73.695 35.027 -2.436
H 73.274 42.203 2.097
H 70.986 41.304 -0.032
H 71.038 41.24 2.159
H 73.225 42.264 -0.021
H 71.071 41.175 4.322
H 73.322 42.106 4.336
H 73.169 42.293 -2.261
H 70.915 41.36 -2.197
H 76.03 35.892 1.854
H 73.761 34.977 -0.276
H 73.815 34.913 1.914
H 75.98 35.951 -0.261
H 73.846 34.837 4.077
H 76.053 35.846 4.095
H 76.881 39.877 5.492
H 76.673 40.136 -3.701
H 60.545 40.89 5.697
H 60.47 40.997 -3.337
H 77.523 38.023 -0.238
H 77.572 37.963 1.88
H 77.583 37.894 4.127
H 77.432 38.081 -2.483
H 77.84 40.429 1.989
H 77.79 40.492 -0.22
H 77.887 40.365 4.167
H 77.738 40.55 -2.398
H 75.805 41.98 -0.089
H 75.853 41.92 2.032
H 75.874 41.829 4.278
H 75.725 42.016 -2.336
H 63.43 32.746 -2.22
H 63.411 32.72 0.008
H 63.427 32.707 2.115
H 63.473 32.721 4.342
H 62.417 34.838 -2.178
H 62.418 34.809 0.051
H 62.454 34.801 2.161
H 62.526 34.807 4.387
C 68.745 29.353 0.235
C 68.748 29.332 1.794
C 66.022 28.355 -0.348
C 66.036 28.303 2.364
C 67.633 30.254 2.375
C 66.261 29.787 0.233
C 66.261 29.758 1.824
C 67.636 30.297 -0.298
C 68.77 29.292 4.501
C 66.06 28.28 3.922
C 66.283 29.723 4.461
C 67.654 30.236 3.971
C 68.739 29.406 -2.474
C 66.025 28.391 -1.908
C 67.645 30.336 -1.89
C 66.275 29.841 -2.408
C 67.894 31.706 0.294
C 67.883 31.679 1.843
C 65.205 30.786 -0.317
C 65.208 30.746 2.392
C 67.861 31.645 4.594
C 65.227 30.737 3.951
C 67.917 31.775 -2.397
C 65.213 30.812 -1.876
C 71.788 18.068 2.081
C 70.305 17.9 -0.035
C 70.31 17.855 1.554
C 71.778 18.149 -0.568
C 70.352 17.801 4.178
C 71.818 18.032 3.662
C 71.778 18.199 -2.146
C 70.316 17.972 -2.664
C 72.327 19.578 -0.033
C 72.345 19.526 1.543
C 69.401 19.013 -0.561
C 69.427 18.954 2.146
C 71.35 20.655 2.111
C 69.867 20.352 0.03
C 69.891 20.317 1.607
C 71.306 20.723 -0.508
C 72.397 19.464 4.148
C 69.461 18.927 3.701
C 69.962 20.264 4.244
C 71.386 20.615 3.698
C 72.283 19.66 -2.64
C 69.402 19.051 -2.117
C 71.288 20.769 -2.095
C 69.853 20.42 -2.609
C 71.698 22.183 0.042
C 71.728 22.141 1.617
C 68.822 21.345 -0.494
C 68.871 21.294 2.212
C 70.58 23.16 2.19
C 69.116 22.727 0.088
C 69.148 22.697 1.676
C 70.524 23.214 -0.457
C 71.785 22.069 4.221
C 68.918 21.267 3.767
C 69.226 22.653 4.3
C 70.626 23.13 3.768
C 71.659 22.248 -2.563
C 68.81 21.378 -2.049
C 70.507 23.249 -2.036
C 69.092 22.782 -2.538
C 70.611 24.674 0.114
C 70.643 24.647 1.663
C 67.949 23.631 -0.436
C 68.002 23.581 2.273
C 69.507 25.542 2.261
C 68.102 25.051 0.145
C 68.129 25.022 1.735
C 69.46 25.587 -0.406
C 70.714 24.595 4.357
C 68.049 23.556 3.831
C 68.194 24.98 4.373
C 69.549 25.516 3.854
C 70.568 24.719 -2.593
C 67.936 23.663 -1.995
C 69.447 25.618 -2
C 68.076 25.103 -2.496
C 69.658 27.015 0.175
C 69.676 26.993 1.734
C 66.947 25.966 -0.387
C 66.986 25.914 2.325
C 69.718 26.949 4.438
C 67.024 25.888 3.884
C 69.632 27.063 -2.532
C 66.939 26.001 -1.946
C 76.323 19.231 1.971
C 74.895 19.011 -0.158
C 74.923 18.94 1.394
C 76.267 19.346 -0.753
C 74.955 18.846 4.101
C 76.341 19.18 3.532
C 76.233 19.416 -2.315
C 74.837 19.187 -2.915
C 76.752 20.681 -0.127
C 76.782 20.617 1.452
C 73.782 19.99 -0.614
C 73.827 19.886 2.028
C 75.757 21.667 2.04
C 74.22 21.409 -0.041
C 74.248 21.348 1.545
C 75.707 21.771 -0.579
C 76.821 20.53 4.076
C 73.852 19.834 3.599
C 74.297 21.25 4.121
C 75.783 21.606 3.618
C 76.697 20.806 -2.746
C 73.745 20.052 -2.189
C 75.667 21.831 -2.157
C 74.155 21.51 -2.615
C 76.193 23.16 -0.014
C 76.223 23.098 1.564
C 73.181 22.529 -0.502
C 73.236 22.437 2.135
C 75.214 24.101 2.197
C 73.771 23.867 0.084
C 73.803 23.809 1.636
C 75.158 24.205 -0.52
C 76.279 22.978 4.182
C 73.267 22.377 3.708
C 73.872 23.671 4.359
C 75.247 24.032 3.757
C 76.137 23.241 -2.635
C 73.145 22.582 -2.072
C 75.124 24.251 -2.081
C 73.716 23.938 -2.631
C 80.696 20.159 1.934
C 79.242 19.936 -0.188
C 79.273 19.877 1.369
C 80.642 20.259 -0.785
C 79.307 19.791 4.072
C 80.713 20.106 3.498
C 80.598 20.321 -2.347
C 79.17 20.051 -2.887
C 81.127 21.618 -0.18
C 81.158 21.56 1.412
C 78.196 21.009 -0.672
C 78.246 20.906 1.971
C 80.157 22.636 1.992
C 78.655 22.399 -0.097
C 78.685 22.338 1.484
C 80.106 22.734 -0.64
C 81.183 21.474 4.041
C 78.266 20.848 3.549
C 78.726 22.238 4.083
C 80.175 22.574 3.574
C 81.048 21.724 -2.807
C 78.157 21.071 -2.248
C 80.062 22.789 -2.221
C 78.594 22.494 -2.695
C 80.58 24.13 -0.078
C 80.61 24.071 1.515
C 77.638 23.51 -0.566
C 77.69 23.409 2.076
C 79.612 25.106 2.137
C 78.157 24.876 0.016
C 78.187 24.817 1.574
C 79.56 25.207 -0.583
C 80.642 23.953 4.142
C 77.715 23.345 3.653
C 78.231 24.694 4.273
C 79.633 25.039 3.7
C 80.508 24.205 -2.707
C 77.598 23.564 -2.144
C 79.519 25.254 -2.146
C 78.093 24.953 -2.686
C 82.543 21.974 -0.764
C 82.597 21.875 1.964
C 82.992 23.336 -0.144
C 83.022 23.279 1.427
C 82.613 21.818 3.532
C 83.05 23.174 4.15
C 82.497 22.03 -2.332
C 82.913 23.427 -2.867
C 82.009 24.434 -0.665
C 82.062 24.335 2.064
C 82.078 24.272 3.632
C 81.965 24.485 -2.233
C 68.549 27.893 2.321
C 67.146 27.402 0.191
C 67.159 27.372 1.786
C 68.526 27.937 -0.349
C 67.202 27.334 4.414
C 68.578 27.871 3.912
C 68.525 27.971 -1.94
C 67.14 27.456 -2.44
H 65.056 27.94 2.059
H 65.043 27.989 -0.045
H 65.106 27.908 4.299
H 68.724 29.247 5.589
H 66.251 29.696 5.551
H 65.062 28.047 -2.287
H 68.68 29.407 -3.562
H 66.254 29.853 -3.499
H 69.739 29.768 -2.243
H 69.761 29.679 4.274
H 69.724 29.695 2.114
H 69.722 29.719 -0.081
H 64.212 30.422 2.091
H 64.212 30.456 -0.018
H 64.251 30.424 4.325
H 67.67 31.6 5.666
H 64.239 30.492 -2.252
H 67.964 31.807 -3.485
H 68.899 31.957 -2.019
H 68.904 31.834 4.572
H 68.852 31.844 2.249
H 68.908 31.866 0.031
H 70.338 17.786 5.27
H 70.301 18.006 -3.755
H 72.441 19.453 5.237
H 69.977 20.238 5.335
H 72.255 19.676 -3.729
H 69.829 20.446 -3.7
H 71.808 22.048 5.309
H 69.238 22.62 5.391
H 71.652 22.277 -3.652
H 69.064 22.788 -3.629
H 67.03 23.182 1.986
H 66.988 23.223 -0.125
H 67.112 23.148 4.215
H 70.73 24.558 5.446
H 68.192 24.95 5.463
H 66.984 23.271 -2.359
H 70.514 24.704 -3.682
H 68.039 25.108 -3.586
H 71.461 25.245 -2.362
H 71.596 25.125 4.069
H 71.53 25.155 1.969
H 71.479 25.188 -0.232
H 66.015 25.521 2.028
H 65.982 25.57 -0.076
H 66.084 25.489 4.267
H 69.68 26.906 5.527
H 65.982 25.63 -2.318
H 69.568 27.064 -3.62
H 70.624 27.45 -2.305
H 70.697 27.361 4.205
H 70.644 27.382 2.046
H 70.621 27.41 -0.148
H 74.975 18.8 5.189
H 74.848 19.437 -3.976
H 76.841 20.488 5.165
H 74.318 21.203 5.21
H 76.686 20.866 -3.835
H 74.121 21.564 -3.703
H 76.309 22.931 5.271
H 73.956 23.542 5.438
H 76.115 23.28 -3.725
H 73.72 23.93 -3.721
H 76.879 18.646 -2.731
H 74.684 18.139 -2.934
H 75.47 25.123 1.93
H 73.194 24.718 -0.193
H 73.237 24.626 2.022
H 75.428 25.204 -0.189
H 73.278 24.544 4.237
H 75.518 25.006 4.16
H 75.378 25.253 -2.421
H 73.156 24.795 -2.348
H 76.986 18.443 1.627
H 74.741 18.049 -0.581
H 74.794 17.917 1.643
H 76.937 18.531 -0.497
H 74.806 17.857 3.745
H 77.006 18.386 3.863
H 79.34 19.813 5.161
H 79.16 20.149 -3.972
H 81.199 21.431 5.131
H 78.747 22.197 5.173
H 81.021 21.76 -3.897
H 78.571 22.533 -3.785
H 80.658 23.913 5.232
H 78.289 24.605 5.358
H 80.48 24.243 -3.797
H 78.108 24.94 -3.776
H 81.275 19.572 -2.763
H 78.914 19.015 -2.695
H 79.914 26.117 1.866
H 77.492 25.69 -0.258
H 77.534 25.607 1.932
H 79.875 26.195 -0.251
H 77.558 25.527 4.094
H 79.948 26.002 4.104
H 79.82 26.245 -2.491
H 77.43 25.77 -2.422
H 81.385 19.39 1.59
H 78.974 18.943 -0.536
H 79.02 18.86 1.654
H 81.342 19.467 -0.525
H 79.044 18.77 3.818
H 81.406 19.332 3.831
H 83.008 23.12 5.238
H 82.828 23.45 -3.953
H 67.189 27.309 5.504
H 67.11 27.463 -3.53
H 83.26 21.198 -0.5
H 83.302 21.121 1.617
H 83.307 21.044 3.864
H 83.175 21.281 -2.746
H 84.046 23.488 1.734
H 84.004 23.567 -0.475
H 84.086 23.408 3.91
H 83.958 23.643 -2.653
H 82.348 25.413 -0.331
H 82.387 25.336 1.788
H 82.396 25.235 4.035
H 82.27 25.474 -2.578
H 68.391 18.862 -2.485
H 68.374 18.812 -0.256
H 68.392 18.774 1.857
H 68.454 18.746 4.083
H 67.825 21.08 -2.413
H 67.825 21.031 -0.183
H 67.862 20.995 1.929
H 67.942 20.965 4.154
C 72.792 14.343 -0.121
C 72.784 14.289 1.437
C 69.906 14.069 -0.722
C 69.896 13.979 1.995
C 71.944 15.463 2.034
C 70.498 15.374 -0.106
C 70.491 15.325 1.484
C 71.956 15.551 -0.632
C 72.792 14.192 4.137
C 69.914 13.926 3.554
C 70.51 15.243 4.123
C 71.963 15.414 3.629
C 72.816 14.45 -2.821
C 69.927 14.127 -2.28
C 71.976 15.613 -2.224
C 70.529 15.468 -2.749
C 72.536 16.86 -0.023
C 72.527 16.81 1.524
C 69.703 16.586 -0.63
C 69.702 16.512 2.082
C 72.525 16.736 4.249
C 69.726 16.476 3.641
C 72.57 16.964 -2.706
C 69.715 16.632 -2.189
C 72.501 2.673 1.489
C 71.053 2.786 -0.688
C 70.978 2.747 0.883
C 72.627 2.75 -1.148
C 70.853 2.682 3.506
C 72.435 2.635 3.075
C 72.705 2.795 -2.732
C 71.191 2.852 -3.309
C 73.568 3.963 -0.57
C 73.52 3.896 1.005
C 70.539 4.131 -1.215
C 70.44 4.067 1.476
C 72.834 5.218 1.564
C 71.371 5.31 -0.569
C 71.333 5.262 1.009
C 72.894 5.323 -1.047
C 73.453 3.799 3.602
C 70.391 4.033 3.028
C 71.295 5.155 3.634
C 72.804 5.152 3.147
C 73.643 4.074 -3.167
C 70.615 4.171 -2.769
C 72.943 5.387 -2.63
C 71.468 5.407 -3.19
C 73.655 6.623 -0.45
C 73.631 6.551 1.125
C 70.673 6.577 -1.079
C 70.627 6.493 1.625
C 72.797 7.824 1.694
C 71.323 7.826 -0.445
C 71.309 7.772 1.144
C 72.821 7.935 -0.949
C 73.589 6.422 3.725
C 70.621 6.438 3.181
C 71.315 7.662 3.771
C 72.798 7.756 3.27
C 73.713 6.734 -3.048
C 70.722 6.629 -2.633
C 72.859 7.999 -2.525
C 71.387 7.928 -3.066
C 73.286 9.309 -0.344
C 73.282 9.246 1.198
C 70.473 9.033 -0.952
C 70.456 8.937 1.762
C 72.451 10.409 1.815
C 71.002 10.348 -0.323
C 70.997 10.292 1.268
C 72.458 10.516 -0.849
C 73.312 9.121 3.878
C 70.469 8.876 3.322
C 71.021 10.181 3.91
C 72.471 10.341 3.406
C 73.324 9.418 -3.042
C 70.507 9.09 -2.511
C 72.486 10.579 -2.44
C 71.041 10.455 -2.964
C 73.044 11.826 -0.23
C 73.038 11.766 1.327
C 70.159 11.549 -0.831
C 70.152 11.451 1.887
C 73.049 11.654 4.026
C 70.171 11.39 3.447
C 73.071 11.937 -2.928
C 70.183 11.61 -2.39
C 77.443 2.66 1.546
C 76.049 2.781 -0.623
C 76.006 2.681 0.928
C 77.503 2.826 -1.167
C 75.928 2.547 3.627
C 77.4 2.583 3.105
C 77.535 2.92 -2.727
C 76.121 2.993 -3.363
C 78.273 4.006 -0.508
C 78.241 3.911 1.068
C 75.156 3.991 -1.091
C 75.086 3.843 1.541
C 77.443 5.141 1.648
C 75.926 5.262 -0.479
C 75.893 5.171 1.109
C 77.493 5.296 -0.966
C 78.184 3.776 3.685
C 75.042 3.762 3.11
C 75.836 5.017 3.671
C 77.408 5.049 3.224
C 78.324 4.172 -3.123
C 75.188 4.076 -2.665
C 77.517 5.383 -2.543
C 75.968 5.407 -3.044
C 78.27 6.534 -0.361
C 78.241 6.441 1.216
C 75.199 6.603 -0.941
C 75.154 6.455 1.697
C 77.466 7.623 1.853
C 76.077 7.75 -0.303
C 76.052 7.657 1.25
C 77.514 7.783 -0.869
C 78.203 6.269 3.829
C 75.122 6.362 3.27
C 76.021 7.432 4.004
C 77.44 7.523 3.412
C 78.311 6.662 -2.981
C 75.225 6.681 -2.512
C 77.538 7.857 -2.43
C 76.124 7.866 -3.032
C 82.013 2.669 1.634
C 80.594 2.769 -0.525
C 80.569 2.683 1.032
C 82.056 2.815 -1.082
C 80.513 2.558 3.732
C 81.979 2.594 3.197
C 82.071 2.906 -2.643
C 80.626 2.936 -3.222
C 82.799 4.037 -0.442
C 82.774 3.951 1.149
C 79.788 4.034 -1.012
C 79.74 3.884 1.626
C 81.992 5.195 1.725
C 80.524 5.291 -0.402
C 80.496 5.201 1.179
C 82.034 5.338 -0.904
C 82.714 3.829 3.774
C 79.704 3.801 3.203
C 80.447 5.059 3.771
C 81.956 5.111 3.304
C 82.818 4.194 -3.066
C 79.81 4.125 -2.587
C 82.048 5.424 -2.484
C 80.558 5.433 -2.996
C 82.771 6.603 -0.306
C 82.745 6.517 1.285
C 79.774 6.591 -0.872
C 79.73 6.443 1.766
C 81.961 7.722 1.902
C 80.549 7.816 -0.254
C 80.522 7.73 1.302
C 82.006 7.869 -0.812
C 82.685 6.361 3.907
C 79.699 6.352 3.34
C 80.469 7.563 3.997
C 81.927 7.631 3.463
C 82.791 6.728 -2.931
C 79.793 6.674 -2.449
C 82.021 7.946 -2.374
C 80.58 7.943 -2.954
C 84.279 4.112 -0.985
C 84.238 3.968 1.738
C 84.978 5.347 -0.331
C 84.954 5.265 1.237
C 84.202 3.889 3.305
C 84.894 5.124 3.952
C 84.29 4.198 -2.552
C 84.997 5.491 -3.049
C 84.25 6.627 -0.852
C 84.207 6.483 1.87
C 84.171 6.398 3.435
C 84.261 6.707 -2.419
C 72.207 12.935 1.933
C 70.739 12.861 -0.209
C 70.732 12.806 1.387
C 72.216 13.035 -0.734
C 70.754 12.708 4.017
C 72.224 12.876 3.523
C 72.239 13.098 -2.323
C 70.773 12.964 -2.84
H 68.856 13.891 1.688
H 68.865 13.956 -0.423
H 68.896 13.813 3.929
H 72.739 14.143 5.225
H 70.481 15.204 5.214
H 68.91 14.04 -2.666
H 72.777 14.489 -3.909
H 70.516 15.51 -3.839
H 73.872 14.546 -2.573
H 73.851 14.307 3.913
H 73.82 14.379 1.762
H 73.831 14.457 -0.428
H 68.657 16.43 1.785
H 68.661 16.482 -0.33
H 68.705 16.39 4.018
H 72.397 16.721 5.331
H 68.694 16.542 -2.564
H 72.621 17.005 -3.794
H 73.572 16.91 -2.338
H 73.578 16.67 4.126
H 73.522 16.743 1.902
H 73.561 16.798 -0.299
H 70.768 2.659 4.593
H 71.226 2.905 -4.397
H 73.456 3.769 4.691
H 71.268 5.095 4.723
H 73.661 4.116 -4.255
H 71.498 5.466 -4.279
H 73.569 6.375 4.813
H 71.302 7.596 4.86
H 73.752 6.783 -4.135
H 71.396 7.973 -4.156
H 69.416 8.841 1.456
H 69.431 8.899 -0.666
H 69.449 8.752 3.689
H 73.35 9.066 4.965
H 71.005 10.122 5
H 69.493 8.981 -2.9
H 73.303 9.445 -4.13
H 71.029 10.503 -4.054
H 74.311 9.698 -2.776
H 74.287 9.395 3.543
H 74.264 9.506 1.507
H 74.256 9.592 -0.674
H 69.112 11.356 1.58
H 69.12 11.424 -0.534
H 69.154 11.266 3.823
H 72.999 11.601 5.114
H 69.168 11.518 -2.777
H 73.034 11.984 -4.016
H 74.126 12.037 -2.677
H 74.108 11.775 3.801
H 74.074 11.86 1.652
H 74.082 11.948 -0.536
H 75.916 2.508 4.716
H 76.215 3.235 -4.421
H 78.167 3.715 4.773
H 75.815 4.941 4.759
H 78.355 4.245 -4.21
H 75.983 5.48 -4.132
H 78.205 6.197 4.918
H 76.082 7.19 5.065
H 78.333 6.721 -4.07
H 76.168 7.866 -4.121
H 78.024 2.036 -3.132
H 75.772 1.988 -3.39
H 77.948 8.568 1.614
H 75.747 8.721 -0.571
H 75.709 8.569 1.67
H 77.988 8.692 -0.51
H 75.659 8.426 4.014
H 77.905 8.408 3.842
H 78.016 8.784 -2.742
H 75.787 8.828 -2.753
H 77.941 1.754 1.211
H 75.736 1.858 -1.061
H 75.671 1.691 1.149
H 77.984 1.885 -0.911
H 75.591 1.588 3.284
H 77.876 1.66 3.432
H 80.528 2.566 4.821
H 80.671 3.055 -4.304
H 82.698 3.772 4.863
H 80.434 5.004 4.86
H 82.831 4.252 -4.155
H 80.576 5.493 -4.085
H 82.67 6.307 4.996
H 80.484 7.45 5.081
H 82.804 6.788 -4.021
H 80.626 7.942 -4.043
H 82.596 2.043 -3.055
H 80.157 1.971 -3.062
H 82.468 8.655 1.657
H 80.078 8.755 -0.528
H 80.041 8.635 1.659
H 82.506 8.768 -0.454
H 79.989 8.52 3.821
H 82.419 8.507 3.891
H 82.526 8.86 -2.692
H 80.097 8.879 -2.693
H 82.545 1.782 1.295
H 80.137 1.858 -0.899
H 80.104 1.736 1.29
H 82.577 1.896 -0.821
H 80.051 1.615 3.462
H 82.496 1.693 3.53
H 84.826 5.07 5.038
H 84.954 5.55 -4.136
H 70.733 12.66 5.107
H 70.759 13.01 -3.93
H 84.822 3.206 -0.72
H 84.79 3.095 1.395
H 84.723 2.991 3.638
H 84.818 3.337 -2.963
H 85.992 5.263 1.57
H 86.026 5.377 -0.633
H 85.961 5.152 3.733
H 86.058 5.492 -2.803
H 84.769 7.514 -0.493
H 84.733 7.403 1.619
H 84.664 7.274 3.86
H 84.768 7.62 -2.737
H 69.61 4.279 -3.177
H 69.486 4.225 -0.956
H 69.414 4.205 1.141
H 69.363 4.167 3.366
H 69.705 6.62 -3.027
H 69.62 6.546 -0.803
H 69.584 6.507 1.314
H 69.591 6.433 3.541
C 73.016 -1.058 -0.641
C 72.932 -1.074 0.917
C 70.136 -0.952 -1.371
C 69.977 -0.998 1.3
C 72.224 0.172 1.458
C 70.905 0.255 -0.762
C 70.813 0.227 0.826
C 72.382 0.217 -1.213
C 72.769 -1.103 3.626
C 69.878 -1.022 2.841
C 70.642 0.185 3.413
C 72.13 0.148 3.029
C 73.161 -1.014 -3.344
C 70.239 -0.926 -2.916
C 72.484 0.252 -2.781
C 71.069 0.307 -3.354
C 73.123 1.395 -0.576
C 73.04 1.357 0.967
C 70.186 1.528 -1.316
C 70.031 1.48 1.32
C 72.861 1.311 3.7
C 69.934 1.456 2.883
C 73.289 1.467 -3.26
C 70.285 1.56 -2.88
C 72.499 -12.63 1.45
C 71.057 -12.373 -0.685
C 71.036 -12.384 0.906
C 72.532 -12.624 -1.206
C 71.046 -12.371 3.534
C 72.509 -12.629 3.034
C 72.555 -12.617 -2.785
C 71.101 -12.38 -3.315
C 73.507 -11.431 -0.705
C 73.494 -11.444 0.872
C 70.57 -11.043 -1.263
C 70.551 -11.049 1.446
C 72.917 -10.04 1.395
C 71.438 -9.912 -0.707
C 71.431 -9.922 0.869
C 72.924 -10.029 -1.224
C 73.507 -11.445 3.482
C 70.561 -11.044 3.001
C 71.454 -9.921 3.513
C 72.922 -10.047 2.983
C 73.512 -11.408 -3.314
C 70.597 -11.044 -2.82
C 72.942 -10.017 -2.812
C 71.479 -9.911 -3.349
C 73.763 -8.753 -0.699
C 73.756 -8.76 0.876
C 70.765 -8.659 -1.288
C 70.75 -8.675 1.42
C 72.938 -7.414 1.404
C 71.453 -7.423 -0.735
C 71.438 -7.436 0.854
C 72.962 -7.407 -1.24
C 73.754 -8.778 3.478
C 70.759 -8.681 2.976
C 71.439 -7.438 3.479
C 72.94 -7.422 2.982
C 73.785 -8.741 -3.301
C 70.796 -8.654 -2.843
C 72.994 -7.4 -2.818
C 71.513 -7.421 -3.358
C 73.449 -6.016 -0.682
C 73.424 -6.015 0.869
C 70.599 -6.229 -1.323
C 70.55 -6.26 1.383
C 72.517 -4.827 1.41
C 71.104 -4.892 -0.765
C 71.059 -4.911 0.826
C 72.591 -4.814 -1.256
C 73.394 -6.025 3.558
C 70.537 -6.275 2.941
C 71.001 -4.925 3.457
C 72.487 -4.837 3
C 73.512 -6.016 -3.374
C 70.648 -6.217 -2.88
C 72.651 -4.804 -2.846
C 71.202 -4.878 -3.394
C 73.126 -3.495 -0.673
C 73.066 -3.497 0.884
C 70.247 -3.671 -1.367
C 70.139 -3.717 1.34
C 72.957 -3.51 3.596
C 70.086 -3.74 2.896
C 73.236 -3.482 -3.383
C 70.324 -3.648 -2.923
C 77.098 -13.079 1.35
C 75.713 -12.822 -0.798
C 75.703 -12.864 0.752
C 77.109 -13.012 -1.378
C 75.669 -12.907 3.454
C 77.081 -13.098 2.911
C 77.113 -12.972 -2.94
C 75.742 -12.699 -3.566
C 78.022 -11.923 -0.764
C 78.014 -11.958 0.816
C 75.015 -11.535 -1.281
C 74.999 -11.585 1.363
C 77.419 -10.593 1.371
C 75.903 -10.339 -0.727
C 75.892 -10.364 0.86
C 77.433 -10.539 -1.248
C 77.995 -11.996 3.442
C 74.995 -11.601 2.936
C 75.885 -10.409 3.435
C 77.408 -10.624 2.95
C 78.039 -11.845 -3.384
C 75.014 -11.504 -2.857
C 77.431 -10.504 -2.827
C 75.9 -10.281 -3.3
C 78.376 -9.402 -0.699
C 78.369 -9.434 0.881
C 75.302 -8.939 -1.224
C 75.291 -8.974 1.409
C 77.752 -8.114 1.472
C 76.315 -7.868 -0.661
C 76.309 -7.889 0.893
C 77.761 -8.064 -1.239
C 78.353 -9.505 3.496
C 75.284 -9 2.983
C 76.298 -7.964 3.599
C 77.744 -8.154 3.033
C 78.378 -9.363 -3.317
C 75.305 -8.914 -2.795
C 77.762 -8.043 -2.8
C 76.322 -7.85 -3.367
C 81.465 -13.842 1.358
C 80.056 -13.543 -0.779
C 80.049 -13.578 0.779
C 81.477 -13.779 -1.361
C 80.024 -13.619 3.482
C 81.447 -13.87 2.921
C 81.474 -13.735 -2.924
C 80.056 -13.462 -3.48
C 82.424 -12.687 -0.77
C 82.417 -12.724 0.823
C 79.486 -12.164 -1.293
C 79.472 -12.224 1.351
C 81.882 -11.339 1.375
C 80.413 -11.03 -0.731
C 80.406 -11.066 0.851
C 81.892 -11.277 -1.258
C 82.388 -12.77 3.451
C 79.455 -12.255 2.93
C 80.385 -11.126 3.449
C 81.863 -11.376 2.957
C 82.413 -12.607 -3.397
C 79.486 -12.125 -2.869
C 81.885 -11.239 -2.84
C 80.413 -10.97 -3.329
C 82.849 -10.152 -0.709
C 82.843 -10.19 0.885
C 79.869 -9.627 -1.23
C 79.859 -9.686 1.412
C 82.291 -8.847 1.479
C 80.864 -8.548 -0.66
C 80.859 -8.584 0.9
C 82.299 -8.782 -1.242
C 82.81 -10.268 3.513
C 79.845 -9.725 2.991
C 80.836 -8.669 3.602
C 82.275 -8.892 3.043
C 82.831 -10.104 -3.338
C 79.866 -9.595 -2.809
C 82.291 -8.752 -2.807
C 80.854 -8.506 -3.362
C 83.875 -12.902 -1.339
C 83.864 -12.968 1.388
C 84.795 -11.797 -0.732
C 84.789 -11.836 0.839
C 83.845 -13.003 2.956
C 84.757 -11.903 3.561
C 83.867 -12.861 -2.907
C 84.779 -11.731 -3.455
C 84.295 -10.419 -1.28
C 84.287 -10.486 1.45
C 84.268 -10.527 3.019
C 84.286 -10.383 -2.849
C 72.189 -2.319 1.413
C 70.783 -2.32 -0.784
C 70.704 -2.344 0.794
C 72.322 -2.293 -1.25
C 70.567 -2.366 3.43
C 72.11 -2.336 3.012
C 72.411 -2.272 -2.848
C 70.928 -2.284 -3.419
H 72.636 -1.112 4.709
H 70.556 0.161 4.501
H 73.153 -0.987 -4.433
H 71.133 0.318 -4.444
H 74.215 -1.048 -3.07
H 73.847 -1.107 3.468
H 73.957 -1.092 1.292
H 74.075 -1.076 -0.901
H 72.659 1.327 4.771
H 73.382 1.49 -4.346
H 74.254 1.284 -2.853
H 73.902 1.13 3.64
H 73.996 1.182 1.399
H 74.135 1.208 -0.809
H 71.021 -12.335 4.625
H 71.101 -12.383 -4.406
H 73.546 -11.434 4.57
H 71.451 -9.908 4.604
H 73.496 -11.415 -4.404
H 71.48 -9.918 -4.44
H 73.765 -8.774 4.567
H 71.415 -7.436 4.571
H 73.803 -8.737 -4.39
H 71.523 -7.441 -4.448
H 69.517 -6.394 1.066
H 69.552 -6.343 -1.047
H 69.515 -6.421 3.293
H 73.35 -6.047 4.646
H 70.945 -4.928 4.547
H 69.636 -6.325 -3.275
H 73.511 -6.035 -4.463
H 71.219 -4.897 -4.485
H 74.525 -5.801 -3.098
H 74.422 -5.797 3.329
H 74.426 -5.804 1.205
H 74.462 -5.813 -0.982
H 69.119 -3.856 0.991
H 69.199 -3.792 -1.106
H 69.061 -3.9 3.228
H 72.857 -3.536 4.681
H 69.325 -3.755 -3.341
H 73.216 -3.487 -4.472
H 74.289 -3.393 -3.12
H 74.023 -3.371 3.415
H 74.09 -3.383 1.242
H 74.177 -3.396 -0.948
H 75.647 -12.968 4.542
H 75.865 -12.467 -4.624
H 77.991 -12.024 4.532
H 75.883 -10.435 4.525
H 78.064 -11.806 -4.474
H 75.897 -10.241 -4.39
H 78.353 -9.535 4.586
H 76.316 -8.068 4.683
H 78.385 -9.344 -4.407
H 76.341 -7.9 -4.455
H 77.442 -13.93 -3.333
H 75.227 -13.623 -3.613
H 78.365 -7.261 1.194
H 76.034 -6.878 -0.968
H 76.018 -6.91 1.232
H 78.37 -7.221 -0.923
H 76.005 -6.945 3.421
H 78.351 -7.337 3.42
H 78.363 -7.206 -3.151
H 76.054 -6.84 -3.137
H 77.438 -14.059 1.03
H 75.242 -13.671 -1.222
H 75.239 -13.779 0.995
H 77.437 -14.007 -1.095
H 75.196 -13.771 3.059
H 77.41 -14.07 3.269
H 80.057 -13.596 4.571
H 80.094 -13.388 -4.567
H 82.381 -12.8 4.542
H 80.381 -11.156 4.539
H 82.411 -12.586 -4.488
H 80.417 -10.948 -4.42
H 82.803 -10.297 4.604
H 80.851 -8.764 4.687
H 82.83 -10.08 -4.429
H 80.874 -8.547 -4.451
H 81.828 -14.689 -3.32
H 79.439 -14.33 -3.278
H 82.955 -8.03 1.201
H 80.548 -7.552 -0.954
H 80.543 -7.602 1.239
H 82.96 -7.979 -0.921
H 80.523 -7.647 3.411
H 82.928 -8.112 3.437
H 82.944 -7.952 -3.16
H 80.536 -7.496 -3.122
H 81.819 -14.82 1.034
H 79.447 -14.375 -1.117
H 79.44 -14.427 1.074
H 81.83 -14.771 -1.079
H 79.407 -14.477 3.238
H 81.797 -14.843 3.274
H 84.696 -11.925 4.648
H 84.72 -11.7 -4.542
H 70.473 -2.36 4.516
H 70.946 -2.281 -4.508
H 84.246 -13.886 -1.056
H 84.236 -13.938 1.059
H 84.193 -13.977 3.305
H 84.219 -13.816 -3.301
H 85.815 -12.024 1.156
H 85.822 -11.969 -1.052
H 85.806 -12.082 3.327
H 85.827 -11.918 -3.227
H 84.976 -9.635 -0.955
H 84.97 -9.687 1.167
H 84.925 -9.751 3.414
H 84.943 -9.588 -3.202
H 69.584 -10.901 -3.2
H 69.532 -10.889 -0.971
H 69.515 -10.903 1.144
H 69.546 -10.889 3.372
H 69.773 -8.635 -3.226
H 69.715 -8.64 -0.998
H 69.703 -8.668 1.119
H 69.732 -8.673 3.345
C 72.279 -16.526 -0.652
C 72.272 -16.529 0.907
C 69.447 -15.893 -1.236
C 69.433 -15.932 1.479
C 71.829 -15.144 1.478
C 70.424 -14.827 -0.667
C 70.405 -14.84 0.924
C 71.859 -15.136 -1.194
C 72.278 -16.552 3.612
C 69.446 -15.957 3.038
C 70.406 -14.859 3.565
C 71.838 -15.156 3.075
C 72.303 -16.503 -3.358
C 69.468 -15.873 -2.796
C 71.891 -15.123 -2.787
C 70.47 -14.813 -3.312
C 72.828 -14.072 -0.61
C 72.797 -14.069 0.939
C 70.061 -13.436 -1.24
C 70.03 -13.451 1.475
C 72.755 -14.055 3.689
C 70.04 -13.455 3.035
C 72.898 -14.058 -3.299
C 70.088 -13.432 -2.798
C 68.614 -27.595 1.245
C 67.239 -26.95 -0.852
C 67.243 -26.988 0.738
C 68.608 -27.533 -1.408
C 67.289 -27.041 3.36
C 68.644 -27.634 2.828
C 68.607 -27.494 -2.986
C 67.24 -26.902 -3.478
C 69.857 -26.641 -0.899
C 69.868 -26.691 0.677
C 67.084 -25.521 -1.379
C 67.114 -25.579 1.324
C 69.664 -25.206 1.248
C 68.222 -24.652 -0.811
C 68.247 -24.693 0.766
C 69.624 -25.129 -1.369
C 69.919 -26.766 3.283
C 67.149 -25.613 2.877
C 68.315 -24.771 3.4
C 69.695 -25.257 2.834
C 69.822 -26.549 -3.507
C 67.081 -25.492 -2.936
C 69.61 -25.081 -2.956
C 68.207 -24.591 -3.448
C 70.767 -24.129 -0.836
C 70.793 -24.178 0.74
C 67.894 -23.246 -1.33
C 67.947 -23.314 1.374
C 70.405 -22.698 1.321
C 68.916 -22.258 -0.764
C 68.948 -22.299 0.825
C 70.352 -22.627 -1.326
C 70.838 -24.269 3.343
C 67.992 -23.359 2.928
C 69.024 -22.376 3.448
C 70.45 -22.748 2.898
C 70.732 -24.053 -3.44
C 67.881 -23.213 -2.885
C 70.335 -22.589 -2.905
C 68.891 -22.202 -3.39
C 71.243 -21.462 -0.762
C 71.274 -21.496 0.786
C 68.443 -20.86 -1.284
C 68.491 -20.929 1.426
C 70.831 -20.122 1.39
C 69.367 -19.767 -0.715
C 69.39 -19.803 0.875
C 70.79 -20.069 -1.278
C 71.339 -21.573 3.48
C 68.535 -20.975 2.983
C 69.448 -19.868 3.514
C 70.87 -20.163 2.982
C 71.2 -21.407 -3.47
C 68.431 -20.827 -2.843
C 70.78 -20.04 -2.872
C 69.35 -19.716 -3.358
C 71.755 -18.988 -0.704
C 71.769 -19.006 0.855
C 68.909 -18.374 -1.25
C 68.931 -18.434 1.464
C 71.803 -19.052 3.558
C 68.962 -18.472 3.023
C 71.742 -18.949 -3.41
C 68.91 -18.343 -2.809
C 73.029 -29.138 1.038
C 71.694 -28.524 -1.073
C 71.697 -28.606 0.477
C 73.013 -29 -1.685
C 71.696 -28.714 3.175
C 73.032 -29.195 2.598
C 73 -28.919 -3.247
C 71.702 -28.337 -3.831
C 74.159 -28.158 -1.068
C 74.168 -28.233 0.51
C 71.292 -27.096 -1.51
C 71.308 -27.213 1.131
C 73.899 -26.795 1.109
C 72.448 -26.157 -0.951
C 72.458 -26.225 0.636
C 73.882 -26.672 -1.51
C 74.181 -28.338 3.135
C 71.323 -27.272 2.702
C 72.481 -26.343 3.211
C 73.907 -26.866 2.687
C 74.148 -28.014 -3.687
C 71.271 -27.022 -3.085
C 73.86 -26.595 -3.088
C 72.413 -26.03 -3.523
C 75.06 -25.785 -0.955
C 75.071 -25.858 0.623
C 72.191 -24.651 -1.403
C 72.222 -24.762 1.234
C 74.792 -24.467 1.263
C 73.43 -23.862 -0.832
C 73.447 -23.93 0.72
C 74.766 -24.342 -1.454
C 75.084 -25.998 3.241
C 72.237 -24.831 2.807
C 73.466 -24.088 3.442
C 74.802 -24.548 2.823
C 75.025 -25.678 -3.577
C 72.168 -24.584 -2.972
C 74.742 -24.281 -3.015
C 73.388 -23.768 -3.548
C 77.176 -30.782 0.946
C 75.819 -30.155 -1.158
C 75.83 -30.228 0.399
C 77.157 -30.656 -1.773
C 75.839 -30.33 3.101
C 77.178 -30.844 2.509
C 77.137 -30.572 -3.335
C 75.792 -30.006 -3.857
C 78.319 -29.794 -1.177
C 78.33 -29.868 0.415
C 75.535 -28.68 -1.632
C 75.551 -28.804 1.011
C 78.098 -28.421 1.005
C 76.692 -27.778 -1.065
C 76.702 -27.852 0.516
C 78.079 -28.297 -1.627
C 78.332 -29.968 3.044
C 75.553 -28.871 2.589
C 76.71 -27.971 3.114
C 78.096 -28.49 2.586
C 78.283 -29.649 -3.803
C 75.518 -28.6 -3.208
C 78.055 -28.219 -3.207
C 76.663 -27.653 -3.663
C 79.252 -27.399 -1.073
C 79.263 -27.473 0.519
C 76.452 -26.288 -1.525
C 76.472 -26.412 1.117
C 79.011 -26.062 1.152
C 77.646 -25.438 -0.952
C 77.658 -25.512 0.606
C 78.991 -25.935 -1.568
C 79.254 -27.603 3.147
C 76.476 -26.487 2.694
C 77.658 -25.652 3.305
C 79.01 -26.138 2.714
C 79.204 -27.283 -3.701
C 76.429 -26.215 -3.102
C 78.964 -25.865 -3.131
C 77.602 -25.325 -3.653
C 79.689 -30.277 -1.779
C 79.708 -30.404 0.949
C 80.822 -29.394 -1.167
C 80.833 -29.467 0.404
C 79.707 -30.47 2.517
C 80.828 -29.586 3.127
C 79.664 -30.197 -3.346
C 80.777 -29.259 -3.889
C 80.604 -27.932 -1.677
C 80.624 -28.06 1.051
C 80.621 -28.131 2.619
C 80.577 -27.857 -3.245
C 71.326 -17.631 1.441
C 69.872 -17.292 -0.685
C 69.873 -17.317 0.911
C 71.319 -17.599 -1.229
C 69.903 -17.36 3.54
C 71.348 -17.655 3.032
C 71.33 -17.58 -2.82
C 69.886 -17.258 -3.318
H 68.411 -15.71 1.176
H 68.427 -15.663 -0.931
H 68.443 -15.756 3.418
H 72.222 -16.56 4.701
H 70.367 -14.852 4.655
H 68.473 -15.634 -3.175
H 72.261 -16.478 -4.447
H 70.461 -14.805 -4.403
H 73.336 -16.747 -3.119
H 73.322 -16.759 3.382
H 73.291 -16.749 1.228
H 73.298 -16.753 -0.966
H 69.013 -13.208 1.17
H 69.043 -13.185 -0.945
H 69.043 -13.208 3.405
H 72.572 -13.982 4.761
H 69.095 -13.189 -3.179
H 72.964 -14.07 -4.386
H 73.824 -14.428 -2.911
H 73.737 -14.457 3.671
H 73.701 -14.449 1.354
H 73.771 -14.488 -0.864
H 67.283 -27.033 4.451
H 67.224 -26.869 -4.569
H 69.973 -26.797 4.371
H 68.33 -24.798 4.491
H 69.785 -26.519 -4.595
H 68.184 -24.557 -4.538
H 70.862 -24.3 4.431
H 69.029 -22.408 4.539
H 70.726 -24.022 -4.529
H 68.859 -22.181 -4.48
H 67.458 -20.723 1.151
H 67.421 -20.664 -0.961
H 67.534 -20.798 3.38
H 71.34 -21.613 4.569
H 69.439 -19.888 4.605
H 67.419 -20.62 -3.196
H 71.141 -21.388 -4.557
H 69.313 -19.694 -4.448
H 72.234 -21.463 -3.24
H 72.364 -21.617 3.185
H 72.297 -21.562 1.083
H 72.246 -21.513 -1.119
H 67.902 -18.227 1.175
H 67.889 -18.167 -0.931
H 67.96 -18.291 3.414
H 71.758 -19.064 4.647
H 67.907 -18.118 -3.175
H 71.687 -18.914 -4.498
H 72.782 -19.18 -3.184
H 72.847 -19.242 3.317
H 72.794 -19.213 1.161
H 72.773 -19.193 -1.033
H 71.681 -28.79 4.263
H 71.843 -28.119 -4.889
H 74.186 -28.391 4.224
H 72.488 -26.399 4.3
H 74.16 -27.952 -4.776
H 72.398 -25.96 -4.611
H 75.096 -26.058 4.33
H 73.477 -24.242 4.521
H 75.016 -25.63 -4.666
H 73.373 -23.776 -4.637
H 73.108 -29.915 -3.668
H 70.997 -29.128 -3.867
H 75.566 -23.756 0.988
H 73.42 -22.835 -1.109
H 73.434 -22.937 1.108
H 75.547 -23.659 -1.132
H 73.451 -23.032 3.319
H 75.572 -23.889 3.218
H 75.502 -23.583 -3.363
H 73.408 -22.745 -3.266
H 73.144 -30.159 0.689
H 71.039 -29.243 -1.501
H 71.041 -29.402 0.713
H 73.124 -30.05 -1.434
H 71.032 -29.449 2.785
H 73.15 -30.226 2.925
H 75.89 -30.337 4.189
H 75.826 -29.913 -4.942
H 78.333 -30.018 4.133
H 76.716 -28.022 4.204
H 78.268 -29.598 -4.893
H 76.654 -27.602 -4.753
H 79.257 -27.651 4.236
H 77.669 -25.764 4.389
H 79.189 -27.23 -4.79
H 77.595 -25.338 -4.742
H 77.283 -31.568 -3.758
H 75.008 -30.729 -3.66
H 79.819 -25.386 0.875
H 77.537 -24.391 -1.219
H 77.555 -24.494 0.971
H 79.803 -25.287 -1.242
H 77.557 -24.585 3.133
H 79.81 -25.512 3.112
H 79.758 -25.203 -3.481
H 77.503 -24.279 -3.382
H 77.321 -31.803 0.595
H 75.043 -30.832 -1.501
H 75.061 -30.937 0.688
H 77.305 -31.705 -1.52
H 75.053 -31.034 2.851
H 77.33 -31.874 2.835
H 80.774 -29.613 4.215
H 80.706 -29.186 -4.974
H 69.885 -17.365 4.631
H 69.862 -17.243 -4.409
H 79.859 -31.322 -1.523
H 79.875 -31.42 0.594
H 79.859 -31.5 2.841
H 79.811 -31.193 -3.767
H 81.805 -29.861 0.698
H 81.789 -29.759 -1.51
H 81.817 -29.963 2.875
H 81.769 -29.657 -3.688
H 81.431 -27.305 -1.349
H 81.446 -27.404 0.77
H 81.423 -27.507 3.016
H 81.374 -27.199 -3.595
H 66.127 -25.096 -3.29
H 66.12 -25.124 -1.062
H 66.146 -25.164 1.045
H 66.213 -25.212 3.272
H 66.891 -22.914 -3.236
H 66.895 -22.956 -1.006
H 66.937 -23.004 1.104
H 67.018 -23.072 3.329
C 67.489 -31.273 -0.926
C 67.496 -31.306 0.633
C 64.857 -30.034 -1.463
C 64.863 -30.11 1.249
C 67.375 -29.873 1.233
C 66.051 -29.206 -0.885
C 66.05 -29.243 0.706
C 67.375 -29.816 -1.439
C 67.516 -31.379 3.34
C 64.882 -30.161 2.806
C 66.072 -29.312 3.342
C 67.396 -29.917 2.828
C 67.488 -31.202 -3.635
C 64.865 -29.994 -3.022
C 67.39 -29.778 -3.032
C 66.067 -29.147 -3.526
C 68.567 -29.015 -0.851
C 68.559 -29.043 0.698
C 66.011 -27.749 -1.417
C 66.017 -27.807 1.292
C 68.553 -29.082 3.447
C 66.042 -27.844 2.851
C 68.599 -28.954 -3.542
C 66.017 -27.718 -2.975
C 61.706 -41.405 0.918
C 60.477 -40.497 -1.173
C 60.479 -40.541 0.417
C 61.706 -41.333 -1.735
C 60.52 -40.611 3.038
C 61.733 -41.455 2.5
C 61.708 -41.288 -3.313
C 60.481 -40.441 -3.798
C 63.106 -40.698 -1.229
C 63.111 -40.758 0.347
C 60.602 -39.061 -1.696
C 60.627 -39.135 1.006
C 63.201 -39.264 0.923
C 61.889 -38.427 -1.128
C 61.91 -38.481 0.448
C 63.17 -39.166 -1.693
C 63.153 -40.852 2.952
C 60.659 -39.181 2.559
C 61.968 -38.583 3.081
C 63.225 -39.327 2.509
C 63.083 -40.591 -3.835
C 60.601 -39.026 -3.252
C 63.162 -39.108 -3.279
C 61.879 -38.351 -3.763
C 64.488 -38.409 -1.16
C 64.507 -38.473 0.415
C 61.841 -36.978 -1.64
C 61.885 -37.071 1.063
C 64.415 -36.949 1.003
C 63.036 -36.207 -1.072
C 63.064 -36.264 0.516
C 64.371 -36.848 -1.642
C 64.539 -38.585 3.017
C 61.925 -37.133 2.616
C 63.13 -36.373 3.138
C 64.452 -37.018 2.58
C 64.462 -38.312 -3.763
C 61.831 -36.935 -3.194
C 64.358 -36.797 -3.221
C 63.016 -36.129 -3.695
C 65.472 -35.883 -1.078
C 65.501 -35.939 0.47
C 62.847 -34.734 -1.578
C 62.89 -34.832 1.13
C 65.342 -34.512 1.087
C 63.971 -33.843 -1.004
C 63.994 -33.898 0.586
C 65.302 -34.421 -1.579
C 65.557 -36.052 3.163
C 62.928 -34.898 2.686
C 64.047 -34.001 3.222
C 65.377 -34.576 2.679
C 65.432 -35.795 -3.785
C 62.837 -34.687 -3.136
C 65.292 -34.373 -3.172
C 63.953 -33.761 -3.643
C 66.465 -33.563 -1.003
C 66.484 -33.607 0.555
C 63.805 -32.372 -1.516
C 63.831 -32.465 1.195
C 66.52 -33.696 3.26
C 63.86 -32.526 2.752
C 66.444 -33.483 -3.709
C 63.803 -32.325 -3.075
C 65.735 -43.776 0.688
C 64.54 -42.903 -1.416
C 64.532 -42.991 0.133
C 65.738 -43.625 -2.034
C 64.515 -43.109 2.831
C 65.731 -43.84 2.248
C 65.737 -43.537 -3.595
C 64.578 -42.708 -4.174
C 67.029 -43.026 -1.417
C 67.027 -43.109 0.161
C 64.424 -41.421 -1.847
C 64.423 -41.552 0.794
C 67.046 -41.648 0.765
C 65.742 -40.728 -1.287
C 65.743 -40.805 0.299
C 67.046 -41.512 -1.853
C 67.026 -43.225 2.785
C 64.43 -41.62 2.364
C 65.749 -40.937 2.873
C 67.044 -41.727 2.343
C 67.04 -42.873 -4.035
C 64.413 -41.337 -3.421
C 67.036 -41.426 -3.431
C 65.726 -40.585 -3.859
C 68.377 -40.876 -1.299
C 68.378 -40.958 0.278
C 65.781 -39.198 -1.733
C 65.798 -39.327 0.903
C 68.377 -39.541 0.925
C 67.154 -38.67 -1.163
C 67.161 -38.748 0.389
C 68.369 -39.401 -1.791
C 68.37 -41.109 2.896
C 65.803 -39.406 2.476
C 67.155 -38.922 3.111
C 68.375 -39.63 2.484
C 68.356 -40.753 -3.92
C 65.768 -39.12 -3.302
C 68.353 -39.328 -3.352
C 67.123 -38.555 -3.876
C 69.479 -46.2 0.581
C 68.265 -45.311 -1.517
C 68.266 -45.391 0.04
C 69.476 -46.063 -2.137
C 68.263 -45.502 2.742
C 69.473 -46.266 2.144
C 69.469 -45.972 -3.699
C 68.26 -45.151 -4.215
C 70.787 -45.448 -1.543
C 70.788 -45.528 0.049
C 68.274 -43.807 -1.986
C 68.273 -43.942 0.656
C 70.846 -44.065 0.644
C 69.587 -43.151 -1.421
C 69.587 -43.232 0.16
C 70.844 -43.932 -1.988
C 70.778 -45.635 2.678
C 68.267 -44.014 2.234
C 69.578 -43.359 2.758
C 70.835 -44.138 2.225
C 70.772 -45.29 -4.168
C 68.269 -43.72 -3.561
C 70.831 -43.845 -3.568
C 69.576 -43.014 -4.018
C 72.172 -43.283 -1.436
C 72.173 -43.363 0.157
C 69.642 -41.641 -1.875
C 69.644 -41.777 0.766
C 72.204 -41.932 0.793
C 70.981 -41.045 -1.304
C 70.982 -41.125 0.253
C 72.201 -41.794 -1.926
C 72.146 -43.497 2.784
C 69.638 -41.857 2.343
C 70.963 -41.271 2.953
C 72.192 -42.011 2.356
C 72.14 -43.152 -4.063
C 69.629 -41.559 -3.452
C 72.184 -41.716 -3.488
C 70.954 -40.917 -4.004
C 72.033 -46.189 -2.15
C 72.036 -46.326 0.577
C 73.319 -45.547 -1.539
C 73.321 -45.626 0.031
C 72.026 -46.395 2.145
C 73.301 -45.749 2.754
C 72.02 -46.101 -3.717
C 73.294 -45.398 -4.261
C 73.391 -44.07 -2.046
C 73.394 -44.207 0.682
C 73.381 -44.28 2.25
C 73.375 -43.986 -3.613
C 66.339 -32.181 1.163
C 64.974 -31.509 -0.943
C 64.984 -31.556 0.652
C 66.319 -32.106 -1.507
C 65.02 -31.643 3.279
C 66.364 -32.234 2.752
C 66.322 -32.065 -3.098
C 64.974 -31.438 -3.573
H 63.913 -29.664 0.96
H 63.912 -29.599 -1.143
H 63.952 -29.749 3.199
H 67.465 -31.391 4.428
H 66.044 -29.321 4.433
H 63.94 -29.545 -3.385
H 67.435 -31.146 -4.722
H 66.049 -29.11 -4.617
H 68.451 -31.664 -3.421
H 68.486 -31.809 3.095
H 68.444 -31.75 0.935
H 68.432 -31.707 -1.259
H 65.083 -27.325 1.007
H 65.081 -27.279 -1.101
H 65.136 -27.377 3.24
H 68.407 -28.995 4.523
H 65.1 -27.247 -3.335
H 68.642 -28.949 -4.631
H 69.425 -29.53 -3.184
H 69.42 -29.689 3.392
H 69.366 -29.619 1.084
H 69.393 -29.617 -1.134
H 60.52 -40.605 4.129
H 60.469 -40.402 -4.888
H 63.204 -40.897 4.04
H 61.98 -38.618 4.172
H 63.048 -40.55 -4.923
H 61.861 -38.309 -4.853
H 64.559 -38.626 4.105
H 63.132 -36.415 4.228
H 64.459 -38.277 -4.852
H 62.985 -36.094 -4.785
H 61.917 -34.423 0.86
H 61.884 -34.344 -1.25
H 61.983 -34.528 3.088
H 65.558 -36.102 4.252
H 64.039 -34.033 4.313
H 61.883 -34.285 -3.483
H 65.366 -35.754 -4.872
H 63.916 -33.719 -4.732
H 66.438 -36.058 -3.573
H 66.549 -36.297 2.856
H 66.492 -36.21 0.758
H 66.443 -36.131 -1.442
H 62.866 -32.047 0.915
H 62.849 -31.968 -1.189
H 62.92 -32.145 3.153
H 66.477 -33.712 4.348
H 62.863 -31.9 -3.43
H 66.385 -33.422 -4.795
H 67.419 -33.919 -3.5
H 67.5 -34.097 3.008
H 67.447 -34.025 0.85
H 67.418 -33.966 -1.344
H 64.488 -43.186 3.918
H 64.759 -42.516 -5.231
H 67.022 -43.282 3.874
H 65.747 -40.999 3.962
H 67.061 -42.811 -5.124
H 65.722 -40.509 -4.947
H 68.373 -41.174 3.984
H 67.139 -39.082 4.189
H 68.354 -40.7 -5.009
H 67.104 -38.553 -4.966
H 65.647 -44.533 -4.02
H 63.732 -43.345 -4.214
H 69.274 -38.994 0.65
H 67.343 -37.658 -1.433
H 67.345 -37.775 0.782
H 69.269 -38.885 -1.47
H 67.351 -37.883 2.996
H 69.26 -39.135 2.879
H 69.234 -38.792 -3.7
H 67.338 -37.556 -3.588
H 65.647 -44.799 0.335
H 63.757 -43.477 -1.846
H 63.733 -43.646 0.367
H 65.642 -44.678 -1.787
H 63.721 -43.699 2.438
H 65.645 -44.875 2.571
H 68.315 -45.522 3.83
H 68.308 -45.063 -5.3
H 70.772 -45.688 3.767
H 69.578 -43.414 3.848
H 70.764 -45.234 -5.257
H 69.574 -42.959 -5.107
H 72.142 -43.548 3.873
H 70.954 -41.387 4.036
H 72.133 -43.094 -5.152
H 70.941 -40.925 -5.094
H 69.415 -46.976 -4.124
H 67.35 -45.706 -4.017
H 73.127 -41.427 0.515
H 71.08 -39.996 -1.568
H 71.082 -40.108 0.622
H 73.125 -41.319 -1.601
H 71.072 -40.205 2.783
H 73.1 -41.555 2.752
H 73.092 -41.222 -3.84
H 71.062 -39.873 -3.731
H 69.42 -47.228 0.227
H 67.37 -45.822 -1.858
H 67.374 -45.936 0.331
H 69.417 -47.121 -1.887
H 67.354 -46.038 2.494
H 69.421 -47.307 2.467
H 73.246 -45.769 3.842
H 73.236 -45.311 -5.345
H 65.006 -31.663 4.369
H 64.946 -31.399 -4.663
H 71.996 -47.248 -1.896
H 71.999 -47.354 0.22
H 71.975 -47.436 2.467
H 71.967 -47.105 -4.14
H 74.198 -46.204 0.321
H 74.195 -46.094 -1.887
H 74.196 -46.312 2.498
H 74.189 -45.984 -4.063
H 74.326 -43.618 -1.719
H 74.328 -43.724 0.4
H 74.291 -43.827 2.646
H 74.285 -43.497 -3.964
H 59.74 -38.452 -3.602
H 59.734 -38.486 -1.374
H 59.757 -38.54 0.733
H 59.82 -38.607 2.958
H 60.916 -36.449 -3.54
H 60.917 -36.502 -1.311
H 60.955 -36.569 0.797
H 61.026 -36.662 3.022
C 59.884 -44.793 -1.255
C 59.89 -44.832 0.304
C 57.541 -43.068 -1.78
C 57.54 -43.151 0.931
C 60.051 -43.402 0.906
C 58.874 -42.485 -1.206
C 58.871 -42.526 0.385
C 60.054 -43.339 -1.766
C 59.904 -44.914 3.01
C 57.554 -43.208 2.488
C 58.887 -42.605 3.021
C 60.067 -43.454 2.502
C 59.889 -44.718 -3.963
C 57.552 -43.027 -3.339
C 60.071 -43.3 -3.358
C 58.894 -42.425 -3.846
C 61.38 -42.783 -1.181
C 61.371 -42.814 0.368
C 59.117 -41.045 -1.735
C 59.118 -41.112 0.973
C 61.365 -42.859 3.117
C 59.14 -41.158 2.532
C 61.416 -42.721 -3.871
C 59.124 -41.012 -3.293
C 52.241 -53.624 0.602
C 51.205 -52.489 -1.483
C 51.206 -52.534 0.107
C 52.241 -53.551 -2.05
C 51.245 -52.613 2.728
C 52.264 -53.679 2.184
C 52.245 -53.508 -3.629
C 51.208 -52.433 -4.107
C 53.742 -53.2 -1.549
C 53.743 -53.261 0.027
C 51.607 -51.104 -2.006
C 51.629 -51.185 0.696
C 54.125 -51.813 0.603
C 52.995 -50.734 -1.443
C 53.011 -50.791 0.134
C 54.103 -51.708 -2.013
C 53.776 -53.365 2.632
C 51.657 -51.237 2.249
C 53.059 -50.906 2.767
C 54.144 -51.881 2.189
C 53.73 -53.088 -4.154
C 51.607 -51.068 -3.562
C 54.1 -51.648 -3.599
C 52.99 -50.654 -4.077
C 55.546 -51.221 -1.484
C 55.559 -51.29 0.091
C 53.229 -49.302 -1.953
C 53.265 -49.404 0.749
C 55.77 -49.777 0.68
C 54.555 -48.777 -1.389
C 54.577 -48.841 0.199
C 55.736 -49.666 -1.965
C 55.579 -51.41 2.693
C 53.297 -49.474 2.303
C 54.629 -48.965 2.82
C 55.798 -49.853 2.257
C 55.53 -51.118 -4.086
C 53.222 -49.255 -3.507
C 55.729 -49.611 -3.543
C 54.54 -48.693 -4.011
C 57.008 -48.933 -1.404
C 57.031 -48.995 0.144
C 54.655 -47.294 -1.893
C 54.688 -47.403 0.814
C 57.155 -47.564 0.763
C 55.933 -46.638 -1.322
C 55.95 -46.7 0.267
C 57.124 -47.463 -1.903
C 57.073 -49.122 2.837
C 54.717 -47.478 2.37
C 55.991 -46.816 2.903
C 57.182 -47.637 2.354
C 56.976 -48.834 -4.11
C 54.649 -47.244 -3.451
C 57.118 -47.411 -3.496
C 55.922 -46.55 -3.96
C 58.434 -46.846 -1.33
C 58.45 -46.896 0.228
C 56.054 -45.161 -1.833
C 56.071 -45.263 0.878
C 58.476 -46.995 2.931
C 56.093 -45.331 2.435
C 58.42 -46.758 -4.035
C 56.057 -45.112 -3.391
C 55.73 -56.732 0.359
C 54.718 -55.64 -1.74
C 54.7 -55.726 -0.19
C 55.751 -56.582 -2.363
C 54.673 -55.843 2.508
C 55.72 -56.795 1.919
C 55.761 -56.493 -3.924
C 54.782 -55.455 -4.495
C 57.137 -56.246 -1.752
C 57.125 -56.328 -0.174
C 54.892 -54.164 -2.171
C 54.877 -54.295 0.469
C 57.431 -54.9 0.431
C 56.322 -53.741 -1.616
C 56.315 -53.819 -0.03
C 57.447 -54.763 -2.187
C 57.112 -56.445 2.45
C 54.877 -54.365 2.04
C 56.305 -53.952 2.544
C 57.419 -54.978 2.008
C 57.167 -56.094 -4.37
C 54.892 -54.079 -3.745
C 57.447 -54.675 -3.765
C 56.324 -53.595 -4.188
C 58.878 -54.399 -1.638
C 58.869 -54.481 -0.061
C 56.658 -52.248 -2.062
C 56.659 -52.38 0.574
C 59.147 -53.092 0.586
C 58.109 -51.997 -1.497
C 58.107 -52.077 0.055
C 59.156 -52.949 -2.13
C 58.842 -54.631 2.556
C 56.655 -52.46 2.147
C 58.078 -52.25 2.777
C 59.134 -53.181 2.146
C 58.872 -54.271 -4.259
C 56.654 -52.167 -3.631
C 59.148 -52.873 -3.691
C 58.09 -51.876 -4.21
C 58.931 -59.838 0.234
C 57.905 -58.727 -1.858
C 57.896 -58.807 -0.302
C 58.945 -59.699 -2.484
C 57.882 -58.92 2.4
C 58.918 -59.904 1.797
C 58.95 -59.606 -4.045
C 57.921 -58.564 -4.556
C 60.352 -59.351 -1.894
C 60.344 -59.433 -0.302
C 58.205 -57.253 -2.327
C 58.187 -57.389 0.316
C 60.687 -58.01 0.293
C 59.622 -56.865 -1.766
C 59.612 -56.947 -0.185
C 60.702 -57.875 -2.338
C 60.323 -59.539 2.326
C 58.173 -57.46 1.894
C 59.589 -57.074 2.413
C 60.668 -58.082 1.874
C 60.359 -59.189 -4.519
C 58.211 -57.164 -3.901
C 60.7 -57.785 -3.918
C 59.628 -56.725 -4.363
C 62.132 -57.497 -1.791
C 62.124 -57.579 -0.199
C 59.968 -55.394 -2.22
C 59.954 -55.532 0.422
C 62.435 -56.182 0.439
C 61.4 -55.071 -1.653
C 61.392 -55.152 -0.095
C 62.448 -56.041 -2.28
C 62.081 -57.708 2.428
C 59.938 -55.611 1.998
C 61.354 -55.296 2.604
C 62.413 -56.26 2.001
C 62.117 -57.357 -4.418
C 59.966 -55.309 -3.797
C 62.442 -55.959 -3.842
C 61.388 -54.935 -4.353
C 61.429 -60.32 -2.507
C 61.415 -60.459 0.22
C 62.818 -59.941 -1.901
C 62.81 -60.021 -0.33
C 61.398 -60.527 1.788
C 62.776 -60.142 2.393
C 61.428 -60.228 -4.074
C 62.812 -59.785 -4.622
C 63.174 -58.504 -2.406
C 63.159 -58.644 0.322
C 63.138 -58.716 1.89
C 63.168 -58.417 -3.974
C 58.587 -45.469 0.837
C 57.371 -44.54 -1.263
C 57.377 -44.592 0.332
C 58.573 -45.386 -1.832
C 57.404 -44.689 2.958
C 58.606 -45.529 2.426
C 58.579 -45.342 -3.423
C 57.377 -44.466 -3.892
H 56.693 -42.529 0.646
H 56.698 -42.459 -1.457
H 56.722 -42.624 2.885
H 59.856 -44.918 4.099
H 58.861 -42.611 4.111
H 56.729 -42.407 -3.698
H 59.844 -44.65 -5.049
H 58.88 -42.383 -4.936
H 60.745 -45.356 -3.753
H 60.771 -45.522 2.761
H 60.735 -45.451 0.602
H 60.724 -45.401 -1.591
H 58.294 -40.457 0.693
H 58.296 -40.405 -1.416
H 58.343 -40.524 2.926
H 61.24 -42.747 4.194
H 58.315 -40.372 -3.649
H 61.455 -42.722 -4.96
H 62.116 -43.446 -3.518
H 62.099 -43.622 3.062
H 62.052 -43.536 0.751
H 62.072 -43.533 -1.467
H 51.251 -52.61 3.819
H 51.199 -52.392 -5.198
H 53.82 -53.42 3.719
H 53.068 -50.945 3.857
H 53.701 -53.041 -5.242
H 52.976 -50.608 -5.167
H 55.594 -51.454 3.781
H 54.627 -49.008 3.911
H 55.53 -51.082 -5.175
H 54.513 -48.652 -5.101
H 53.812 -46.812 0.549
H 53.787 -46.725 -1.561
H 53.864 -46.931 2.776
H 57.067 -49.172 3.925
H 55.981 -46.847 3.994
H 53.79 -46.664 -3.794
H 56.916 -48.779 -5.196
H 55.89 -46.5 -5.05
H 57.913 -49.288 -3.903
H 57.998 -49.554 2.526
H 57.951 -49.454 0.428
H 57.911 -49.364 -1.772
H 55.204 -44.665 0.602
H 55.196 -44.58 -1.501
H 55.246 -44.775 2.839
H 58.435 -47.004 4.02
H 55.215 -44.512 -3.742
H 58.371 -46.685 -5.122
H 59.293 -47.375 -3.831
H 59.359 -47.579 2.676
H 59.314 -47.493 0.518
H 59.29 -47.425 -1.675
H 54.637 -55.913 3.594
H 54.987 -55.303 -5.555
H 57.102 -56.502 3.539
H 56.295 -54.013 3.633
H 57.195 -56.036 -5.458
H 56.331 -53.519 -5.276
H 58.836 -54.697 3.645
H 58.035 -52.406 3.855
H 58.876 -54.217 -5.348
H 58.068 -51.868 -5.299
H 55.478 -57.452 -4.349
H 53.826 -55.913 -4.523
H 60.133 -52.73 0.308
H 58.49 -51.041 -1.767
H 58.477 -51.158 0.448
H 60.141 -52.619 -1.811
H 58.471 -51.269 2.662
H 60.1 -52.868 2.537
H 60.115 -52.518 -4.042
H 58.495 -50.937 -3.921
H 55.443 -57.717 0.005
H 53.834 -56.048 -2.164
H 53.79 -56.21 0.048
H 55.453 -57.596 -2.116
H 53.777 -56.266 2.12
H 55.436 -57.794 2.241
H 57.933 -58.951 3.488
H 57.982 -58.486 -5.641
H 60.311 -59.592 3.415
H 59.582 -57.129 3.502
H 60.359 -59.131 -5.609
H 59.633 -56.669 -5.452
H 62.071 -57.759 3.518
H 61.327 -55.41 3.687
H 62.118 -57.298 -5.507
H 61.37 -54.939 -5.442
H 58.701 -60.579 -4.472
H 56.922 -58.933 -4.355
H 63.438 -55.865 0.158
H 61.7 -54.061 -1.916
H 61.688 -54.174 0.274
H 63.449 -55.756 -1.959
H 61.668 -54.271 2.435
H 63.394 -55.989 2.395
H 63.426 -55.65 -4.197
H 61.698 -53.932 -4.079
H 58.672 -60.835 -0.12
H 56.927 -59.054 -2.197
H 56.916 -59.169 -0.008
H 58.682 -60.726 -2.235
H 56.885 -59.268 2.155
H 58.666 -60.916 2.12
H 62.722 -60.153 3.481
H 62.768 -59.686 -5.706
H 57.39 -44.709 4.049
H 57.353 -44.42 -4.982
H 61.188 -61.351 -2.254
H 61.177 -61.459 -0.138
H 61.146 -61.539 2.109
H 61.179 -61.202 -4.498
H 63.558 -60.759 -0.044
H 63.569 -60.646 -2.252
H 63.544 -60.868 2.132
H 63.577 -60.534 -4.428
H 64.18 -58.244 -2.082
H 64.168 -58.352 0.036
H 64.12 -58.449 2.282
H 64.154 -58.113 -4.327
H 50.874 -50.337 -3.908
H 50.869 -50.371 -1.681
H 50.891 -50.43 0.427
H 50.948 -50.511 2.652
H 52.418 -48.6 -3.849
H 52.417 -48.655 -1.621
H 52.449 -48.731 0.488
H 52.509 -48.839 2.712
C 49.757 -56.585 -1.561
C 49.766 -56.624 -0.002
C 47.812 -54.419 -2.072
C 47.812 -54.5 0.639
C 50.219 -55.256 0.598
C 49.239 -54.119 -1.507
C 49.238 -54.159 0.083
C 50.219 -55.194 -2.073
C 49.783 -56.708 2.703
C 47.824 -54.558 2.196
C 49.253 -54.241 2.72
C 50.234 -55.31 2.193
C 49.759 -56.513 -4.267
C 47.822 -54.382 -3.632
C 50.234 -55.159 -3.666
C 49.255 -54.064 -4.147
C 51.635 -54.912 -1.497
C 51.629 -54.941 0.052
C 49.761 -52.756 -2.039
C 49.764 -52.824 0.67
C 51.63 -54.987 2.799
C 49.784 -52.874 2.229
C 51.667 -54.856 -4.187
C 49.767 -52.725 -3.597
C 40.394 -63.589 0.393
C 39.605 -62.242 -1.676
C 39.615 -62.292 -0.087
C 40.379 -63.505 -2.254
C 39.664 -62.393 2.531
C 40.421 -63.656 1.972
C 40.375 -63.46 -3.831
C 39.59 -62.181 -4.298
C 41.935 -63.512 -1.767
C 41.945 -63.575 -0.192
C 40.307 -60.986 -2.204
C 40.342 -61.079 0.498
C 42.642 -62.243 0.374
C 41.75 -60.94 -1.661
C 41.771 -61.003 -0.085
C 42.611 -62.133 -2.241
C 41.985 -63.688 2.409
C 40.376 -61.145 2.051
C 41.825 -61.132 2.549
C 42.665 -62.318 1.96
C 41.915 -63.402 -4.37
C 40.296 -60.947 -3.76
C 42.6 -62.075 -3.828
C 41.73 -60.86 -4.296
C 44.133 -61.968 -1.734
C 44.151 -62.038 -0.159
C 42.287 -59.595 -2.18
C 42.329 -59.707 0.524
C 44.694 -60.605 0.424
C 43.699 -59.369 -1.634
C 43.723 -59.438 -0.046
C 44.655 -60.49 -2.22
C 44.178 -62.161 2.442
C 42.362 -59.785 2.077
C 43.778 -59.571 2.576
C 44.724 -60.687 2
C 44.104 -61.865 -4.336
C 42.274 -59.548 -3.735
C 44.643 -60.437 -3.799
C 43.677 -59.286 -4.257
C 46.063 -60.041 -1.674
C 46.088 -60.106 -0.127
C 44.11 -57.943 -2.146
C 44.144 -58.058 0.562
C 46.521 -58.734 0.486
C 45.502 -57.573 -1.59
C 45.52 -57.637 -0.001
C 46.488 -58.629 -2.179
C 46.133 -60.239 2.563
C 44.172 -58.138 2.119
C 45.562 -57.759 2.636
C 46.548 -58.811 2.077
C 46.029 -59.944 -4.375
C 44.101 -57.895 -3.705
C 46.479 -58.58 -3.772
C 45.487 -57.489 -4.23
C 47.906 -58.299 -1.621
C 47.925 -58.351 -0.063
C 45.927 -56.156 -2.108
C 45.944 -56.259 0.604
C 47.955 -58.454 2.639
C 45.964 -56.331 2.161
C 47.888 -58.214 -4.324
C 45.928 -56.11 -3.667
C 43.199 -67.399 0.138
C 42.38 -66.127 -1.942
C 42.373 -66.202 -0.39
C 43.204 -67.263 -2.581
C 42.386 -66.311 2.316
C 43.205 -67.461 1.698
C 43.21 -67.18 -4.142
C 42.427 -65.968 -4.685
C 44.646 -67.217 -2.003
C 44.644 -67.294 -0.425
C 42.848 -64.711 -2.391
C 42.851 -64.833 0.246
C 45.24 -65.956 0.167
C 44.351 -64.596 -1.866
C 44.354 -64.67 -0.28
C 45.239 -65.827 -2.45
C 44.656 -67.407 2.196
C 42.859 -64.902 1.817
C 44.358 -64.794 2.293
C 45.239 -66.029 1.745
C 44.662 -67.075 -4.62
C 42.842 -64.631 -3.965
C 45.233 -65.743 -4.028
C 44.34 -64.461 -4.437
C 46.727 -65.758 -1.928
C 46.728 -65.836 -0.35
C 44.987 -63.207 -2.326
C 45.001 -63.333 0.311
C 47.292 -64.534 0.287
C 46.464 -63.258 -1.786
C 46.471 -63.334 -0.234
C 47.285 -64.399 -2.431
C 46.714 -65.977 2.268
C 45.004 -63.41 1.884
C 46.449 -63.496 2.493
C 47.286 -64.617 1.846
C 46.705 -65.635 -4.548
C 44.974 -63.131 -3.896
C 47.269 -64.325 -3.992
C 46.424 -63.146 -4.508
C 45.754 -71.097 -0.045
C 44.928 -69.806 -2.123
C 44.927 -69.883 -0.567
C 45.757 -70.962 -2.764
C 44.933 -69.994 2.135
C 45.752 -71.161 1.518
C 45.758 -70.871 -4.325
C 44.939 -69.649 -4.823
C 47.214 -70.897 -2.195
C 47.212 -70.976 -0.604
C 45.495 -68.416 -2.596
C 45.493 -68.547 0.045
C 47.832 -69.647 -0.016
C 46.974 -68.317 -2.059
C 46.972 -68.396 -0.479
C 47.833 -69.515 -2.646
C 47.21 -71.079 2.024
C 45.491 -68.615 1.623
C 46.966 -68.518 2.118
C 47.823 -69.716 1.565
C 47.216 -70.737 -4.82
C 45.495 -68.33 -4.172
C 47.827 -69.425 -4.226
C 46.969 -68.179 -4.656
C 49.32 -69.423 -2.121
C 49.319 -69.503 -0.529
C 47.594 -66.944 -2.522
C 47.595 -67.077 0.119
C 49.905 -68.195 0.101
C 49.072 -66.905 -1.977
C 49.072 -66.983 -0.42
C 49.905 -68.057 -2.617
C 49.291 -69.626 2.098
C 47.588 -67.153 1.696
C 49.05 -67.12 2.279
C 49.893 -68.27 1.663
C 49.295 -69.28 -4.747
C 47.585 -66.861 -4.098
C 49.892 -67.972 -4.179
C 49.046 -66.767 -4.676
C 48.078 -72.054 -2.822
C 48.075 -72.19 -0.096
C 49.523 -71.951 -2.237
C 49.521 -72.031 -0.667
C 48.067 -72.256 1.472
C 49.504 -72.148 2.055
C 48.074 -71.962 -4.389
C 49.511 -71.794 -4.956
C 50.141 -70.61 -2.749
C 50.139 -70.748 -0.022
C 50.127 -70.818 1.546
C 50.132 -70.521 -4.316
C 48.362 -56.983 0.542
C 47.347 -55.824 -1.55
C 47.355 -55.876 0.045
C 48.346 -56.899 -2.127
C 47.382 -55.977 2.671
C 48.382 -57.045 2.131
C 48.349 -56.859 -3.717
C 47.35 -55.754 -4.18
H 47.108 -53.719 0.359
H 47.114 -53.65 -1.745
H 47.131 -53.818 2.598
H 49.744 -56.704 3.792
H 49.234 -54.243 3.811
H 47.14 -53.607 -3.986
H 49.721 -56.439 -5.353
H 49.243 -54.02 -5.238
H 50.468 -57.313 -4.062
H 50.507 -57.479 2.447
H 50.47 -57.402 0.291
H 50.454 -57.351 -1.902
H 49.084 -52.019 0.393
H 49.085 -51.966 -1.716
H 49.13 -52.096 2.626
H 51.54 -54.86 3.878
H 49.099 -51.937 -3.949
H 51.698 -54.862 -5.276
H 52.211 -55.709 -3.843
H 52.195 -55.881 2.729
H 52.155 -55.787 0.428
H 52.164 -55.783 -1.789
H 39.684 -62.403 3.622
H 39.579 -62.137 -5.388
H 42.024 -63.75 3.496
H 41.84 -61.173 3.639
H 41.888 -63.355 -5.458
H 41.713 -60.815 -5.386
H 44.2 -62.21 3.53
H 43.782 -59.613 3.666
H 44.097 -61.829 -5.425
H 43.647 -59.243 -5.347
H 43.41 -57.295 0.304
H 43.387 -57.202 -1.809
H 43.458 -57.423 2.532
H 46.132 -60.29 3.652
H 45.558 -57.787 3.727
H 43.383 -57.145 -4.041
H 45.981 -59.889 -5.462
H 45.456 -57.436 -5.319
H 46.853 -60.578 -4.158
H 46.945 -60.851 2.24
H 46.897 -60.744 0.15
H 46.856 -60.649 -2.044
H 45.218 -55.495 0.334
H 45.212 -55.407 -1.772
H 45.254 -55.611 2.571
H 47.926 -58.456 3.728
H 45.228 -55.348 -4.013
H 47.846 -58.134 -5.41
H 48.614 -59 -4.127
H 48.694 -59.208 2.374
H 48.648 -59.115 0.22
H 48.619 -59.046 -1.971
H 42.402 -66.362 3.404
H 42.596 -65.871 -5.757
H 44.659 -67.462 3.285
H 44.357 -64.849 3.381
H 44.676 -67.021 -5.71
H 44.339 -64.395 -5.526
H 46.715 -66.04 3.356
H 46.393 -63.641 3.571
H 46.702 -65.586 -5.637
H 46.379 -63.151 -5.596
H 42.739 -68.068 -4.557
H 41.401 -66.231 -4.625
H 48.325 -64.377 -0.009
H 47.027 -62.403 -2.074
H 47.029 -62.512 0.149
H 48.321 -64.271 -2.129
H 47.033 -62.618 2.369
H 48.301 -64.504 2.221
H 48.281 -64.171 -4.36
H 47.018 -62.306 -4.25
H 42.716 -68.309 -0.206
H 41.41 -66.345 -2.326
H 41.383 -66.469 -0.108
H 42.719 -68.2 -2.327
H 41.393 -66.545 2.011
H 42.736 -68.386 2.027
H 44.994 -70.036 3.222
H 45.003 -69.582 -5.908
H 47.206 -71.13 3.114
H 46.967 -68.572 3.207
H 47.213 -70.678 -5.91
H 46.969 -68.124 -5.745
H 49.289 -69.675 3.187
H 49.018 -67.228 3.363
H 49.293 -69.221 -5.836
H 49.014 -66.767 -5.766
H 45.321 -71.778 -4.746
H 43.888 -69.818 -4.611
H 50.946 -68.079 -0.196
H 49.56 -65.973 -2.247
H 49.561 -66.084 -0.058
H 50.947 -67.97 -2.311
H 49.557 -66.177 2.105
H 50.914 -68.196 2.041
H 50.913 -67.859 -4.548
H 49.551 -65.845 -4.409
H 45.302 -72.024 -0.394
H 43.901 -69.936 -2.448
H 43.898 -70.045 -0.259
H 45.305 -71.92 -2.51
H 43.883 -70.138 1.905
H 45.314 -72.105 1.845
H 49.467 -72.15 3.144
H 49.476 -71.688 -6.04
H 47.374 -55.993 3.762
H 47.328 -55.705 -5.269
H 47.648 -73.021 -2.566
H 47.644 -73.126 -0.449
H 47.631 -73.201 1.798
H 47.639 -72.87 -4.809
H 50.117 -72.899 -0.391
H 50.12 -72.788 -2.598
H 50.113 -73.008 1.783
H 50.122 -72.676 -4.771
H 51.183 -70.548 -2.439
H 51.181 -70.656 -0.322
H 51.148 -70.746 1.923
H 51.153 -70.41 -4.683
H 39.744 -60.068 -4.097
H 39.758 -60.106 -1.87
H 39.789 -60.177 0.24
H 39.853 -60.28 2.463
H 41.629 -58.732 -4.069
H 41.641 -58.786 -1.841
H 41.674 -58.873 0.271
H 41.735 -58.995 2.494
C 37.284 -65.865 -1.724
C 37.281 -65.903 -0.165
C 35.806 -63.345 -2.237
C 35.808 -63.413 0.473
C 38.032 -64.689 0.418
C 37.293 -63.368 -1.682
C 37.295 -63.408 -0.089
C 38.029 -64.622 -2.253
C 37.275 -65.973 2.55
C 35.817 -63.463 2.03
C 37.315 -63.49 2.541
C 38.044 -64.745 2.01
C 37.288 -65.792 -4.441
C 35.81 -63.313 -3.796
C 38.036 -64.588 -3.844
C 37.296 -63.313 -4.316
C 39.484 -64.684 -1.701
C 39.485 -64.723 -0.152
C 38.122 -62.165 -2.215
C 38.14 -62.238 0.491
C 39.506 -64.793 2.569
C 38.167 -62.295 2.048
C 39.495 -64.625 -4.391
C 38.117 -62.132 -3.773
C 27.068 -71.32 0.138
C 26.503 -69.874 -1.935
C 26.488 -69.93 -0.346
C 27.092 -71.228 -2.514
C 26.498 -70.046 2.277
C 27.072 -71.396 1.719
C 27.11 -71.175 -4.092
C 26.527 -69.8 -4.563
C 28.613 -71.439 -2.014
C 28.596 -71.506 -0.439
C 27.362 -68.717 -2.45
C 27.351 -68.821 0.254
C 29.462 -70.283 0.149
C 28.786 -68.861 -1.888
C 28.78 -68.926 -0.312
C 29.474 -70.166 -2.467
C 28.599 -71.633 2.165
C 27.358 -68.894 1.807
C 28.787 -69.059 2.319
C 29.457 -70.36 1.733
C 28.636 -71.311 -4.62
C 27.377 -68.672 -4.006
C 29.491 -70.102 -4.052
C 28.812 -68.773 -4.522
C 30.988 -70.227 -1.94
C 30.98 -70.294 -0.365
C 29.49 -67.588 -2.393
C 29.477 -67.693 0.307
C 31.678 -68.919 0.245
C 30.902 -67.531 -1.815
C 30.896 -67.583 -0.242
C 31.693 -68.821 -2.393
C 30.961 -70.42 2.233
C 29.472 -67.765 1.859
C 30.885 -67.683 2.385
C 31.669 -68.988 1.83
C 31.005 -70.112 -4.541
C 29.507 -67.539 -3.946
C 31.706 -68.765 -3.978
C 30.93 -67.447 -4.448
C 33.142 -68.645 -1.816
C 33.133 -68.695 -0.269
C 31.552 -66.165 -2.3
C 31.531 -66.237 0.344
C 33.772 -67.419 0.339
C 32.995 -66.156 -1.759
C 32.985 -66.198 -0.172
C 33.791 -67.342 -2.33
C 33.106 -68.789 2.429
C 31.517 -66.284 1.913
C 32.964 -66.271 2.429
C 33.761 -67.473 1.913
C 33.158 -68.562 -4.509
C 31.564 -66.125 -3.87
C 33.801 -67.3 -3.905
C 33.011 -66.085 -4.368
C 35.216 -67.203 -1.761
C 35.207 -67.244 -0.202
C 33.567 -64.811 -2.269
C 33.553 -64.877 0.412
C 35.184 -67.317 2.5
C 33.545 -64.918 1.958
C 35.224 -67.13 -4.465
C 33.576 -64.774 -3.814
C 29.188 -75.467 -0.141
C 28.637 -74.066 -2.225
C 28.598 -74.15 -0.676
C 29.239 -75.316 -2.864
C 28.556 -74.269 2.024
C 29.17 -75.534 1.418
C 29.268 -75.226 -4.426
C 28.749 -73.896 -4.991
C 30.653 -75.519 -2.266
C 30.626 -75.602 -0.688
C 29.332 -72.75 -2.651
C 29.286 -72.883 -0.011
C 31.44 -74.384 -0.081
C 30.819 -72.88 -2.108
C 30.795 -72.955 -0.521
C 31.483 -74.249 -2.697
C 30.597 -75.725 1.934
C 29.273 -72.958 1.56
C 30.76 -73.091 2.049
C 31.416 -74.462 1.497
C 30.714 -75.372 -4.883
C 29.352 -72.66 -4.226
C 31.503 -74.157 -4.275
C 30.855 -72.727 -4.676
C 32.95 -74.448 -2.166
C 32.927 -74.528 -0.589
C 31.667 -71.598 -2.547
C 31.638 -71.726 0.087
C 33.697 -73.332 0.058
C 33.116 -71.915 -2.012
C 33.1 -71.989 -0.459
C 33.732 -73.193 -2.656
C 32.871 -74.673 2.027
C 31.615 -71.804 1.66
C 33.038 -72.142 2.252
C 33.664 -73.417 1.617
C 32.971 -74.312 -4.785
C 31.684 -71.512 -4.117
C 33.743 -73.113 -4.217
C 33.118 -71.791 -4.735
C 30.985 -79.544 -0.321
C 30.433 -78.111 -2.395
C 30.41 -78.194 -0.839
C 31.024 -79.399 -3.037
C 30.381 -78.316 1.862
C 30.964 -79.613 1.241
C 31.048 -79.302 -4.598
C 30.483 -77.946 -5.092
C 32.463 -79.609 -2.464
C 32.441 -79.694 -0.873
C 31.259 -76.851 -2.859
C 31.217 -76.989 -0.218
C 33.298 -78.506 -0.275
C 32.722 -77.026 -2.314
C 32.697 -77.109 -0.734
C 33.337 -78.366 -2.905
C 32.407 -79.808 1.753
C 31.193 -77.063 1.359
C 32.654 -77.238 1.862
C 33.269 -78.579 1.305
C 32.505 -79.442 -5.088
C 31.283 -76.76 -4.433
C 33.353 -78.271 -4.485
C 32.755 -76.879 -4.91
C 34.809 -78.56 -2.375
C 34.785 -78.644 -0.783
C 33.587 -75.782 -2.765
C 33.547 -75.921 -0.125
C 35.601 -77.468 -0.143
C 35.04 -76.03 -2.216
C 35.017 -76.112 -0.659
C 35.641 -77.323 -2.861
C 34.722 -78.772 1.843
C 33.517 -76 1.452
C 34.953 -76.254 2.039
C 35.567 -77.545 1.419
C 34.821 -78.405 -5
C 33.602 -75.693 -4.341
C 35.651 -77.233 -4.423
C 35.054 -75.882 -4.916
C 33.089 -80.908 -3.094
C 33.051 -81.054 -0.37
C 34.524 -81.085 -2.505
C 34.502 -81.168 -0.935
C 33.024 -81.124 1.197
C 34.452 -81.294 1.784
C 33.107 -80.811 -4.66
C 34.55 -80.918 -5.224
C 35.388 -79.883 -3.008
C 35.349 -80.028 -0.282
C 35.318 -80.101 1.286
C 35.401 -79.788 -4.575
C 35.833 -65.942 0.386
C 35.036 -64.614 -1.705
C 35.031 -64.653 -0.126
C 35.842 -65.874 -2.279
C 35.02 -64.729 2.514
C 35.829 -65.992 1.987
C 35.85 -65.837 -3.881
C 35.04 -64.554 -4.35
H 35.311 -62.489 0.193
H 35.31 -62.439 -1.905
H 35.337 -62.573 2.432
H 37.244 -65.937 3.639
H 37.312 -63.491 3.632
H 35.323 -62.407 -4.148
H 37.258 -65.706 -5.527
H 37.288 -63.266 -5.405
H 37.819 -66.722 -4.242
H 37.8 -66.897 2.312
H 37.799 -66.815 0.132
H 37.803 -66.762 -2.063
H 37.668 -61.294 0.224
H 37.653 -61.24 -1.885
H 37.726 -61.383 2.453
H 39.493 -64.713 3.655
H 37.647 -61.209 -4.116
H 39.508 -64.619 -5.48
H 39.843 -65.584 -4.078
H 39.843 -65.786 2.392
H 39.826 -65.676 0.186
H 39.819 -65.644 -2.014
H 26.505 -70.057 3.369
H 26.535 -69.751 -5.653
H 28.622 -71.712 3.251
H 28.786 -69.107 3.409
H 28.626 -71.246 -5.708
H 28.817 -68.72 -5.612
H 30.961 -70.49 3.32
H 30.86 -67.711 3.475
H 31.016 -70.06 -5.629
H 30.924 -67.395 -5.537
H 33.055 -68.79 3.517
H 32.959 -66.291 3.521
H 33.165 -68.531 -5.598
H 33.022 -66.043 -5.46
H 33.827 -69.336 -4.222
H 33.792 -69.568 2.18
H 33.79 -69.474 0.05
H 33.813 -69.4 -2.15
H 35.136 -67.303 3.589
H 35.191 -67.065 -5.553
H 35.837 -68.005 -4.253
H 35.801 -68.182 2.259
H 35.806 -68.104 0.097
H 35.818 -68.048 -2.096
H 28.506 -74.333 3.111
H 29.009 -73.824 -6.046
H 30.576 -75.786 3.023
H 30.74 -73.155 3.137
H 30.755 -75.322 -5.972
H 30.88 -72.65 -5.764
H 32.852 -74.739 3.115
H 32.973 -72.257 3.333
H 32.984 -74.258 -5.874
H 33.056 -71.808 -5.823
H 28.644 -76.008 -4.851
H 27.694 -73.974 -5.047
H 34.745 -73.365 -0.227
H 33.823 -71.172 -2.307
H 33.802 -71.271 -0.092
H 34.772 -73.256 -2.347
H 33.764 -71.376 2.091
H 34.681 -73.493 1.996
H 34.772 -73.143 -4.573
H 33.863 -71.064 -4.521
H 28.555 -76.275 -0.495
H 27.666 -74.125 -2.649
H 27.578 -74.278 -0.431
H 28.589 -76.15 -2.618
H 27.566 -74.338 1.644
H 28.542 -76.361 1.74
H 30.427 -78.377 2.949
H 30.559 -77.889 -6.177
H 32.387 -79.865 2.842
H 32.636 -77.299 2.951
H 32.515 -79.38 -6.177
H 32.77 -76.822 -5.999
H 34.705 -78.828 2.932
H 34.895 -76.364 3.122
H 34.833 -78.343 -6.09
H 35.023 -75.873 -6.005
H 30.447 -80.108 -5.025
H 29.419 -77.917 -4.882
H 36.647 -77.55 -0.434
H 35.694 -75.204 -2.481
H 35.662 -75.32 -0.291
H 36.679 -77.438 -2.551
H 35.627 -75.42 1.875
H 36.581 -77.668 1.801
H 36.676 -77.315 -4.788
H 35.721 -75.07 -4.645
H 30.367 -80.367 -0.677
H 29.4 -78.047 -2.723
H 29.368 -78.168 -0.535
H 30.397 -80.254 -2.789
H 29.323 -78.266 1.628
H 30.353 -80.459 1.562
H 34.409 -81.299 2.873
H 34.536 -80.804 -6.307
H 34.988 -64.73 3.603
H 35.012 -64.498 -5.438
H 32.48 -81.776 -2.844
H 32.45 -81.888 -0.73
H 32.414 -81.971 1.515
H 32.506 -81.617 -5.085
H 34.92 -82.137 -0.663
H 34.951 -82.019 -2.869
H 34.887 -82.253 1.507
H 34.978 -81.902 -5.042
H 36.422 -80.024 -2.697
H 36.391 -80.136 -0.578
H 36.332 -80.228 1.667
H 36.425 -79.876 -4.94
H 26.949 -67.726 -4.346
H 26.926 -67.775 -2.117
H 26.919 -67.856 -0.008
H 26.938 -67.974 2.217
H 28.969 -66.664 -4.294
H 28.935 -66.721 -2.059
H 28.927 -66.798 0.039
H 28.924 -66.916 2.265
C 23.705 -73.178 -2.053
C 23.695 -73.232 -0.495
C 22.666 -70.449 -2.543
C 22.634 -70.552 0.171
C 24.603 -72.123 0.121
C 24.098 -70.691 -1.973
C 24.081 -70.743 -0.382
C 24.628 -72.038 -2.55
C 23.674 -73.346 2.209
C 22.622 -70.628 1.728
C 24.062 -70.855 2.256
C 24.596 -72.197 1.715
C 23.742 -73.087 -4.759
C 22.694 -70.404 -4.102
C 24.658 -71.997 -4.143
C 24.14 -70.62 -4.616
C 26.044 -72.286 -1.97
C 26.029 -72.326 -0.422
C 25.066 -69.601 -2.492
C 25.042 -69.692 0.22
C 26.014 -72.401 2.322
C 25.043 -69.764 1.778
C 26.099 -72.226 -4.658
C 25.085 -69.559 -4.051
C 12.494 -76.332 -0.166
C 12.247 -74.796 -2.237
C 12.232 -74.847 -0.647
C 12.518 -76.248 -2.819
C 12.238 -74.957 1.974
C 12.493 -76.405 1.416
C 12.536 -76.2 -4.397
C 12.262 -74.728 -4.862
C 13.959 -76.798 -2.334
C 13.936 -76.863 -0.758
C 13.343 -73.863 -2.76
C 13.333 -73.967 -0.058
C 15.058 -75.878 -0.181
C 14.703 -74.335 -2.211
C 14.693 -74.406 -0.635
C 15.082 -75.754 -2.797
C 13.924 -76.992 1.847
C 13.337 -74.039 1.494
C 14.686 -74.553 1.998
C 15.045 -75.96 1.404
C 13.994 -76.674 -4.939
C 13.352 -73.819 -4.316
C 15.103 -75.689 -4.383
C 14.726 -74.242 -4.846
C 16.553 -76.156 -2.282
C 16.535 -76.235 -0.708
C 15.684 -73.269 -2.719
C 15.673 -73.4 -0.016
C 17.549 -75.101 -0.114
C 17.077 -73.576 -2.166
C 17.069 -73.658 -0.578
C 17.567 -74.963 -2.759
C 16.501 -76.37 1.894
C 15.671 -73.49 1.536
C 17.059 -73.815 2.044
C 17.538 -75.195 1.462
C 16.581 -76.038 -4.884
C 15.695 -73.213 -4.274
C 17.583 -74.899 -4.337
C 17.097 -73.474 -4.789
C 19.033 -75.063 -2.207
C 19.026 -75.144 -0.66
C 17.971 -72.392 -2.664
C 17.953 -72.529 0.044
C 19.919 -74.027 -0.032
C 19.397 -72.56 -2.1
C 19.386 -72.638 -0.511
C 19.937 -73.897 -2.698
C 19.005 -75.302 2.031
C 17.945 -72.623 1.6
C 19.369 -72.787 2.126
C 19.909 -74.12 1.558
C 19.048 -74.937 -4.912
C 17.986 -72.333 -4.222
C 19.953 -73.835 -4.291
C 19.424 -72.453 -4.739
C 21.372 -74.108 -2.133
C 21.364 -74.177 -0.576
C 20.298 -71.388 -2.601
C 20.27 -71.512 0.111
C 21.343 -74.308 2.126
C 20.258 -71.599 1.668
C 21.397 -73.998 -4.837
C 20.321 -71.332 -4.16
C 13.664 -80.857 -0.461
C 13.413 -79.37 -2.546
C 13.36 -79.445 -0.997
C 13.746 -80.72 -3.183
C 13.291 -79.55 1.701
C 13.631 -80.918 1.099
C 13.793 -80.638 -4.744
C 13.551 -79.226 -5.302
C 15.089 -81.214 -2.585
C 15.045 -81.291 -1.007
C 14.374 -78.234 -2.973
C 14.306 -78.357 -0.333
C 16.095 -80.277 -0.401
C 15.802 -78.681 -2.432
C 15.763 -78.756 -0.846
C 16.166 -80.149 -3.019
C 14.988 -81.404 1.617
C 14.277 -78.43 1.237
C 15.698 -78.884 1.728
C 16.053 -80.35 1.176
C 15.179 -81.082 -5.202
C 14.41 -78.148 -4.547
C 16.204 -80.062 -4.596
C 15.867 -78.537 -5.004
C 17.563 -80.644 -2.485
C 17.521 -80.721 -0.907
C 16.906 -77.62 -2.876
C 16.851 -77.755 -0.24
C 18.527 -79.726 -0.258
C 18.256 -78.221 -2.326
C 18.22 -78.301 -0.774
C 18.595 -79.588 -2.974
C 17.434 -80.854 1.71
C 16.813 -77.834 1.332
C 18.119 -78.453 1.949
C 18.478 -79.806 1.301
C 17.61 -80.511 -5.105
C 16.937 -77.537 -4.445
C 18.62 -79.507 -4.534
C 18.289 -78.085 -5.039
C 14.606 -85.216 -0.628
C 14.352 -83.704 -2.706
C 14.312 -83.78 -1.149
C 14.673 -85.084 -3.345
C 14.258 -83.889 1.553
C 14.571 -85.277 0.935
C 14.716 -84.996 -4.906
C 14.434 -83.555 -5.403
C 16.042 -85.58 -2.77
C 16.002 -85.657 -1.179
C 15.415 -82.639 -3.174
C 15.345 -82.766 -0.532
C 17.081 -84.667 -0.584
C 16.813 -83.107 -2.627
C 16.772 -83.184 -1.047
C 17.148 -84.541 -3.215
C 15.947 -85.755 1.449
C 15.305 -82.831 1.046
C 16.703 -83.298 1.551
C 17.038 -84.73 0.997
C 16.116 -85.427 -5.395
C 15.457 -82.555 -4.748
C 17.183 -84.452 -4.794
C 16.876 -82.972 -5.224
C 18.552 -85.024 -2.682
C 18.512 -85.1 -1.091
C 17.914 -82.071 -3.081
C 17.846 -82.201 -0.44
C 19.551 -84.115 -0.453
C 19.289 -82.601 -2.53
C 19.249 -82.676 -0.973
C 19.618 -83.984 -3.171
C 18.426 -85.206 1.536
C 17.8 -82.272 1.136
C 19.159 -82.797 1.726
C 19.502 -84.181 1.109
C 18.595 -84.878 -5.309
C 17.947 -81.986 -4.658
C 19.646 -83.899 -4.733
C 19.333 -82.459 -5.23
C 16.396 -86.977 -3.397
C 16.33 -87.109 -0.671
C 17.767 -87.437 -2.806
C 17.729 -87.512 -1.236
C 16.29 -87.168 0.897
C 17.656 -87.617 1.487
C 16.433 -86.887 -4.964
C 17.826 -87.281 -5.527
C 18.855 -86.435 -3.312
C 18.788 -86.565 -0.584
C 18.743 -86.627 0.984
C 18.886 -86.346 -4.879
C 22.259 -73.065 0.045
C 21.735 -71.598 -2.037
C 21.72 -71.664 -0.442
C 22.282 -72.955 -2.624
C 21.701 -71.794 2.186
C 22.25 -73.145 1.633
C 22.305 -72.905 -4.214
C 21.772 -71.51 -4.667
H 22.259 -69.566 -0.1
H 22.289 -69.485 -2.206
H 22.241 -69.692 2.139
H 23.636 -73.343 3.298
H 24.041 -70.863 3.347
H 22.337 -69.433 -4.45
H 23.739 -72.995 -5.845
H 24.149 -70.565 -5.706
H 24.116 -74.089 -4.56
H 24.072 -74.323 1.941
H 24.071 -74.215 -0.21
H 24.082 -74.138 -2.403
H 24.694 -68.695 -0.047
H 24.715 -68.625 -2.159
H 24.708 -68.81 2.187
H 25.975 -72.267 3.402
H 24.743 -68.581 -4.394
H 26.132 -72.244 -5.747
H 26.298 -73.215 -4.304
H 26.216 -73.438 2.235
H 26.211 -73.307 -0.053
H 26.218 -73.288 -2.267
H 12.252 -74.965 3.065
H 12.27 -74.678 -5.952
H 13.938 -77.072 2.934
H 14.68 -74.599 3.088
H 13.988 -76.608 -6.027
H 14.732 -74.186 -5.936
H 16.497 -76.426 2.982
H 17.04 -73.86 3.134
H 16.594 -75.997 -5.973
H 17.091 -73.413 -5.879
H 17.549 -71.55 -0.21
H 17.564 -71.442 -2.32
H 17.54 -71.699 2.018
H 18.981 -75.357 3.119
H 19.348 -72.82 3.217
H 17.59 -71.372 -4.554
H 19.023 -74.846 -5.998
H 19.421 -72.382 -5.828
H 19.58 -75.835 -4.717
H 19.535 -76.167 1.701
H 19.542 -76.037 -0.389
H 19.546 -75.917 -2.587
H 19.873 -70.534 -0.153
H 19.9 -70.435 -2.258
H 19.857 -70.674 2.085
H 21.31 -74.31 3.215
H 19.945 -70.366 -4.5
H 21.393 -73.899 -5.922
H 21.79 -74.994 -4.645
H 21.759 -75.276 1.853
H 21.76 -75.153 -0.299
H 21.769 -75.057 -2.491
H 13.228 -79.598 2.788
H 13.802 -79.204 -6.363
H 14.956 -81.454 2.706
H 15.663 -78.94 2.816
H 15.228 -81.041 -6.291
H 15.907 -78.468 -6.091
H 17.401 -80.916 2.798
H 18.002 -78.57 3.026
H 17.636 -80.459 -6.194
H 18.267 -78.057 -6.128
H 13.021 -81.275 -5.169
H 12.501 -79.078 -5.328
H 19.546 -79.968 -0.546
H 19.102 -77.634 -2.597
H 19.041 -77.746 -0.381
H 19.6 -79.862 -2.665
H 18.99 -77.856 1.835
H 19.458 -80.085 1.683
H 19.619 -79.745 -4.895
H 19.148 -77.531 -4.752
H 12.876 -81.516 -0.815
H 12.449 -79.218 -2.964
H 12.334 -79.348 -0.752
H 12.937 -81.401 -2.936
H 12.307 -79.403 1.32
H 12.843 -81.596 1.42
H 14.292 -83.952 2.64
H 14.519 -83.514 -6.488
H 15.917 -85.801 2.539
H 16.674 -83.349 2.64
H 16.139 -85.369 -6.484
H 16.902 -82.919 -6.313
H 18.398 -85.252 2.626
H 19.083 -82.886 2.809
H 18.62 -84.82 -6.398
H 19.307 -82.443 -6.319
H 13.966 -85.664 -5.332
H 13.399 -83.308 -5.191
H 20.559 -84.405 -0.744
H 20.096 -81.924 -2.794
H 20.04 -82.03 -0.605
H 20.612 -84.304 -2.861
H 19.987 -82.117 1.556
H 20.471 -84.503 1.493
H 20.634 -84.185 -5.098
H 20.149 -81.798 -4.957
H 13.835 -85.898 -0.982
H 13.354 -83.431 -3.034
H 13.298 -83.54 -0.845
H 13.887 -85.795 -3.096
H 13.233 -83.624 1.318
H 13.804 -85.982 1.258
H 17.614 -87.604 2.576
H 17.836 -87.166 -6.61
H 21.682 -71.818 3.276
H 21.775 -71.446 -5.757
H 15.626 -87.704 -3.145
H 15.574 -87.807 -1.028
H 15.523 -87.874 1.219
H 15.683 -87.557 -5.387
H 17.945 -88.544 -0.96
H 17.998 -88.438 -3.168
H 17.891 -88.645 1.217
H 18.048 -88.331 -5.344
H 19.839 -86.778 -2.999
H 19.787 -86.879 -0.881
H 19.712 -86.951 1.366
H 19.873 -86.637 -5.243
H 13.146 -72.801 -4.653
H 13.138 -72.847 -2.424
H 13.136 -72.927 -0.318
H 13.155 -73.045 1.907
H 15.387 -72.219 -4.605
H 15.37 -72.284 -2.376
H 15.367 -72.385 -0.268
H 15.371 -72.528 1.956
C 8.794 -77.407 -2.311
C 8.787 -77.456 -0.752
C 8.355 -74.521 -2.797
C 8.325 -74.611 -0.086
C 9.917 -76.568 -0.152
C 9.713 -75.063 -2.245
C 9.698 -75.109 -0.654
C 9.935 -76.494 -2.824
C 8.769 -77.556 1.954
C 8.311 -74.679 1.471
C 9.681 -75.206 1.982
C 9.908 -76.635 1.443
C 8.821 -77.324 -5.019
C 8.375 -74.482 -4.357
C 9.958 -76.46 -4.417
C 9.741 -75.003 -4.886
C 11.269 -77.049 -2.261
C 11.257 -77.083 -0.712
C 10.895 -74.211 -2.777
C 10.876 -74.292 -0.069
C 11.25 -77.144 2.038
C 10.876 -74.358 1.489
C 11.311 -76.998 -4.952
C 10.908 -74.175 -4.336
C -2.807 -78.256 -0.328
C -2.761 -76.699 -2.397
C -2.777 -76.748 -0.807
C -2.78 -78.176 -2.981
C -2.78 -76.862 1.813
C -2.814 -78.33 1.254
C -2.761 -78.129 -4.559
C -2.745 -76.631 -5.022
C -1.471 -78.995 -2.504
C -1.499 -79.057 -0.929
C -1.506 -75.996 -2.925
C -1.52 -76.1 -0.223
C -0.2 -78.31 -0.357
C -0.259 -76.724 -2.384
C -0.272 -76.794 -0.808
C -0.168 -78.19 -2.973
C -1.521 -79.184 1.676
C -1.522 -76.175 1.329
C -0.292 -76.94 1.824
C -0.22 -78.39 1.228
C -1.427 -78.877 -5.11
C -1.496 -75.952 -4.481
C -0.145 -78.127 -4.559
C -0.234 -76.633 -5.019
C 1.198 -78.873 -2.467
C 1.175 -78.949 -0.893
C 0.911 -75.87 -2.898
C 0.893 -76 -0.196
C 2.397 -78.035 -0.307
C 2.223 -76.444 -2.356
C 2.21 -76.524 -0.768
C 2.423 -77.901 -2.952
C 1.132 -79.078 1.709
C 0.882 -76.091 1.356
C 2.188 -76.679 1.852
C 2.38 -78.128 1.269
C 1.232 -78.759 -5.069
C 0.922 -75.814 -4.452
C 2.439 -77.838 -4.529
C 2.243 -76.343 -4.978
C 3.843 -78.289 -2.412
C 3.832 -78.369 -0.865
C 3.334 -75.46 -2.861
C 3.31 -75.593 -0.155
C 4.936 -77.452 -0.247
C 4.705 -75.909 -2.312
C 4.691 -75.984 -0.724
C 4.957 -77.327 -2.913
C 3.802 -78.52 1.828
C 3.295 -75.685 1.401
C 4.668 -76.126 1.913
C 4.921 -77.542 1.344
C 3.86 -78.164 -5.118
C 3.348 -75.402 -4.419
C 4.971 -77.267 -4.506
C 4.73 -75.807 -4.951
C 6.322 -77.827 -2.362
C 6.315 -77.892 -0.804
C 5.828 -74.945 -2.825
C 5.797 -75.061 -0.114
C 6.293 -78.012 1.899
C 5.782 -75.143 1.443
C 6.344 -77.723 -5.067
C 5.847 -74.893 -4.383
C -2.549 -82.92 -0.634
C -2.511 -81.41 -2.717
C -2.571 -81.475 -1.168
C -2.454 -82.798 -3.357
C -2.647 -81.568 1.53
C -2.586 -82.975 0.926
C -2.4 -82.723 -4.918
C -2.361 -81.291 -5.475
C -1.232 -83.547 -2.765
C -1.283 -83.616 -1.187
C -1.349 -80.483 -3.147
C -1.426 -80.595 -0.507
C -0.051 -82.829 -0.586
C -0.034 -81.203 -2.614
C -0.079 -81.271 -1.028
C 0.031 -82.713 -3.204
C -1.349 -83.719 1.436
C -1.46 -80.663 1.063
C -0.154 -81.388 1.546
C -0.098 -82.895 0.992
C -1.13 -83.431 -5.383
C -1.304 -80.404 -4.721
C 0.078 -82.633 -4.781
C 0.045 -81.07 -5.186
C 1.306 -83.475 -2.677
C 1.257 -83.545 -1.099
C 1.254 -80.379 -3.063
C 1.188 -80.504 -0.428
C 2.442 -82.768 -0.455
C 2.462 -81.235 -2.519
C 2.42 -81.308 -0.968
C 2.522 -82.642 -3.171
C 1.158 -83.663 1.518
C 1.144 -80.576 1.145
C 2.305 -81.442 1.754
C 2.386 -82.839 1.105
C 1.366 -83.349 -5.297
C 1.293 -80.3 -4.632
C 2.555 -82.564 -4.731
C 2.509 -81.104 -5.231
C -2.487 -87.377 -0.81
C -2.447 -85.842 -2.886
C -2.494 -85.911 -1.329
C -2.407 -87.257 -3.528
C -2.556 -86.012 1.373
C -2.527 -87.433 0.752
C -2.354 -87.176 -5.09
C -2.349 -85.707 -5.583
C -1.161 -88.014 -2.96
C -1.208 -88.084 -1.369
C -1.196 -85.007 -3.357
C -1.278 -85.122 -0.715
C 0.048 -87.329 -0.777
C 0.084 -85.742 -2.818
C 0.036 -85.812 -1.238
C 0.127 -87.213 -3.408
C -1.271 -88.175 1.26
C -1.323 -85.18 0.863
C -0.044 -85.915 1.36
C 0 -87.384 0.804
C -1.069 -87.874 -5.585
C -1.146 -84.93 -4.932
C 0.172 -87.13 -4.988
C 0.161 -85.617 -5.415
C 1.41 -87.964 -2.883
C 1.363 -88.035 -1.291
C 1.366 -84.943 -3.276
C 1.285 -85.061 -0.635
C 2.578 -87.275 -0.657
C 2.611 -85.734 -2.731
C 2.564 -85.803 -1.174
C 2.658 -87.154 -3.376
C 1.268 -88.127 1.336
C 1.233 -85.124 0.942
C 2.464 -85.91 1.525
C 2.524 -87.333 0.905
C 1.47 -87.825 -5.509
C 1.408 -84.863 -4.853
C 2.696 -87.073 -4.938
C 2.671 -85.598 -5.431
C -1.092 -89.453 -3.59
C -1.172 -89.573 -0.864
C 0.164 -90.175 -3.006
C 0.118 -90.244 -1.436
C -1.216 -89.627 0.704
C 0.036 -90.338 1.287
C -1.044 -89.369 -5.157
C 0.241 -90.029 -5.726
C 1.426 -89.406 -3.516
C 1.346 -89.526 -0.788
C 1.296 -89.581 0.78
C 1.468 -89.322 -5.083
C 7.425 -76.988 -0.197
C 7.201 -75.446 -2.277
C 7.185 -75.506 -0.682
C 7.445 -76.888 -2.867
C 7.165 -75.625 1.944
C 7.414 -77.063 1.392
C 7.463 -76.842 -4.457
C 7.229 -75.367 -4.906
H 8.165 -73.569 -0.357
H 8.196 -73.499 -2.459
H 8.142 -73.683 1.882
H 8.744 -77.537 3.044
H 9.671 -75.205 3.073
H 8.23 -73.458 -4.702
H 8.825 -77.232 -6.105
H 9.749 -74.95 -5.976
H 8.976 -78.384 -4.823
H 8.947 -78.597 1.691
H 8.949 -78.495 -0.467
H 8.953 -78.426 -2.661
H 10.755 -73.243 -0.336
H 10.772 -73.181 -2.445
H 10.766 -73.351 1.896
H 11.253 -76.991 3.117
H 10.786 -73.145 -4.678
H 11.326 -77.012 -6.042
H 11.296 -78.01 -4.611
H 11.227 -78.201 1.966
H 11.232 -78.08 -0.341
H 11.226 -78.065 -2.56
H -2.761 -76.874 2.905
H -2.734 -76.582 -6.112
H -1.517 -79.268 2.762
H -0.301 -76.986 2.914
H -1.425 -78.808 -6.197
H -0.223 -76.577 -6.108
H 1.123 -79.133 2.797
H 2.169 -76.721 2.943
H 1.246 -78.72 -6.158
H 2.24 -76.281 -6.068
H 3.105 -74.553 -0.406
H 3.127 -74.448 -2.515
H 3.083 -74.7 1.821
H 3.775 -78.566 2.916
H 4.651 -76.153 3.003
H 3.147 -74.381 -4.748
H 3.843 -78.069 -6.203
H 4.73 -75.736 -6.039
H 4.204 -79.15 -4.928
H 4.145 -79.476 1.499
H 4.161 -79.347 -0.596
H 4.171 -79.228 -2.796
H 5.605 -74.022 -0.376
H 5.637 -73.93 -2.479
H 5.581 -74.155 1.861
H 6.27 -78.003 2.989
H 5.674 -73.87 -4.721
H 6.348 -77.624 -6.153
H 6.526 -78.779 -4.877
H 6.5 -79.046 1.629
H 6.506 -78.928 -0.528
H 6.512 -78.838 -2.721
H -2.714 -81.604 2.617
H -2.112 -81.319 -6.536
H -1.385 -83.764 2.526
H -0.194 -81.437 2.635
H -1.079 -83.398 -6.472
H 0.094 -81.009 -6.273
H 1.118 -83.718 2.607
H 2.174 -81.535 2.832
H 1.396 -83.301 -6.386
H 2.489 -81.069 -6.32
H -3.284 -83.195 -5.34
H -3.361 -80.94 -5.501
H 3.392 -83.206 -0.748
H 3.407 -80.827 -2.794
H 3.336 -80.927 -0.579
H 3.455 -83.108 -2.867
H 3.276 -81.026 1.636
H 3.294 -83.307 1.481
H 3.486 -82.993 -5.097
H 3.462 -80.732 -4.945
H -3.452 -83.41 -0.985
H -3.429 -81.072 -3.132
H -3.556 -81.18 -0.919
H -3.38 -83.306 -3.106
H -3.582 -81.229 1.152
H -3.49 -83.484 1.251
H -2.531 -86.083 2.46
H -2.262 -85.682 -6.669
H -1.305 -88.217 2.349
H -0.077 -85.962 2.45
H -1.04 -87.82 -6.674
H 0.193 -85.569 -6.504
H 1.236 -88.168 2.426
H 2.375 -85.984 2.608
H 1.501 -87.77 -6.598
H 2.644 -85.576 -6.52
H -3.223 -87.683 -5.513
H -3.314 -85.262 -5.367
H 3.508 -87.758 -0.953
H 3.535 -85.229 -2.999
H 3.469 -85.326 -0.809
H 3.571 -87.664 -3.07
H 3.409 -85.406 1.352
H 3.412 -87.841 1.284
H 3.606 -87.547 -5.307
H 3.602 -85.112 -5.161
H -3.379 -87.894 -1.162
H -3.373 -85.377 -3.209
H -3.44 -85.477 -1.02
H -3.317 -87.799 -3.276
H -3.51 -85.549 1.143
H -3.417 -87.973 1.078
H 0.002 -90.32 2.376
H 0.269 -89.916 -6.81
H 7.154 -75.641 3.035
H 7.231 -75.304 -5.996
H -1.989 -90.014 -3.335
H -2.051 -90.108 -1.219
H -2.106 -90.168 1.028
H -1.914 -89.876 -5.578
H 0.127 -91.299 -1.162
H 0.191 -91.201 -3.37
H 0.063 -91.391 1.015
H 0.253 -91.102 -5.546
H 2.325 -89.938 -3.208
H 2.262 -90.03 -1.089
H 2.183 -90.091 1.158
H 2.376 -89.801 -5.452
H -1.502 -74.912 -4.815
H -1.506 -74.96 -2.587
H -1.512 -75.041 -0.481
H -1.505 -75.165 1.743
H 0.813 -74.778 -4.781
H 0.798 -74.843 -2.552
H 0.789 -74.944 -0.444
H 0.779 -75.089 1.779
C -6.657 -78.594 -2.459
C -6.666 -78.644 -0.9
C -6.532 -75.678 -2.941
C -6.568 -75.765 -0.23
C -5.384 -77.991 -0.303
C -5.302 -76.471 -2.394
C -5.318 -76.516 -0.803
C -5.362 -77.918 -2.975
C -6.694 -78.743 1.806
C -6.589 -75.832 1.327
C -5.343 -76.613 1.832
C -5.399 -78.058 1.292
C -6.624 -78.515 -5.167
C -6.511 -75.641 -4.5
C -5.34 -77.886 -4.568
C -5.272 -76.414 -5.035
C -4.158 -78.719 -2.417
C -4.169 -78.752 -0.868
C -3.978 -75.863 -2.931
C -3.999 -75.943 -0.222
C -4.176 -78.814 1.882
C -4.006 -76.011 1.336
C -4.12 -78.674 -5.108
C -3.965 -75.827 -4.489
C -18.199 -77.177 -0.443
C -17.859 -75.654 -2.51
C -17.879 -75.702 -0.92
C -18.167 -77.098 -3.096
C -17.894 -75.817 1.7
C -18.215 -77.25 1.139
C -18.145 -77.053 -4.674
C -17.839 -75.586 -5.135
C -17.042 -78.158 -2.624
C -17.075 -78.216 -1.049
C -16.492 -75.209 -3.041
C -16.517 -75.313 -0.34
C -15.655 -77.739 -0.48
C -15.409 -76.168 -2.505
C -15.431 -76.237 -0.929
C -15.609 -77.622 -3.096
C -17.114 -78.341 1.556
C -16.528 -75.389 1.212
C -15.471 -76.381 1.703
C -15.684 -77.816 1.105
C -16.984 -78.045 -5.23
C -16.48 -75.165 -4.597
C -15.578 -77.562 -4.682
C -15.375 -76.079 -5.139
C -14.4 -78.561 -2.595
C -14.432 -78.634 -1.021
C -14.097 -75.559 -3.021
C -14.131 -75.687 -0.319
C -13.053 -77.978 -0.437
C -12.921 -76.379 -2.483
C -12.944 -76.458 -0.896
C -13.009 -77.846 -3.081
C -14.492 -78.757 1.581
C -14.154 -75.777 1.233
C -12.987 -76.611 1.725
C -13.083 -78.068 1.139
C -14.353 -78.45 -5.197
C -14.079 -75.503 -4.575
C -12.986 -77.785 -4.659
C -12.889 -76.28 -5.105
C -11.69 -78.505 -2.546
C -11.711 -78.583 -0.999
C -11.64 -75.629 -2.991
C -11.681 -75.76 -0.285
C -10.447 -77.9 -0.384
C -10.381 -76.337 -2.446
C -10.404 -76.41 -0.857
C -10.411 -77.776 -3.049
C -11.762 -78.73 1.693
C -11.709 -75.85 1.271
C -10.446 -76.55 1.778
C -10.474 -77.987 1.207
C -11.657 -78.381 -5.251
C -11.62 -75.572 -4.549
C -10.39 -77.718 -4.642
C -10.345 -76.237 -5.084
C -9.165 -78.531 -2.503
C -9.18 -78.595 -0.945
C -9.094 -75.607 -2.961
C -9.137 -75.72 -0.251
C -9.215 -78.714 1.758
C -9.164 -75.8 1.306
C -9.133 -78.428 -5.208
C -9.07 -75.557 -4.519
C -18.864 -81.798 -0.755
C -18.536 -80.321 -2.836
C -18.603 -80.376 -1.287
C -18.755 -81.691 -3.477
C -18.687 -80.457 1.41
C -18.906 -81.847 0.805
C -18.693 -81.626 -5.038
C -18.375 -80.229 -5.595
C -17.703 -82.667 -2.891
C -17.761 -82.727 -1.313
C -17.216 -79.64 -3.269
C -17.306 -79.739 -0.629
C -16.396 -82.199 -0.715
C -16.067 -80.604 -2.741
C -16.119 -80.664 -1.155
C -16.302 -82.097 -3.333
C -17.838 -82.82 1.311
C -17.347 -79.802 0.942
C -16.208 -80.769 1.419
C -16.451 -82.257 0.863
C -17.589 -82.568 -5.509
C -17.162 -79.567 -4.844
C -16.245 -82.025 -4.91
C -15.971 -80.485 -5.313
C -15.2 -83.095 -2.811
C -15.256 -83.157 -1.233
C -14.643 -80.047 -3.193
C -14.724 -80.162 -0.558
C -13.939 -82.628 -0.592
C -13.625 -81.125 -2.656
C -13.676 -81.191 -1.104
C -13.845 -82.515 -3.308
C -15.368 -83.257 1.384
C -14.776 -80.227 1.015
C -13.806 -81.305 1.618
C -14.004 -82.69 0.967
C -15.126 -82.978 -5.431
C -14.595 -79.975 -4.762
C -13.803 -82.443 -4.869
C -13.563 -81 -5.368
C -19.681 -86.179 -0.935
C -19.347 -84.677 -3.009
C -19.401 -84.739 -1.452
C -19.588 -86.072 -3.653
C -19.473 -84.83 1.25
C -19.726 -86.229 0.628
C -19.526 -86 -5.214
C -19.233 -84.559 -5.706
C -18.513 -87.06 -3.09
C -18.568 -87.122 -1.499
C -17.958 -84.104 -3.484
C -18.052 -84.205 -0.842
C -17.186 -86.629 -0.911
C -16.845 -85.078 -2.95
C -16.901 -85.139 -1.37
C -17.095 -86.527 -3.542
C -18.639 -87.204 1.13
C -18.102 -84.257 0.736
C -16.99 -85.229 1.228
C -17.239 -86.678 0.67
C -18.405 -86.935 -5.715
C -17.898 -84.036 -5.059
C -17.039 -86.451 -5.122
C -16.754 -84.965 -5.547
C -15.983 -87.517 -3.023
C -16.038 -87.579 -1.431
C -15.433 -84.544 -3.412
C -15.526 -84.649 -0.771
C -14.695 -87.075 -0.8
C -14.365 -85.567 -2.873
C -14.42 -85.628 -1.316
C -14.601 -86.967 -3.519
C -16.14 -87.656 1.197
C -15.584 -84.704 0.806
C -14.53 -85.717 1.384
C -14.754 -87.124 0.762
C -15.905 -87.387 -5.649
C -15.381 -84.471 -4.989
C -14.554 -86.892 -5.081
C -14.29 -85.44 -5.573
C -18.731 -88.483 -3.722
C -18.824 -88.59 -0.996
C -17.64 -89.439 -3.143
C -17.694 -89.501 -1.573
C -18.872 -88.637 0.572
C -17.782 -89.581 1.15
C -18.674 -88.407 -5.289
C -17.545 -89.306 -5.864
C -16.253 -88.932 -3.657
C -16.346 -89.039 -0.929
C -16.4 -89.086 0.639
C -16.201 -88.856 -5.224
C -7.913 -77.924 -0.341
C -7.842 -76.365 -2.418
C -7.863 -76.423 -0.823
C -7.883 -77.825 -3.01
C -7.897 -76.54 1.802
C -7.932 -77.998 1.248
C -7.863 -77.781 -4.6
C -7.808 -76.288 -5.047
H -6.527 -74.711 -0.499
H -6.49 -74.644 -2.602
H -6.563 -74.823 1.739
H -6.711 -78.722 2.895
H -5.349 -76.611 2.923
H -6.457 -74.607 -4.844
H -6.606 -78.423 -6.253
H -5.259 -76.362 -6.125
H -6.676 -79.584 -4.973
H -6.72 -79.798 1.54
H -6.707 -79.695 -0.617
H -6.698 -79.625 -2.811
H -3.917 -74.89 -0.488
H -3.898 -74.83 -2.596
H -3.918 -75.002 1.744
H -4.138 -78.662 2.961
H -3.887 -74.793 -4.83
H -4.112 -78.691 -6.198
H -4.328 -79.664 -4.766
H -4.402 -79.847 1.818
H -4.386 -79.725 -0.496
H -4.4 -79.707 -2.715
H -17.875 -75.834 2.791
H -17.822 -75.538 -6.225
H -17.123 -78.426 2.643
H -15.485 -76.427 2.793
H -16.972 -77.977 -6.317
H -15.357 -76.025 -6.229
H -14.508 -78.811 2.669
H -13.011 -76.65 2.815
H -14.334 -78.413 -6.286
H -12.883 -76.216 -6.195
H -11.68 -74.699 -0.534
H -11.646 -74.597 -2.642
H -11.724 -74.843 1.693
H -11.794 -78.771 2.782
H -10.465 -76.575 2.869
H -11.619 -74.531 -4.875
H -11.658 -78.284 -6.336
H -10.334 -76.166 -6.173
H -11.513 -79.416 -5.062
H -11.612 -79.735 1.365
H -11.579 -79.607 -0.732
H -11.552 -79.49 -2.931
H -9.127 -74.663 -0.511
H -9.085 -74.576 -2.613
H -9.169 -74.793 1.726
H -9.233 -78.703 2.847
H -9.044 -74.519 -4.855
H -9.113 -78.33 -6.293
H -9.158 -79.5 -5.019
H -9.212 -79.768 1.486
H -9.191 -79.65 -0.671
H -9.175 -79.559 -2.863
H -18.759 -80.48 2.498
H -18.138 -80.305 -6.656
H -17.879 -82.859 2.4
H -16.253 -80.812 2.508
H -17.536 -82.545 -6.598
H -15.915 -80.432 -6.4
H -15.414 -83.305 2.473
H -13.948 -81.372 2.696
H -15.09 -82.935 -6.52
H -13.581 -80.961 -6.456
H -19.654 -81.914 -5.458
H -19.286 -79.689 -5.621
H -13.095 -83.244 -0.889
H -12.62 -80.908 -2.933
H -12.701 -80.996 -0.719
H -13.021 -83.157 -3.009
H -12.773 -81.086 1.495
H -13.204 -83.327 1.34
H -12.976 -83.046 -5.238
H -12.554 -80.822 -5.087
H -19.847 -82.1 -1.103
H -19.371 -79.811 -3.249
H -19.512 -79.896 -1.036
H -19.763 -82.008 -3.224
H -19.539 -79.941 1.033
H -19.892 -82.169 1.133
H -19.459 -84.907 2.337
H -19.148 -84.55 -6.792
H -18.676 -87.24 2.219
H -17.028 -85.271 2.318
H -18.369 -86.886 -6.804
H -16.717 -84.922 -6.637
H -16.175 -87.693 2.286
H -14.628 -85.774 2.467
H -15.868 -87.338 -6.738
H -14.316 -85.411 -6.662
H -20.479 -86.324 -5.635
H -20.091 -83.934 -5.485
H -13.879 -87.73 -1.101
H -13.361 -85.253 -3.143
H -13.438 -85.339 -0.953
H -13.806 -87.647 -3.217
H -13.505 -85.409 1.208
H -13.982 -87.797 1.137
H -13.756 -87.536 -5.455
H -13.28 -85.147 -5.306
H -20.659 -86.509 -1.284
H -20.164 -84.039 -3.328
H -20.242 -84.128 -1.139
H -20.587 -86.425 -3.398
H -20.318 -84.189 1.024
H -20.704 -86.583 0.956
H -17.809 -89.559 2.239
H -17.499 -89.198 -6.947
H -7.907 -76.556 2.893
H -7.797 -76.225 -6.137
H -19.721 -88.857 -3.464
H -19.793 -88.941 -1.348
H -19.851 -88.993 0.899
H -19.627 -88.732 -5.707
H -17.891 -90.537 -1.301
H -17.816 -90.45 -3.509
H -17.965 -90.619 0.876
H -17.744 -90.361 -5.685
H -15.476 -89.631 -3.353
H -15.548 -89.714 -1.234
H -15.63 -89.762 1.013
H -15.406 -89.503 -5.597
H -16.283 -74.144 -4.93
H -16.29 -74.193 -2.702
H -16.303 -74.276 -0.597
H -16.313 -74.402 1.628
H -13.985 -74.465 -4.902
H -14.006 -74.53 -2.674
H -14.027 -74.631 -0.566
H -14.058 -74.775 1.657
C -22.047 -76.76 -2.563
C -22.059 -76.812 -1.005
C -21.366 -73.922 -3.041
C -21.406 -74.007 -0.33
C -20.673 -76.418 -0.41
C -20.308 -74.938 -2.499
C -20.325 -74.983 -0.908
C -20.649 -76.344 -3.082
C -22.093 -76.912 1.702
C -21.433 -74.072 1.227
C -20.359 -75.078 1.727
C -20.694 -76.484 1.185
C -22.012 -76.681 -5.271
C -21.344 -73.886 -4.6
C -20.628 -76.314 -4.675
C -20.278 -74.882 -5.14
C -19.621 -77.364 -2.528
C -19.632 -77.398 -0.979
C -18.893 -74.597 -3.039
C -18.919 -74.676 -0.331
C -19.64 -77.461 1.774
C -18.933 -74.744 1.227
C -19.585 -77.323 -5.22
C -18.879 -74.561 -4.598
C -33.08 -73.168 -0.437
C -32.466 -71.721 -2.492
C -32.479 -71.783 -0.902
C -33.068 -73.065 -3.091
C -32.48 -71.925 1.718
C -33.088 -73.256 1.146
C -33.058 -73.007 -4.669
C -32.469 -71.625 -5.118
C -32.16 -74.328 -2.649
C -32.186 -74.394 -1.073
C -31.047 -71.545 -3.046
C -31.063 -71.668 -0.345
C -30.694 -74.209 -0.518
C -30.166 -72.698 -2.535
C -30.186 -72.777 -0.96
C -30.653 -74.079 -3.134
C -32.218 -74.539 1.532
C -31.07 -71.754 1.206
C -30.224 -72.934 1.673
C -30.721 -74.293 1.066
C -32.111 -74.203 -5.253
C -31.044 -71.49 -4.602
C -30.628 -74.013 -4.72
C -30.145 -72.595 -5.17
C -29.644 -75.239 -2.653
C -29.674 -75.318 -1.079
C -28.767 -72.35 -3.066
C -28.801 -72.491 -0.364
C -28.19 -74.944 -0.505
C -27.767 -73.386 -2.545
C -27.793 -73.471 -0.958
C -28.144 -74.804 -3.149
C -29.734 -75.447 1.523
C -28.826 -72.585 1.188
C -27.842 -73.629 1.663
C -28.224 -75.037 1.071
C -29.599 -75.119 -5.254
C -28.754 -72.288 -4.62
C -28.122 -74.738 -4.727
C -27.739 -73.277 -5.166
C -26.971 -75.709 -2.627
C -26.996 -75.792 -1.08
C -26.371 -72.893 -3.061
C -26.418 -73.029 -0.355
C -25.621 -75.364 -0.47
C -25.268 -73.833 -2.528
C -25.294 -73.909 -0.939
C -25.579 -75.236 -3.135
C -27.054 -75.942 1.613
C -26.451 -73.12 1.2
C -25.346 -74.049 1.697
C -25.653 -75.452 1.121
C -26.935 -75.577 -5.332
C -26.351 -72.834 -4.619
C -25.557 -75.175 -4.728
C -25.23 -73.729 -5.165
C -24.497 -76.218 -2.598
C -24.514 -76.286 -1.041
C -23.868 -73.36 -3.048
C -23.917 -73.474 -0.338
C -24.556 -76.407 1.663
C -23.95 -73.552 1.219
C -24.461 -76.112 -5.302
C -23.843 -73.311 -4.607
C -34.64 -77.549 -0.797
C -34.044 -76.152 -2.87
C -34.107 -76.205 -1.323
C -34.533 -77.448 -3.518
C -34.187 -76.284 1.37
C -34.681 -77.598 0.762
C -34.469 -77.386 -5.079
C -33.892 -76.069 -5.624
C -33.687 -78.616 -2.946
C -33.745 -78.673 -1.368
C -32.621 -75.741 -3.307
C -32.705 -75.843 -0.667
C -32.298 -78.428 -0.777
C -31.677 -76.916 -2.796
C -31.726 -76.977 -1.211
C -32.204 -78.329 -3.395
C -33.822 -78.764 1.256
C -32.744 -75.911 0.902
C -31.815 -77.083 1.364
C -32.353 -78.485 0.801
C -33.572 -78.524 -5.564
C -32.568 -75.668 -4.88
C -32.145 -78.258 -4.972
C -31.581 -76.797 -5.368
C -31.315 -79.527 -2.885
C -31.372 -79.587 -1.308
C -30.176 -76.645 -3.258
C -30.255 -76.762 -0.623
C -29.971 -79.332 -0.676
C -29.383 -77.904 -2.735
C -29.433 -77.972 -1.184
C -29.876 -79.22 -3.392
C -31.484 -79.679 1.31
C -30.307 -76.828 0.95
C -29.56 -78.078 1.538
C -30.036 -79.392 0.884
C -31.236 -79.411 -5.505
C -30.128 -76.57 -4.827
C -29.83 -79.146 -4.952
C -29.319 -77.774 -5.446
C -36.307 -81.676 -0.993
C -35.693 -80.263 -3.064
C -35.75 -80.318 -1.507
C -36.207 -81.58 -3.711
C -35.826 -80.404 1.195
C -36.353 -81.722 0.57
C -36.139 -81.516 -5.273
C -35.571 -80.159 -5.762
C -35.345 -82.762 -3.157
C -35.404 -82.819 -1.565
C -34.221 -79.972 -3.545
C -34.319 -80.066 -0.902
C -33.949 -82.611 -0.983
C -33.318 -81.148 -3.02
C -33.377 -81.205 -1.44
C -33.851 -82.516 -3.615
C -35.478 -82.894 1.064
C -34.369 -80.114 0.676
C -33.47 -81.287 1.159
C -34.003 -82.654 0.598
C -35.225 -82.652 -5.782
C -34.158 -79.908 -5.119
C -33.788 -82.447 -5.194
C -33.219 -81.043 -5.617
C -32.953 -83.709 -3.103
C -33.013 -83.766 -1.511
C -31.831 -80.9 -3.488
C -31.929 -80.999 -0.847
C -31.594 -83.54 -0.887
C -30.983 -82.115 -2.957
C -31.041 -82.174 -1.4
C -31.493 -83.439 -3.606
C -33.117 -83.832 1.117
C -31.989 -81.05 0.73
C -31.154 -82.253 1.3
C -31.656 -83.584 0.676
C -32.863 -83.585 -5.729
C -31.774 -80.83 -5.065
C -31.438 -83.367 -5.168
C -30.897 -81.992 -5.657
C -35.841 -84.112 -3.791
C -35.943 -84.208 -1.064
C -34.958 -85.266 -3.22
C -35.017 -85.322 -1.65
C -35.993 -84.25 0.504
C -35.11 -85.393 1.075
C -35.776 -84.044 -5.358
C -34.848 -85.145 -5.94
C -33.5 -85.041 -3.739
C -33.602 -85.139 -1.011
C -33.658 -85.179 0.558
C -33.439 -84.97 -5.306
C -23.14 -75.869 -0.439
C -22.781 -74.346 -2.513
C -22.804 -74.405 -0.919
C -23.105 -75.769 -3.108
C -22.848 -74.521 1.707
C -23.165 -75.943 1.15
C -23.085 -75.725 -4.699
C -22.746 -74.268 -5.142
H -21.164 -72.98 -0.598
H -21.125 -72.916 -2.7
H -21.213 -73.087 1.641
H -22.103 -76.89 2.792
H -20.361 -75.077 2.818
H -21.093 -72.881 -4.943
H -21.98 -76.591 -6.357
H -20.258 -74.831 -6.23
H -22.269 -77.721 -5.079
H -22.32 -77.942 1.434
H -22.299 -77.837 -0.723
H -22.288 -77.763 -2.917
H -18.635 -73.659 -0.596
H -18.613 -73.599 -2.704
H -18.65 -73.772 1.636
H -19.569 -77.315 2.851
H -18.603 -73.561 -4.938
H -19.585 -77.34 -6.309
H -19.981 -78.253 -4.876
H -20.062 -78.431 1.717
H -20.033 -78.309 -0.605
H -20.052 -78.285 -2.825
H -32.445 -71.962 2.808
H -32.462 -71.564 -6.207
H -32.23 -74.636 2.617
H -30.232 -72.987 2.763
H -32.099 -74.124 -6.34
H -30.131 -72.534 -6.259
H -29.75 -75.507 2.61
H -27.864 -73.669 2.754
H -29.584 -75.077 -6.343
H -27.73 -73.21 -6.256
H -26.215 -71.987 -0.601
H -26.175 -71.881 -2.709
H -26.271 -72.131 1.626
H -27.087 -75.981 2.701
H -25.363 -74.075 2.787
H -26.151 -71.81 -4.942
H -26.923 -75.474 -6.416
H -25.212 -73.657 -6.254
H -26.992 -76.622 -5.15
H -27.103 -76.956 1.279
H -27.062 -76.824 -0.819
H -27.029 -76.699 -3.018
H -23.707 -72.437 -0.596
H -23.659 -72.351 -2.698
H -23.763 -72.564 1.641
H -24.567 -76.396 2.753
H -23.619 -72.296 -4.94
H -24.427 -76.015 -6.387
H -24.691 -77.16 -5.118
H -24.754 -77.441 1.387
H -24.725 -77.32 -0.769
H -24.705 -77.223 -2.962
H -34.263 -76.294 2.458
H -33.687 -76.175 -6.689
H -33.864 -78.799 2.346
H -31.86 -77.124 2.453
H -33.522 -78.503 -6.653
H -31.525 -76.747 -6.456
H -31.531 -79.722 2.399
H -29.702 -78.121 2.617
H -31.201 -79.372 -6.594
H -29.337 -77.725 -6.535
H -35.47 -77.479 -5.493
H -34.675 -75.354 -5.623
H -29.267 -80.1 -0.983
H -28.357 -77.884 -3.021
H -28.435 -77.973 -0.807
H -29.191 -80.013 -3.103
H -28.505 -78.064 1.403
H -29.376 -80.177 1.246
H -29.139 -79.896 -5.332
H -28.293 -77.795 -5.174
H -35.666 -77.649 -1.14
H -34.759 -75.476 -3.272
H -34.901 -75.555 -1.068
H -35.581 -77.563 -3.259
H -34.916 -75.607 0.989
H -35.708 -77.719 1.097
H -35.823 -80.485 2.281
H -35.489 -80.163 -6.849
H -35.518 -82.925 2.153
H -33.51 -81.324 2.249
H -35.185 -82.607 -6.871
H -33.18 -81.004 -6.706
H -33.155 -83.864 2.207
H -31.257 -82.293 2.384
H -32.822 -83.541 -6.818
H -30.92 -81.955 -6.745
H -37.139 -81.646 -5.689
H -36.289 -79.378 -5.537
H -30.926 -84.343 -1.193
H -29.938 -82.003 -3.231
H -30.02 -82.086 -1.041
H -30.845 -84.263 -3.31
H -30.089 -82.153 1.121
H -31.03 -84.398 1.045
H -30.783 -84.153 -5.547
H -29.848 -81.903 -5.393
H -37.332 -81.805 -1.338
H -36.37 -79.475 -3.378
H -36.452 -79.555 -1.188
H -37.254 -81.73 -3.452
H -36.528 -79.608 0.973
H -37.381 -81.877 0.902
H -35.126 -85.368 2.164
H -34.787 -85.046 -7.024
H -22.857 -74.537 2.798
H -22.727 -74.205 -6.232
H -36.884 -84.284 -3.53
H -36.963 -84.359 -1.413
H -37.022 -84.406 0.834
H -36.777 -84.174 -5.773
H -35.414 -86.3 -1.379
H -35.331 -86.221 -3.587
H -35.495 -86.372 0.8
H -35.25 -86.141 -5.762
H -32.874 -85.879 -3.44
H -32.954 -85.956 -1.321
H -33.036 -85.996 0.926
H -32.789 -85.759 -5.684
H -30.655 -70.524 -4.931
H -30.644 -70.592 -2.704
H -30.658 -70.689 -0.599
H -30.664 -70.83 1.625
H -28.463 -71.286 -4.943
H -28.474 -71.361 -2.715
H -28.499 -71.472 -0.608
H -28.536 -71.622 1.615
C -36.803 -71.932 -2.479
C -36.803 -72.021 -0.922
C -35.52 -69.3 -2.904
C -35.566 -69.434 -0.194
C -35.355 -71.939 -0.346
C -34.71 -70.53 -2.414
C -34.724 -70.597 -0.823
C -35.351 -71.819 -3.017
C -36.824 -72.183 1.779
C -35.595 -69.527 1.361
C -34.744 -70.734 1.812
C -35.369 -72.03 1.249
C -36.79 -71.795 -5.182
C -35.505 -69.235 -4.463
C -35.345 -71.764 -4.61
C -34.705 -70.428 -5.055
C -34.545 -73.043 -2.501
C -34.539 -73.097 -0.95
C -33.266 -70.474 -2.984
C -33.283 -70.583 -0.275
C -34.516 -73.198 1.808
C -33.293 -70.668 1.282
C -34.539 -72.963 -5.194
C -33.265 -70.42 -4.542
C -46.783 -66.048 -0.193
C -45.83 -64.674 -2.168
C -45.902 -64.771 -0.595
C -46.65 -65.894 -2.832
C -46.028 -64.966 2.015
C -46.865 -66.167 1.388
C -46.563 -65.796 -4.412
C -45.689 -64.511 -4.789
C -46.087 -67.344 -2.4
C -46.166 -67.44 -0.83
C -44.351 -64.757 -2.606
C -44.475 -64.961 0.021
C -44.688 -67.581 -0.239
C -43.828 -66.152 -2.171
C -43.896 -66.271 -0.602
C -44.563 -67.385 -2.842
C -46.296 -67.635 1.761
C -44.553 -65.099 1.581
C -44.03 -66.505 1.983
C -44.769 -67.707 1.327
C -45.931 -67.159 -4.996
C -44.274 -64.631 -4.168
C -44.481 -67.262 -4.409
C -43.701 -65.937 -4.758
C -43.825 -68.733 -2.399
C -43.895 -68.851 -0.829
C -42.366 -66.033 -2.639
C -42.484 -66.254 0.015
C -42.363 -68.789 -0.248
C -41.573 -67.266 -2.201
C -41.638 -67.397 -0.631
C -42.26 -68.558 -2.877
C -44.022 -69.047 1.758
C -42.558 -66.407 1.556
C -41.749 -67.645 1.985
C -42.433 -68.933 1.331
C -43.715 -68.53 -4.988
C -42.301 -65.892 -4.175
C -42.208 -68.423 -4.461
C -41.499 -67.032 -4.824
C -41.349 -69.735 -2.423
C -41.395 -69.875 -0.879
C -40.1 -67.139 -2.742
C -40.205 -67.367 -0.04
C -39.963 -69.824 -0.274
C -39.269 -68.341 -2.278
C -39.322 -68.467 -0.692
C -39.895 -69.604 -2.935
C -41.495 -70.12 1.803
C -40.268 -67.51 1.506
C -39.402 -68.695 1.935
C -40.016 -69.964 1.31
C -41.274 -69.482 -5.136
C -40.058 -67.018 -4.293
C -39.862 -69.487 -4.523
C -39.214 -68.145 -4.911
C -39.078 -70.839 -2.453
C -39.097 -70.957 -0.898
C -37.805 -68.193 -2.819
C -37.885 -68.378 -0.112
C -39.147 -71.164 1.796
C -37.933 -68.501 1.442
C -39.043 -70.651 -5.151
C -37.772 -68.098 -4.375
C -49.225 -70.089 -0.668
C -48.329 -68.779 -2.696
C -48.431 -68.856 -1.15
C -49.05 -69.943 -3.385
C -48.571 -68.99 1.543
C -49.301 -70.17 0.889
C -48.947 -69.853 -4.943
C -48.103 -68.663 -5.455
C -48.471 -71.271 -2.833
C -48.565 -71.355 -1.258
C -46.834 -68.625 -3.105
C -46.99 -68.777 -0.471
C -47.108 -71.409 -0.646
C -46.158 -69.987 -2.617
C -46.248 -70.079 -1.032
C -46.953 -71.265 -3.258
C -48.699 -71.496 1.361
C -47.073 -68.876 1.095
C -46.399 -70.23 1.532
C -47.197 -71.495 0.928
C -48.3 -71.14 -5.445
C -46.73 -68.519 -4.675
C -46.855 -71.166 -4.831
C -45.991 -69.825 -5.174
C -46.336 -72.634 -2.774
C -46.428 -72.721 -1.199
C -44.619 -70.005 -3.048
C -44.769 -70.176 -0.422
C -45.016 -72.761 -0.545
C -44.119 -71.428 -2.551
C -44.209 -71.521 -1.004
C -44.858 -72.603 -3.254
C -46.595 -72.857 1.412
C -44.859 -70.274 1.146
C -44.404 -71.671 1.715
C -45.114 -72.849 1.011
C -46.196 -72.469 -5.388
C -44.527 -69.894 -4.611
C -44.775 -72.496 -4.81
C -43.977 -71.24 -5.248
C -51.682 -73.816 -0.979
C -50.771 -72.494 -3.007
C -50.86 -72.579 -1.453
C -51.53 -73.669 -3.692
C -50.987 -72.72 1.244
C -51.756 -73.893 0.581
C -51.431 -73.58 -5.25
C -50.597 -72.349 -5.7
C -50.929 -75.015 -3.163
C -51.017 -75.1 -1.574
C -49.262 -72.483 -3.47
C -49.413 -72.624 -0.833
C -49.557 -75.196 -0.979
C -48.622 -73.831 -2.971
C -48.712 -73.916 -1.393
C -49.411 -75.056 -3.605
C -51.136 -75.228 1.05
C -49.495 -72.703 0.743
C -48.852 -74.046 1.2
C -49.638 -75.269 0.6
C -50.76 -74.866 -5.782
C -49.166 -72.393 -5.042
C -49.317 -74.961 -5.182
C -48.472 -73.684 -5.561
C -48.775 -76.417 -3.12
C -48.863 -76.502 -1.531
C -47.108 -73.868 -3.421
C -47.259 -74.012 -0.785
C -47.435 -76.574 -0.893
C -46.529 -75.244 -2.919
C -46.616 -75.329 -1.364
C -47.284 -76.427 -3.606
C -49.008 -76.613 1.093
C -47.349 -74.091 0.789
C -46.776 -75.454 1.331
C -47.521 -76.645 0.668
C -48.634 -76.25 -5.74
C -47.017 -73.77 -4.995
C -47.199 -76.328 -5.165
C -46.389 -75.074 -5.614
C -51.678 -76.225 -3.834
C -51.827 -76.37 -1.114
C -51.047 -77.547 -3.289
C -51.133 -77.631 -1.722
C -51.903 -76.443 0.452
C -51.268 -77.752 0.997
C -51.583 -76.132 -5.398
C -50.89 -77.384 -6.001
C -49.568 -77.6 -3.793
C -49.717 -77.745 -1.071
C -49.797 -77.815 0.495
C -49.478 -77.504 -5.357
C -37.655 -70.883 -0.311
C -36.983 -69.418 -2.347
C -37.015 -69.512 -0.754
C -37.624 -70.713 -2.976
C -37.061 -69.697 1.868
C -37.684 -70.998 1.275
C -37.61 -70.628 -4.565
C -36.956 -69.273 -4.976
H -35.12 -68.473 -0.445
H -35.057 -68.382 -2.548
H -35.173 -68.618 1.792
H -36.817 -72.196 2.869
H -34.725 -70.758 2.902
H -35.04 -68.304 -4.79
H -36.758 -71.69 -6.267
H -34.698 -70.356 -6.144
H -37.271 -72.755 -5.005
H -37.258 -73.137 1.486
H -37.249 -72.98 -0.661
H -37.263 -72.848 -2.85
H -32.81 -69.637 -0.534
H -32.783 -69.56 -2.643
H -32.821 -69.776 1.697
H -34.395 -73.078 2.884
H -32.793 -69.493 -4.875
H -34.556 -72.952 -6.283
H -35.116 -73.804 -4.872
H -35.121 -74.067 1.766
H -35.109 -73.915 -0.578
H -35.159 -73.853 -2.806
H -46.063 -65.018 3.104
H -45.6 -64.437 -5.873
H -46.354 -67.749 2.843
H -44.079 -66.62 3.067
H -45.863 -67.065 -6.079
H -43.64 -65.849 -5.844
H -44.064 -69.134 2.843
H -41.773 -67.723 3.072
H -43.692 -68.452 -6.075
H -41.486 -66.889 -5.905
H -39.725 -66.432 -0.26
H -39.62 -66.263 -2.349
H -39.82 -66.652 1.973
H -41.532 -70.215 2.887
H -39.41 -68.77 3.023
H -39.575 -66.103 -4.598
H -41.229 -69.301 -6.21
H -39.195 -68.031 -5.996
H -41.602 -70.481 -5.048
H -41.785 -71.069 1.409
H -41.703 -70.872 -0.671
H -41.651 -70.65 -2.874
H -37.451 -67.406 -0.338
H -37.357 -67.276 -2.439
H -37.528 -67.594 1.893
H -39.146 -71.2 2.885
H -37.312 -67.157 -4.68
H -39.002 -70.532 -6.234
H -39.521 -71.615 -4.99
H -39.571 -72.117 1.483
H -39.534 -71.926 -0.659
H -39.524 -71.752 -2.846
H -48.658 -69.024 2.628
H -47.892 -68.804 -6.515
H -48.764 -71.55 2.449
H -46.471 -70.288 2.618
H -48.233 -71.107 -6.533
H -45.904 -69.766 -6.259
H -46.668 -72.92 2.498
H -44.595 -71.711 2.787
H -46.135 -72.41 -6.475
H -43.944 -71.165 -6.334
H -49.942 -69.739 -5.369
H -48.758 -67.827 -5.489
H -44.476 -73.647 -0.868
H -43.107 -71.636 -2.809
H -43.245 -71.746 -0.606
H -44.354 -73.527 -2.985
H -43.364 -71.874 1.629
H -44.629 -73.76 1.354
H -44.247 -73.363 -5.204
H -42.995 -71.509 -4.933
H -50.245 -69.981 -1.024
H -48.924 -67.992 -3.091
H -49.101 -68.08 -0.881
H -50.106 -69.861 -3.145
H -49.164 -68.18 1.188
H -50.34 -70.101 1.206
H -51.012 -72.83 2.328
H -50.505 -72.347 -6.786
H -51.194 -75.279 2.138
H -48.913 -74.103 2.288
H -50.702 -74.806 -6.87
H -48.414 -73.628 -6.649
H -49.064 -76.666 2.181
H -46.898 -75.502 2.412
H -48.575 -76.191 -6.828
H -46.398 -75.006 -6.701
H -52.433 -73.499 -5.676
H -51.147 -71.446 -5.461
H -46.935 -77.485 -1.217
H -45.479 -75.338 -3.184
H -45.602 -75.455 -0.998
H -46.817 -77.371 -3.33
H -45.71 -75.563 1.161
H -47.073 -77.577 1.017
H -46.71 -77.22 -5.561
H -45.346 -75.204 -5.347
H -52.708 -73.733 -1.334
H -51.277 -71.581 -3.303
H -51.403 -71.7 -1.118
H -52.59 -73.616 -3.444
H -51.518 -71.796 1.043
H -52.799 -73.852 0.902
H -51.293 -77.754 2.086
H -50.802 -77.279 -7.082
H -37.053 -69.752 2.957
H -36.947 -69.179 -6.064
H -52.737 -76.195 -3.583
H -52.854 -76.31 -1.472
H -52.945 -76.403 0.772
H -52.586 -76.052 -5.82
H -51.718 -78.518 -1.48
H -51.599 -78.4 -3.683
H -51.836 -78.63 0.693
H -51.482 -78.284 -5.845
H -49.124 -78.554 -3.513
H -49.241 -78.668 -1.399
H -49.352 -78.747 0.844
H -48.994 -78.399 -5.751
C -50.181 -64.243 -2.382
C -50.257 -64.312 -0.826
C -48.53 -61.822 -2.773
C -48.654 -61.951 -0.066
C -48.835 -64.452 -0.188
C -47.905 -63.154 -2.222
C -47.975 -63.236 -0.634
C -48.706 -64.325 -2.856
C -50.404 -64.439 1.871
C -48.74 -62.036 1.487
C -48.116 -63.377 1.991
C -48.923 -64.548 1.4
C -50.038 -64.139 -5.085
C -48.459 -61.765 -4.331
C -48.627 -64.266 -4.444
C -47.774 -63.05 -4.858
C -48.113 -65.641 -2.31
C -48.182 -65.714 -0.765
C -46.439 -63.314 -2.702
C -46.562 -63.472 -0.004
C -48.295 -65.849 1.981
C -46.64 -63.581 1.548
C -47.975 -65.538 -4.997
C -46.365 -63.229 -4.255
C -59.153 -56.765 -0.398
C -58.03 -55.674 -2.462
C -58.07 -55.713 -0.872
C -59.087 -56.702 -3.05
C -58.139 -55.815 1.747
C -59.202 -56.827 1.183
C -59.048 -56.668 -4.629
C -57.982 -55.614 -5.086
C -58.73 -58.213 -2.591
C -58.79 -58.251 -1.015
C -56.645 -56.061 -2.998
C -56.72 -56.149 -0.297
C -57.343 -58.647 -0.45
C -56.27 -57.462 -2.467
C -56.328 -57.518 -0.892
C -57.237 -58.562 -3.064
C -58.89 -58.35 1.59
C -56.768 -56.214 1.254
C -56.443 -57.628 1.74
C -57.411 -58.703 1.135
C -58.621 -58.136 -5.195
C -56.613 -56.024 -4.554
C -57.178 -58.521 -4.65
C -56.191 -57.396 -5.101
C -56.746 -60.018 -2.572
C -56.817 -60.068 -0.998
C -54.84 -57.681 -2.979
C -54.944 -57.784 -0.277
C -55.306 -60.291 -0.406
C -54.31 -59.016 -2.438
C -54.378 -59.079 -0.851
C -55.183 -60.195 -3.048
C -56.942 -60.151 1.603
C -55.015 -57.853 1.275
C -54.514 -59.195 1.768
C -55.388 -60.357 1.169
C -56.638 -59.94 -5.171
C -54.792 -57.639 -4.533
C -55.122 -60.152 -4.625
C -54.215 -58.942 -5.059
C -54.433 -61.476 -2.512
C -54.509 -61.536 -0.966
C -52.827 -59.083 -2.927
C -52.946 -59.192 -0.221
C -53.079 -61.66 -0.335
C -52.155 -60.362 -2.372
C -52.227 -60.429 -0.785
C -52.947 -61.555 -2.996
C -54.657 -61.645 1.721
C -53.029 -59.263 1.333
C -52.372 -60.546 1.848
C -53.168 -61.732 1.254
C -54.315 -61.383 -5.208
C -52.77 -59.038 -4.484
C -52.88 -61.507 -4.588
C -52.04 -60.279 -5.008
C -52.294 -62.863 -2.452
C -52.372 -62.926 -0.897
C -50.671 -60.422 -2.853
C -50.798 -60.538 -0.144
C -52.518 -63.039 1.799
C -50.883 -60.614 1.41
C -52.161 -62.767 -5.152
C -50.605 -60.373 -4.411
C -62.258 -60.24 -0.727
C -61.169 -59.181 -2.805
C -61.254 -59.199 -1.256
C -62.115 -60.193 -3.45
C -61.364 -59.237 1.442
C -62.317 -60.269 0.833
C -62.03 -60.162 -5.011
C -60.988 -59.178 -5.566
C -61.78 -61.593 -2.872
C -61.858 -61.621 -1.294
C -59.694 -59.346 -3.242
C -59.822 -59.395 -0.602
C -60.428 -61.945 -0.704
C -59.271 -60.789 -2.725
C -59.346 -60.82 -1.139
C -60.299 -61.895 -3.322
C -61.964 -61.674 1.33
C -59.889 -59.434 0.969
C -59.475 -60.875 1.435
C -60.501 -61.974 0.874
C -61.64 -61.557 -5.49
C -59.611 -59.306 -4.816
C -60.215 -61.856 -4.899
C -59.128 -60.725 -5.296
C -59.935 -63.341 -2.812
C -60.012 -63.371 -1.235
C -57.776 -61.114 -3.181
C -57.906 -61.18 -0.547
C -58.62 -63.667 -0.601
C -57.525 -62.577 -2.659
C -57.603 -62.614 -1.107
C -58.484 -63.607 -3.316
C -60.152 -63.411 1.383
C -57.986 -61.216 1.026
C -57.771 -62.656 1.614
C -58.705 -63.694 0.959
C -59.817 -63.268 -5.431
C -57.696 -61.069 -4.75
C -58.413 -63.56 -4.876
C -57.41 -62.488 -5.372
C -65.371 -63.423 -0.906
C -64.266 -62.345 -2.979
C -64.339 -62.378 -1.422
C -65.248 -63.363 -3.624
C -64.437 -62.436 1.28
C -65.427 -63.452 0.657
C -65.165 -63.325 -5.185
C -64.12 -62.289 -5.676
C -64.903 -64.786 -3.074
C -64.974 -64.821 -1.482
C -62.795 -62.64 -3.466
C -62.919 -62.691 -0.823
C -63.548 -65.185 -0.906
C -62.41 -64.071 -2.945
C -62.484 -64.103 -1.364
C -63.43 -65.13 -3.538
C -65.062 -64.87 1.147
C -62.982 -62.718 0.755
C -62.595 -64.147 1.235
C -63.609 -65.208 0.675
C -64.76 -64.723 -5.698
C -62.715 -62.604 -5.041
C -63.351 -65.086 -5.117
C -62.286 -64.01 -5.541
C -63.056 -66.577 -3.031
C -63.126 -66.61 -1.439
C -60.941 -64.411 -3.417
C -61.065 -64.465 -0.775
C -61.726 -66.943 -0.82
C -60.623 -65.859 -2.891
C -60.694 -65.89 -1.333
C -61.605 -66.885 -3.539
C -63.237 -66.636 1.189
C -61.137 -64.49 0.801
C -60.82 -65.922 1.366
C -61.792 -66.962 0.743
C -62.936 -66.491 -5.657
C -60.865 -64.368 -4.994
C -61.534 -66.838 -5.101
C -60.507 -65.776 -5.591
C -65.881 -65.841 -3.706
C -66.001 -65.902 -0.979
C -65.505 -67.248 -3.14
C -65.573 -67.282 -1.57
C -66.058 -65.927 0.589
C -65.673 -67.322 1.154
C -65.802 -65.797 -5.273
C -65.371 -67.168 -5.861
C -64.074 -67.596 -3.666
C -64.192 -67.655 -0.938
C -64.252 -67.675 0.631
C -63.999 -67.549 -5.234
C -50.949 -63.051 -0.263
C -50.017 -61.732 -2.299
C -50.09 -61.804 -0.706
C -50.815 -62.938 -2.928
C -50.236 -61.931 1.914
C -51.038 -63.131 1.322
C -50.742 -62.887 -4.516
C -49.893 -61.644 -4.926
H -48.049 -61.078 -0.302
H -47.967 -60.968 -2.403
H -48.186 -61.207 1.93
H -50.442 -64.438 2.96
H -48.163 -63.395 3.081
H -47.872 -60.9 -4.644
H -49.945 -64.05 -6.168
H -47.695 -62.996 -5.945
H -50.637 -65.034 -4.926
H -50.982 -65.311 1.569
H -50.857 -65.188 -0.579
H -50.741 -65.095 -2.768
H -45.96 -62.606 -0.232
H -45.882 -62.472 -2.322
H -46.079 -62.775 1.999
H -48.21 -65.76 3.063
H -45.782 -62.367 -4.559
H -47.95 -65.536 -6.087
H -48.661 -66.286 -4.678
H -49.033 -66.601 1.889
H -48.886 -66.436 -0.435
H -48.818 -66.346 -2.649
H -58.13 -55.846 2.838
H -57.945 -55.578 -6.176
H -58.943 -58.423 2.675
H -56.483 -57.662 2.83
H -58.575 -58.078 -6.282
H -56.143 -57.357 -6.191
H -56.99 -60.195 2.69
H -54.567 -59.219 2.858
H -56.597 -59.913 -6.26
H -54.164 -58.892 -6.148
H -52.36 -58.305 -0.461
H -52.276 -58.213 -2.572
H -52.489 -58.418 1.764
H -54.721 -61.671 2.808
H -52.424 -60.564 2.938
H -52.204 -58.16 -4.802
H -54.254 -61.302 -6.293
H -51.972 -60.221 -6.096
H -54.764 -62.332 -5.024
H -55.079 -62.564 1.379
H -54.965 -62.466 -0.71
H -54.855 -62.378 -2.9
H -50.212 -59.652 -0.385
H -50.125 -59.554 -2.489
H -50.347 -59.771 1.848
H -52.552 -63.037 2.888
H -50.034 -59.499 -4.728
H -52.072 -62.684 -6.235
H -52.746 -63.67 -4.986
H -53.083 -63.92 1.502
H -52.956 -63.811 -0.645
H -52.838 -63.726 -2.833
H -61.433 -59.224 2.53
H -60.836 -59.369 -6.627
H -62.015 -61.689 2.42
H -59.534 -60.894 2.524
H -61.588 -61.561 -6.58
H -59.055 -60.704 -6.384
H -60.213 -63.433 2.472
H -57.917 -62.644 2.694
H -59.769 -63.244 -6.52
H -57.42 -62.433 -6.46
H -62.99 -59.863 -5.426
H -61.442 -58.22 -5.589
H -58.262 -64.646 -0.906
H -56.563 -62.941 -2.945
H -56.68 -62.992 -0.73
H -58.156 -64.601 -3.025
H -56.792 -63.046 1.475
H -58.393 -64.67 1.324
H -58.063 -64.519 -5.254
H -56.457 -62.887 -5.116
H -63.244 -59.942 -1.071
H -61.576 -58.289 -3.212
H -61.739 -58.296 -0.998
H -63.127 -59.897 -3.192
H -61.785 -58.332 1.072
H -63.314 -59.991 1.165
H -64.46 -62.516 2.367
H -64.052 -62.321 -6.763
H -65.107 -64.887 2.237
H -62.643 -64.168 2.324
H -64.711 -64.694 -6.788
H -62.239 -63.986 -6.63
H -63.28 -66.655 2.279
H -60.926 -65.924 2.451
H -62.886 -66.463 -6.747
H -60.521 -65.728 -6.68
H -66.14 -63.059 -5.598
H -64.482 -61.294 -5.445
H -61.415 -67.939 -1.129
H -59.616 -66.155 -3.169
H -59.715 -66.199 -0.979
H -61.322 -67.895 -3.247
H -59.798 -66.234 1.181
H -61.523 -67.954 1.109
H -61.234 -67.814 -5.484
H -59.503 -66.098 -5.335
H -66.369 -63.15 -1.247
H -64.592 -61.357 -3.288
H -64.697 -61.405 -1.099
H -66.272 -63.101 -3.36
H -64.785 -61.432 1.065
H -66.436 -63.205 0.993
H -65.675 -67.296 2.244
H -65.282 -67.097 -6.944
H -50.288 -61.952 3.003
H -49.818 -61.587 -6.013
H -66.91 -65.602 -3.439
H -67.003 -65.651 -1.323
H -67.066 -65.681 0.925
H -66.778 -65.532 -5.682
H -66.312 -68.035 -1.298
H -66.217 -67.986 -3.506
H -66.404 -68.08 0.88
H -66.123 -67.934 -5.681
H -63.816 -68.612 -3.372
H -63.907 -68.657 -1.252
H -63.986 -68.668 0.995
H -63.704 -68.527 -5.616
H -55.886 -55.28 -4.885
H -55.913 -55.328 -2.658
H -55.967 -55.404 -0.552
H -56.04 -55.515 1.671
H -54.142 -56.823 -4.856
H -54.198 -56.872 -2.629
H -54.271 -56.961 -0.52
H -54.38 -57.074 1.702
C -62.135 -54.259 -2.479
C -62.165 -54.303 -0.921
C -59.993 -52.278 -2.959
C -60.058 -52.342 -0.248
C -60.791 -54.755 -0.341
C -59.674 -53.716 -2.43
C -59.706 -53.752 -0.839
C -60.742 -54.692 -3.012
C -62.233 -54.382 1.785
C -60.106 -52.391 1.308
C -59.772 -53.829 1.796
C -60.837 -54.807 1.254
C -62.078 -54.199 -5.186
C -59.966 -52.252 -4.518
C -60.716 -54.67 -4.605
C -59.633 -53.67 -5.07
C -60.448 -56.117 -2.472
C -60.471 -56.147 -0.923
C -58.308 -54.217 -2.981
C -58.363 -54.285 -0.273
C -60.504 -56.213 1.827
C -58.405 -54.343 1.284
C -60.404 -56.086 -5.163
C -58.285 -54.186 -4.54
C -69.293 -45.102 -0.269
C -67.998 -44.243 -2.34
C -68.029 -44.282 -0.75
C -69.243 -45.039 -2.921
C -68.092 -44.383 1.869
C -69.339 -45.162 1.313
C -69.213 -45.004 -4.5
C -67.964 -44.178 -4.964
C -69.19 -46.591 -2.47
C -69.237 -46.627 -0.894
C -66.722 -44.891 -2.894
C -66.783 -44.978 -0.193
C -67.888 -47.302 -0.35
C -66.626 -46.342 -2.377
C -66.673 -46.394 -0.802
C -67.802 -47.222 -2.965
C -69.325 -46.719 1.71
C -66.828 -45.042 1.359
C -66.774 -46.499 1.83
C -67.947 -47.355 1.236
C -69.098 -46.522 -5.076
C -66.699 -44.85 -4.45
C -67.756 -47.182 -4.551
C -66.569 -46.271 -5.012
C -67.605 -48.747 -2.486
C -67.662 -48.794 -0.912
C -65.272 -46.836 -2.916
C -65.358 -46.933 -0.215
C -66.215 -49.315 -0.352
C -65.013 -48.255 -2.399
C -65.069 -48.312 -0.812
C -66.12 -49.223 -2.996
C -67.762 -48.869 1.69
C -65.421 -46.999 1.338
C -65.178 -48.421 1.808
C -66.283 -49.376 1.224
C -67.522 -48.672 -5.088
C -65.238 -46.79 -4.47
C -66.078 -49.178 -4.574
C -64.95 -48.177 -5.02
C -65.645 -50.63 -2.484
C -65.699 -50.687 -0.937
C -63.583 -48.627 -2.928
C -63.675 -48.72 -0.222
C -64.314 -51.107 -0.343
C -63.184 -50.025 -2.405
C -63.236 -50.078 -0.817
C -64.229 -51.015 -3.008
C -65.81 -50.786 1.755
C -63.741 -48.782 1.334
C -63.336 -50.177 1.819
C -64.378 -51.167 1.247
C -65.564 -50.535 -5.189
C -63.545 -48.583 -4.486
C -64.19 -50.971 -4.601
C -63.117 -49.95 -5.043
C -63.872 -52.437 -2.484
C -63.913 -52.49 -0.926
C -61.762 -50.415 -2.94
C -61.845 -50.493 -0.23
C -63.996 -52.578 1.777
C -61.904 -50.548 1.327
C -63.803 -52.358 -5.187
C -61.726 -50.379 -4.499
C -73.031 -47.899 -0.574
C -71.778 -47.062 -2.659
C -71.847 -47.072 -1.109
C -72.909 -47.868 -3.297
C -71.933 -47.102 1.589
C -73.078 -47.923 0.987
C -72.836 -47.848 -4.859
C -71.629 -47.078 -5.42
C -72.848 -49.309 -2.729
C -72.915 -49.33 -1.15
C -70.368 -47.508 -3.113
C -70.472 -47.547 -0.472
C -71.569 -49.928 -0.574
C -70.231 -49.009 -2.605
C -70.293 -49.034 -1.018
C -71.459 -49.892 -3.193
C -73.005 -49.372 1.475
C -70.528 -47.581 1.099
C -70.401 -49.076 1.557
C -71.631 -49.949 1.004
C -72.727 -49.289 -5.349
C -70.296 -47.477 -4.688
C -71.385 -49.862 -4.771
C -70.107 -48.962 -5.178
C -71.38 -51.383 -2.69
C -71.446 -51.406 -1.112
C -68.835 -49.618 -3.08
C -68.944 -49.673 -0.444
C -70.134 -51.971 -0.492
C -68.872 -51.106 -2.559
C -68.937 -51.135 -1.007
C -70.018 -51.925 -3.209
C -71.567 -51.429 1.507
C -69.01 -49.701 1.129
C -69.079 -51.156 1.717
C -70.206 -51.988 1.068
C -71.274 -51.322 -5.311
C -68.768 -49.582 -4.649
C -69.954 -51.885 -4.77
C -68.77 -51.029 -5.272
C -76.709 -50.417 -0.744
C -75.433 -49.567 -2.822
C -75.498 -49.591 -1.265
C -76.597 -50.375 -3.463
C -75.584 -49.637 1.438
C -76.758 -50.439 0.819
C -76.52 -50.35 -5.025
C -75.3 -49.533 -5.521
C -76.53 -51.84 -2.918
C -76.595 -51.865 -1.326
C -74.051 -50.139 -3.319
C -74.16 -50.175 -0.676
C -75.263 -52.5 -0.761
C -73.947 -51.62 -2.804
C -74.013 -51.643 -1.223
C -75.155 -52.461 -3.393
C -76.674 -51.904 1.303
C -74.214 -50.195 0.903
C -74.111 -51.674 1.376
C -75.317 -52.516 0.821
C -76.394 -51.798 -5.544
C -73.978 -50.114 -4.895
C -75.08 -52.428 -4.973
C -73.832 -51.575 -5.402
C -75.063 -53.954 -2.892
C -75.129 -53.978 -1.299
C -72.577 -52.236 -3.288
C -72.688 -52.276 -0.646
C -73.816 -54.578 -0.69
C -72.539 -53.72 -2.767
C -72.604 -53.743 -1.209
C -73.703 -54.536 -3.41
C -75.226 -53.991 1.33
C -72.75 -52.292 0.931
C -72.716 -53.76 1.492
C -73.875 -54.589 0.873
C -74.945 -53.886 -5.519
C -72.506 -52.202 -4.866
C -73.634 -54.498 -4.973
C -72.426 -53.652 -5.468
C -77.697 -52.685 -3.548
C -77.809 -52.728 -0.82
C -77.596 -54.139 -2.987
C -77.66 -54.164 -1.416
C -77.859 -52.745 0.749
C -77.75 -54.19 1.308
C -77.62 -52.654 -5.115
C -77.464 -54.08 -5.709
C -76.262 -54.756 -3.522
C -76.374 -54.798 -0.793
C -76.428 -54.811 0.775
C -76.188 -54.72 -5.09
C -62.535 -52.918 -0.341
C -61.402 -51.843 -2.418
C -61.444 -51.886 -0.823
C -62.469 -52.841 -3.01
C -61.526 -51.973 1.802
C -62.587 -52.973 1.247
C -62.438 -52.808 -4.6
C -61.35 -51.784 -5.046
H -59.286 -51.623 -0.517
H -59.231 -51.579 -2.62
H -59.369 -51.7 1.721
H -62.22 -54.367 2.875
H -59.766 -53.835 2.887
H -59.203 -51.552 -4.862
H -62.011 -54.133 -6.272
H -59.595 -53.632 -6.159
H -62.868 -54.923 -4.994
H -62.999 -55.107 1.518
H -62.934 -55.022 -0.64
H -62.895 -54.956 -2.832
H -57.563 -53.595 -0.538
H -57.52 -53.544 -2.647
H -57.627 -53.696 1.693
H -60.361 -56.143 2.905
H -57.503 -53.504 -4.879
H -60.418 -56.091 -6.252
H -61.249 -56.645 -4.822
H -61.395 -56.783 1.764
H -61.311 -56.684 -0.551
H -61.32 -56.641 -2.769
H -68.079 -44.423 2.96
H -67.931 -44.143 -6.054
H -69.379 -46.786 2.797
H -66.804 -46.535 2.92
H -69.054 -46.467 -6.163
H -66.53 -46.232 -6.101
H -67.799 -48.91 2.778
H -65.21 -48.445 2.899
H -67.496 -48.645 -6.177
H -64.914 -48.123 -6.11
H -62.927 -47.968 -0.471
H -62.853 -47.897 -2.58
H -63.035 -48.065 1.756
H -65.849 -50.806 2.843
H -63.355 -50.195 2.91
H -62.812 -47.843 -4.812
H -65.508 -50.451 -6.274
H -63.071 -49.895 -6.131
H -66.191 -51.371 -5.004
H -66.419 -51.598 1.423
H -66.328 -51.509 -0.674
H -66.249 -51.419 -2.872
H -61.093 -49.75 -0.49
H -61.022 -49.695 -2.593
H -61.191 -49.837 1.747
H -63.988 -52.571 2.866
H -60.978 -49.659 -4.834
H -63.732 -52.29 -6.273
H -64.576 -53.102 -5.001
H -64.742 -53.322 1.504
H -64.664 -53.231 -0.653
H -64.609 -53.154 -2.844
H -71.988 -47.082 2.678
H -71.527 -47.285 -6.485
H -73.05 -49.384 2.564
H -70.45 -49.087 2.646
H -72.685 -49.297 -6.439
H -70.043 -48.951 -6.266
H -71.622 -51.443 2.596
H -69.216 -51.115 2.797
H -71.231 -51.304 -6.4
H -68.766 -50.976 -6.36
H -73.724 -47.367 -5.263
H -71.891 -46.051 -5.429
H -69.976 -52.999 -0.803
H -68.01 -51.659 -2.853
H -68.105 -51.69 -0.637
H -69.885 -52.965 -2.923
H -68.195 -51.729 1.578
H -70.088 -53.008 1.427
H -69.8 -52.892 -5.153
H -67.926 -51.618 -5.006
H -73.943 -47.414 -0.906
H -72.01 -46.105 -3.057
H -72.144 -46.093 -0.842
H -73.842 -47.383 -3.028
H -72.174 -46.13 1.228
H -73.999 -47.458 1.331
H -75.616 -49.714 2.524
H -75.244 -49.574 -6.608
H -76.714 -51.915 2.393
H -74.155 -51.689 2.466
H -76.346 -51.776 -6.634
H -73.788 -51.557 -6.492
H -75.266 -54.004 2.42
H -72.813 -53.744 2.577
H -74.896 -53.864 -6.608
H -72.436 -53.6 -6.556
H -77.428 -49.9 -5.43
H -75.461 -48.486 -5.286
H -73.706 -55.615 -1.004
H -71.61 -54.205 -3.053
H -71.701 -54.238 -0.862
H -73.619 -55.582 -3.122
H -71.775 -54.265 1.3
H -73.801 -55.616 1.235
H -73.529 -55.513 -5.359
H -71.502 -54.162 -5.217
H -77.637 -49.955 -1.077
H -75.563 -48.534 -3.128
H -75.657 -48.568 -0.938
H -77.55 -49.922 -3.192
H -75.73 -48.583 1.226
H -77.697 -50.002 1.163
H -77.741 -54.169 2.398
H -77.368 -54.024 -6.792
H -61.534 -51.99 2.893
H -61.309 -51.736 -6.135
H -78.658 -52.253 -3.274
H -78.745 -52.286 -1.157
H -78.799 -52.309 1.091
H -78.529 -52.205 -5.518
H -78.529 -54.76 -1.141
H -78.439 -54.725 -3.35
H -78.615 -54.791 1.036
H -78.349 -54.688 -5.527
H -76.203 -55.803 -3.231
H -76.29 -55.836 -1.112
H -76.357 -55.838 1.136
H -76.089 -55.735 -5.476
H -65.842 -44.263 -4.785
H -65.857 -44.32 -2.558
H -65.902 -44.392 -0.452
H -65.974 -44.501 1.771
H -64.441 -46.119 -4.797
H -64.476 -46.177 -2.57
H -64.54 -46.257 -0.462
H -64.639 -46.363 1.76
C -71.744 -42.054 -2.323
C -71.771 -42.098 -0.764
C -69.258 -40.529 -2.811
C -69.318 -40.589 -0.1
C -70.507 -42.811 -0.193
C -69.224 -42.002 -2.287
C -69.251 -42.038 -0.697
C -70.467 -42.747 -2.865
C -71.837 -42.172 1.942
C -69.367 -40.633 1.457
C -69.313 -42.112 1.938
C -70.552 -42.861 1.402
C -71.692 -41.996 -5.03
C -69.234 -40.502 -4.371
C -70.447 -42.724 -4.458
C -69.192 -41.954 -4.928
C -70.455 -44.203 -2.33
C -70.47 -44.236 -0.78
C -67.988 -42.758 -2.851
C -68.033 -42.826 -0.143
C -70.491 -44.307 1.97
C -68.075 -42.882 1.415
C -70.429 -44.168 -5.021
C -67.97 -42.724 -4.409
C -76.965 -31.695 -0.081
C -75.536 -31.1 -2.157
C -75.567 -31.135 -0.567
C -76.914 -31.638 -2.735
C -75.64 -31.227 2.053
C -77.016 -31.747 1.5
C -76.883 -31.607 -4.313
C -75.499 -31.038 -4.782
C -77.163 -33.17 -2.285
C -77.211 -33.198 -0.709
C -74.412 -31.981 -2.716
C -74.48 -32.06 -0.015
C -76.018 -34.123 -0.169
C -74.599 -33.423 -2.2
C -74.651 -33.468 -0.624
C -75.927 -34.057 -2.785
C -77.306 -33.276 1.897
C -74.53 -32.117 1.537
C -74.761 -33.556 2.008
C -76.08 -34.167 1.416
C -77.068 -33.115 -4.891
C -74.387 -31.943 -4.272
C -75.879 -34.024 -4.371
C -74.538 -33.361 -4.835
C -76.029 -35.591 -2.307
C -76.089 -35.629 -0.733
C -73.37 -34.169 -2.743
C -73.464 -34.254 -0.041
C -74.769 -36.422 -0.177
C -73.391 -35.611 -2.227
C -73.451 -35.661 -0.64
C -74.667 -36.344 -2.821
C -76.193 -35.688 1.869
C -73.533 -34.309 1.512
C -73.57 -35.75 1.981
C -74.842 -36.471 1.399
C -75.942 -35.529 -4.909
C -73.332 -34.128 -4.297
C -74.622 -36.305 -4.399
C -73.322 -35.542 -4.849
C -74.474 -37.816 -2.311
C -74.533 -37.866 -0.764
C -72.062 -36.252 -2.761
C -72.161 -36.332 -0.054
C -73.254 -38.547 -0.175
C -71.943 -37.701 -2.24
C -71.997 -37.748 -0.651
C -73.163 -38.467 -2.84
C -74.65 -37.948 1.929
C -72.233 -36.384 1.502
C -72.105 -37.831 1.984
C -73.322 -38.599 1.416
C -74.386 -37.733 -5.016
C -72.023 -36.213 -4.319
C -73.122 -38.428 -4.433
C -71.872 -37.635 -4.878
C -73.089 -39.932 -2.318
C -73.132 -39.98 -0.76
C -70.626 -38.358 -2.781
C -70.711 -38.427 -0.071
C -73.219 -40.058 1.943
C -70.774 -38.474 1.487
C -73.019 -39.86 -5.022
C -70.59 -38.326 -4.339
C -81.179 -33.706 -0.377
C -79.794 -33.126 -2.466
C -79.858 -33.125 -0.916
C -81.063 -33.695 -3.101
C -79.94 -33.141 1.783
C -81.225 -33.723 1.184
C -80.992 -33.686 -4.663
C -79.66 -33.167 -5.228
C -81.282 -35.121 -2.534
C -81.346 -35.13 -0.955
C -78.499 -33.838 -2.925
C -78.6 -33.859 -0.283
C -80.141 -35.981 -0.384
C -78.656 -35.337 -2.419
C -78.716 -35.352 -0.832
C -80.035 -35.962 -3.004
C -81.434 -35.159 1.67
C -78.657 -33.884 1.288
C -78.822 -35.377 1.744
C -80.201 -35.992 1.194
C -81.168 -35.12 -5.154
C -78.428 -33.819 -4.5
C -79.962 -35.945 -4.582
C -78.534 -35.311 -4.991
C -80.246 -37.44 -2.502
C -80.31 -37.453 -0.924
C -77.407 -36.205 -2.899
C -77.516 -36.242 -0.262
C -79.131 -38.264 -0.309
C -77.731 -37.658 -2.38
C -77.796 -37.677 -0.828
C -79.017 -38.237 -3.027
C -80.424 -37.456 1.696
C -77.581 -36.259 1.311
C -77.93 -37.674 1.896
C -79.2 -38.269 1.251
C -80.139 -37.397 -5.123
C -77.339 -36.18 -4.468
C -78.952 -38.208 -4.587
C -77.626 -37.598 -5.093
C -85.278 -35.457 -0.535
C -83.868 -34.869 -2.617
C -83.931 -34.882 -1.06
C -85.17 -35.433 -3.255
C -84.015 -34.915 1.643
C -85.325 -35.472 1.028
C -85.094 -35.42 -4.817
C -83.739 -34.856 -5.316
C -85.387 -36.884 -2.712
C -85.451 -36.898 -1.119
C -82.626 -35.698 -3.12
C -82.731 -35.717 -0.476
C -84.266 -37.782 -0.559
C -82.811 -37.172 -2.607
C -82.874 -37.184 -1.026
C -84.161 -37.76 -3.192
C -85.526 -36.925 1.51
C -82.782 -35.729 1.102
C -82.968 -37.2 1.574
C -84.316 -37.79 1.022
C -85.255 -36.865 -5.338
C -82.555 -35.685 -4.696
C -84.087 -37.74 -4.773
C -82.698 -37.146 -5.205
C -84.361 -39.243 -2.693
C -84.424 -39.257 -1.1
C -81.588 -38.043 -3.097
C -81.696 -38.064 -0.454
C -83.251 -40.102 -0.497
C -81.839 -39.506 -2.577
C -81.902 -39.519 -1.019
C -83.143 -40.078 -3.217
C -84.513 -39.255 1.529
C -81.755 -38.071 1.124
C -82.005 -39.519 1.682
C -83.306 -40.105 1.067
C -84.241 -39.194 -5.32
C -81.518 -38.021 -4.674
C -83.072 -40.052 -4.78
C -81.724 -39.457 -5.278
C -86.699 -37.484 -3.337
C -86.807 -37.509 -0.609
C -86.881 -38.931 -2.779
C -86.943 -38.945 -1.207
C -86.855 -37.519 0.96
C -87.027 -38.958 1.517
C -86.623 -37.465 -4.905
C -86.75 -38.894 -5.501
C -85.696 -39.795 -3.32
C -85.804 -39.819 -0.59
C -85.853 -39.824 0.979
C -85.622 -39.771 -4.888
C -71.861 -40.67 -0.181
C -70.551 -39.829 -2.262
C -70.592 -39.869 -0.667
C -71.795 -40.598 -2.85
C -70.677 -39.947 1.959
C -71.915 -40.72 1.408
C -71.766 -40.566 -4.441
C -70.5 -39.774 -4.891
H -68.422 -40.033 -0.371
H -68.372 -39.993 -2.474
H -68.508 -40.099 1.867
H -71.816 -42.163 3.031
H -69.302 -42.123 3.029
H -68.35 -39.965 -4.717
H -71.619 -41.942 -6.116
H -69.155 -41.919 -6.018
H -72.608 -42.55 -4.834
H -72.731 -42.734 1.679
H -72.664 -42.654 -0.479
H -72.627 -42.588 -2.672
H -67.116 -42.304 -0.411
H -67.081 -42.255 -2.52
H -67.183 -42.401 1.82
H -70.329 -44.269 3.047
H -67.072 -42.208 -4.753
H -70.453 -44.167 -6.11
H -71.364 -44.551 -4.672
H -71.477 -44.692 1.916
H -71.395 -44.601 -0.402
H -71.415 -44.546 -2.62
H -75.63 -31.269 3.143
H -75.463 -31.009 -5.872
H -77.368 -33.333 2.983
H -74.794 -33.586 3.098
H -77.017 -33.069 -5.978
H -74.496 -33.329 -5.924
H -76.234 -35.722 2.957
H -73.603 -35.769 3.071
H -75.914 -35.506 -5.998
H -73.28 -35.495 -5.939
H -71.282 -35.74 -0.305
H -71.203 -35.679 -2.414
H -71.399 -35.818 1.922
H -74.689 -37.96 3.017
H -72.124 -37.847 3.075
H -71.16 -35.63 -4.647
H -74.319 -37.661 -6.101
H -71.82 -37.587 -5.967
H -75.164 -38.431 -4.828
H -75.407 -38.625 1.6
H -75.308 -38.549 -0.498
H -75.222 -38.472 -2.697
H -69.83 -37.843 -0.332
H -69.76 -37.797 -2.435
H -69.935 -37.916 1.905
H -73.206 -40.054 3.033
H -69.718 -37.765 -4.677
H -72.939 -39.805 -6.108
H -73.921 -40.438 -4.832
H -74.096 -40.643 1.673
H -74.012 -40.561 -0.484
H -73.953 -40.49 -2.676
H -79.986 -33.111 2.871
H -79.605 -33.39 -6.293
H -81.476 -35.163 2.76
H -78.87 -35.38 2.833
H -81.132 -35.134 -6.244
H -78.472 -35.311 -6.08
H -80.477 -37.461 2.785
H -78.052 -37.61 2.977
H -80.097 -37.386 -6.213
H -77.617 -37.544 -6.181
H -81.771 -33.041 -5.063
H -79.718 -32.108 -5.238
H -79.178 -39.303 -0.622
H -76.995 -38.368 -2.678
H -77.087 -38.385 -0.462
H -79.09 -39.283 -2.742
H -77.175 -38.409 1.752
H -79.282 -39.293 1.609
H -78.999 -39.225 -4.973
H -76.913 -38.342 -4.833
H -81.98 -33.051 -0.705
H -79.837 -32.142 -2.864
H -79.96 -32.106 -0.648
H -81.882 -33.038 -2.827
H -79.988 -32.141 1.421
H -82.036 -33.087 1.532
H -84.057 -34.986 2.73
H -83.697 -34.905 -6.404
H -85.564 -36.931 2.6
H -83.01 -37.208 2.664
H -85.207 -36.85 -6.428
H -82.655 -37.135 -6.295
H -84.551 -39.263 2.619
H -82.094 -39.486 2.768
H -84.193 -39.181 -6.41
H -81.727 -39.402 -6.366
H -85.898 -34.802 -5.218
H -83.693 -33.799 -5.079
H -83.347 -41.14 -0.812
H -81.024 -40.162 -2.868
H -81.112 -40.181 -0.676
H -83.263 -41.122 -2.93
H -81.182 -40.197 1.486
H -83.433 -41.127 1.427
H -83.169 -41.067 -5.168
H -80.917 -40.138 -5.032
H -86.099 -34.823 -0.864
H -83.795 -33.83 -2.921
H -83.886 -33.848 -0.731
H -86.014 -34.803 -2.979
H -83.953 -33.853 1.433
H -86.16 -34.861 1.376
H -87.01 -38.941 2.606
H -86.648 -38.855 -6.585
H -70.683 -39.964 3.049
H -70.455 -39.731 -5.98
H -87.556 -36.873 -3.06
H -87.641 -36.892 -0.942
H -87.69 -36.908 1.306
H -87.428 -36.847 -5.304
H -87.911 -39.361 -0.93
H -87.824 -39.341 -3.139
H -87.994 -39.379 1.248
H -87.735 -39.317 -5.316
H -85.841 -40.834 -3.03
H -85.924 -40.853 -0.91
H -85.983 -40.846 1.338
H -85.723 -40.786 -5.275
H -73.433 -31.533 -4.61
H -73.451 -31.59 -2.382
H -73.502 -31.657 -0.277
H -73.585 -31.753 1.947
H -72.421 -33.624 -4.627
H -72.46 -33.678 -2.399
H -72.531 -33.749 -0.291
H -72.641 -33.838 1.932
C -78.786 -28.232 -2.125
C -78.816 -28.274 -0.566
C -76.054 -27.214 -2.621
C -76.114 -27.268 0.09
C -77.711 -29.216 -0
C -76.303 -28.666 -2.099
C -76.331 -28.7 -0.508
C -77.669 -29.155 -2.673
C -78.885 -28.34 2.14
C -76.165 -27.305 1.647
C -76.397 -28.765 2.128
C -77.759 -29.259 1.595
C -78.734 -28.178 -4.833
C -76.031 -27.189 -4.181
C -77.651 -29.133 -4.265
C -76.272 -28.62 -4.74
C -77.938 -30.585 -2.138
C -77.953 -30.618 -0.588
C -75.239 -29.645 -2.667
C -75.287 -29.708 0.041
C -77.977 -30.689 2.164
C -75.332 -29.758 1.599
C -77.915 -30.552 -4.829
C -75.22 -29.612 -4.226
C -81.87 -17.062 0.169
C -80.348 -16.77 -1.905
C -80.385 -16.81 -0.316
C -81.81 -16.994 -2.483
C -80.474 -16.904 2.306
C -81.928 -17.115 1.749
C -81.779 -16.957 -4.061
C -80.306 -16.696 -4.532
C -82.365 -18.453 -2.039
C -82.414 -18.484 -0.463
C -79.432 -17.855 -2.476
C -79.509 -17.935 0.228
C -81.429 -19.635 0.067
C -79.906 -19.226 -1.967
C -79.961 -19.269 -0.391
C -81.334 -19.571 -2.55
C -82.517 -18.558 2.142
C -79.568 -17.991 1.78
C -80.08 -19.35 2.244
C -81.494 -19.675 1.653
C -82.271 -18.399 -4.644
C -79.405 -17.812 -4.032
C -81.286 -19.538 -4.136
C -79.842 -19.16 -4.604
C -81.736 -21.058 -2.079
C -81.797 -21.093 -0.504
C -78.851 -20.194 -2.52
C -78.951 -20.272 0.183
C -80.658 -22.134 0.044
C -79.155 -21.603 -2.01
C -79.218 -21.647 -0.422
C -80.553 -22.065 -2.601
C -81.904 -21.146 2.099
C -79.025 -20.32 1.736
C -79.344 -21.724 2.2
C -80.734 -22.177 1.62
C -81.647 -20.998 -4.682
C -78.812 -20.153 -4.075
C -80.506 -22.028 -4.18
C -79.084 -21.537 -4.633
C -80.649 -23.55 -2.096
C -80.711 -23.594 -0.548
C -77.979 -22.485 -2.552
C -78.081 -22.555 0.156
C -79.585 -24.511 0.034
C -78.142 -23.929 -2.035
C -78.199 -23.97 -0.446
C -79.49 -24.441 -2.632
C -80.833 -23.662 2.145
C -78.156 -22.597 1.712
C -78.311 -24.04 2.191
C -79.656 -24.554 1.625
C -80.557 -23.474 -4.8
C -77.938 -22.449 -4.11
C -79.448 -24.404 -4.225
C -78.069 -23.869 -4.674
C -79.698 -25.893 -2.112
C -79.744 -25.937 -0.555
C -76.978 -24.823 -2.583
C -77.065 -24.882 0.129
C -79.834 -26.006 2.149
C -77.13 -24.921 1.686
C -79.625 -25.827 -4.817
C -76.943 -24.795 -4.141
C -86.4 -18.2 -0.111
C -84.932 -17.885 -2.199
C -84.99 -17.886 -0.649
C -86.293 -18.191 -2.834
C -85.07 -17.911 2.051
C -86.446 -18.219 1.449
C -86.228 -18.188 -4.396
C -84.819 -17.927 -4.954
C -86.789 -19.553 -2.278
C -86.848 -19.56 -0.699
C -83.808 -18.839 -2.672
C -83.904 -18.862 -0.032
C -85.834 -20.637 -0.139
C -84.257 -20.284 -2.176
C -84.315 -20.299 -0.59
C -85.734 -20.621 -2.759
C -86.934 -19.589 1.925
C -83.961 -18.886 1.539
C -84.416 -20.32 1.986
C -85.89 -20.646 1.439
C -86.683 -19.558 -4.898
C -83.741 -18.824 -4.247
C -85.664 -20.608 -4.337
C -84.142 -20.263 -4.75
C -86.23 -22.033 -2.265
C -86.291 -22.043 -0.686
C -83.209 -21.38 -2.668
C -83.314 -21.413 -0.031
C -85.294 -23.076 -0.082
C -83.809 -22.744 -2.157
C -83.872 -22.76 -0.604
C -85.185 -23.054 -2.8
C -86.396 -22.041 1.933
C -83.376 -21.428 1.542
C -83.994 -22.75 2.12
C -85.358 -23.077 1.478
C -86.126 -21.996 -4.886
C -83.142 -21.358 -4.238
C -85.12 -23.028 -4.361
C -83.704 -22.686 -4.871
C -90.768 -19.114 -0.269
C -89.277 -18.803 -2.354
C -89.336 -18.811 -0.796
C -90.666 -19.099 -2.989
C -89.417 -18.84 1.907
C -90.813 -19.127 1.294
C -90.594 -19.095 -4.552
C -89.156 -18.803 -5.054
C -91.162 -20.482 -2.451
C -91.222 -20.491 -0.859
C -88.222 -19.855 -2.864
C -88.321 -19.868 -0.22
C -90.232 -21.592 -0.307
C -88.691 -21.268 -2.357
C -88.751 -21.276 -0.776
C -90.133 -21.578 -2.94
C -91.294 -20.515 1.771
C -88.369 -19.878 1.358
C -88.839 -21.287 1.824
C -90.279 -21.597 1.275
C -91.036 -20.478 -5.078
C -88.154 -19.848 -4.44
C -90.06 -21.566 -4.52
C -88.582 -21.251 -4.956
C -90.617 -22.996 -2.445
C -90.678 -23.005 -0.852
C -87.666 -22.359 -2.856
C -87.768 -22.374 -0.213
C -89.693 -24.067 -0.257
C -88.196 -23.748 -2.341
C -88.257 -23.757 -0.783
C -89.588 -24.052 -2.977
C -90.758 -22.998 1.777
C -87.823 -22.377 1.365
C -88.351 -23.75 1.919
C -89.743 -24.066 1.307
C -90.498 -22.96 -5.073
C -87.596 -22.343 -4.433
C -89.517 -24.032 -4.54
C -88.081 -23.709 -5.042
C -92.568 -20.812 -3.075
C -92.67 -20.826 -0.346
C -93.028 -22.197 -2.52
C -93.087 -22.206 -0.949
C -92.714 -20.833 1.223
C -93.164 -22.214 1.776
C -92.494 -20.802 -4.642
C -92.9 -22.176 -5.242
C -92.036 -23.274 -3.069
C -92.139 -23.289 -0.34
C -92.185 -23.291 1.23
C -91.963 -23.259 -4.637
C -78.627 -26.858 0.019
C -77.187 -26.281 -2.066
C -77.229 -26.317 -0.471
C -78.558 -26.794 -2.651
C -77.317 -26.383 2.156
C -78.683 -26.901 1.608
C -78.53 -26.763 -4.241
C -77.136 -26.23 -4.695
H -75.13 -26.894 -0.184
H -75.08 -26.859 -2.287
H -75.218 -26.947 2.055
H -78.859 -28.337 3.23
H -76.384 -28.779 3.219
H -75.061 -26.832 -4.53
H -78.655 -28.137 -5.919
H -76.232 -28.591 -5.83
H -79.739 -28.546 -4.634
H -79.871 -28.719 1.879
H -79.799 -28.648 -0.279
H -79.757 -28.585 -2.472
H -74.287 -29.373 -0.231
H -74.251 -29.327 -2.339
H -74.363 -29.459 2.001
H -77.803 -30.683 3.239
H -74.24 -29.279 -4.573
H -77.943 -30.544 -5.919
H -78.905 -30.746 -4.476
H -79.018 -30.877 2.117
H -78.929 -30.798 -0.205
H -78.946 -30.735 -2.424
H -80.478 -16.955 3.397
H -80.268 -16.665 -5.622
H -82.585 -18.606 3.228
H -80.115 -19.38 3.334
H -82.219 -18.358 -5.732
H -79.799 -19.13 -5.694
H -81.949 -21.177 3.187
H -79.376 -21.741 3.291
H -81.618 -20.976 -5.77
H -79.036 -21.494 -5.723
H -77.105 -22.143 -0.097
H -77.023 -22.091 -2.207
H -77.227 -22.205 2.131
H -80.869 -23.67 3.234
H -78.328 -24.054 3.282
H -76.98 -22.043 -4.44
H -80.483 -23.415 -5.885
H -78.013 -23.829 -5.763
H -81.454 -24.009 -4.607
H -81.708 -24.179 1.817
H -81.603 -24.114 -0.281
H -81.511 -24.047 -2.479
H -76.089 -24.479 -0.136
H -76.019 -24.441 -2.239
H -76.198 -24.535 2.102
H -79.818 -26.007 3.239
H -75.979 -24.411 -4.481
H -79.539 -25.786 -5.903
H -80.621 -26.221 -4.625
H -80.808 -26.41 1.88
H -80.718 -26.339 -0.276
H -80.655 -26.273 -2.469
H -85.108 -17.89 3.14
H -84.806 -18.125 -6.026
H -86.974 -19.593 3.015
H -84.46 -20.322 3.076
H -86.651 -19.57 -5.989
H -84.086 -20.265 -5.839
H -86.444 -22.042 3.023
H -84.095 -22.673 3.202
H -86.086 -21.986 -5.976
H -83.69 -22.626 -5.959
H -86.867 -17.401 -4.79
H -84.661 -16.879 -4.917
H -85.546 -24.083 -0.401
H -83.227 -23.581 -2.464
H -83.314 -23.596 -0.247
H -85.46 -24.067 -2.521
H -83.399 -23.618 1.965
H -85.639 -24.068 1.831
H -85.367 -24.014 -4.752
H -83.147 -23.556 -4.623
H -87.057 -17.397 -0.432
H -84.769 -16.905 -2.578
H -84.873 -16.873 -0.363
H -86.967 -17.388 -2.555
H -84.919 -16.914 1.712
H -87.115 -17.438 1.804
H -89.469 -18.906 2.993
H -89.127 -18.856 -6.142
H -91.329 -20.517 2.861
H -88.879 -21.292 2.914
H -90.99 -20.468 -6.168
H -88.541 -21.244 -6.045
H -90.792 -23.003 2.867
H -88.428 -23.706 3.005
H -90.451 -22.953 -6.163
H -88.076 -23.651 -6.13
H -91.263 -18.33 -4.948
H -88.904 -17.776 -4.815
H -89.991 -25.064 -0.576
H -87.526 -24.55 -2.637
H -87.611 -24.563 -0.446
H -89.909 -25.053 -2.694
H -87.678 -24.577 1.718
H -90.067 -25.045 1.663
H -89.811 -25.007 -4.932
H -87.422 -24.536 -4.8
H -91.45 -18.329 -0.593
H -89.003 -17.796 -2.655
H -89.087 -17.808 -0.464
H -91.37 -18.318 -2.709
H -89.148 -17.81 1.699
H -91.51 -18.365 1.647
H -93.141 -22.204 2.865
H -92.796 -22.154 -6.327
H -77.323 -26.401 3.246
H -77.087 -26.194 -5.785
H -93.288 -20.046 -2.792
H -93.368 -20.057 -0.674
H -93.413 -20.072 1.574
H -93.164 -20.037 -5.036
H -94.117 -22.425 -0.669
H -94.033 -22.414 -2.879
H -94.196 -22.435 1.509
H -93.948 -22.4 -5.055
H -92.38 -24.266 -2.782
H -92.461 -24.277 -0.662
H -92.512 -24.269 1.586
H -92.261 -24.233 -5.027
H -78.388 -17.604 -4.372
H -78.41 -17.67 -2.145
H -78.47 -17.737 -0.036
H -78.568 -17.827 2.189
H -77.82 -19.839 -4.407
H -77.86 -19.895 -2.178
H -77.938 -19.96 -0.069
H -78.057 -20.035 2.155
C -82.86 -13.233 -1.832
C -82.9 -13.284 -0.275
C -79.963 -12.892 -2.324
C -80.035 -12.958 0.39
C -82.053 -14.474 0.274
C -80.556 -14.241 -1.82
C -80.59 -14.282 -0.23
C -81.999 -14.397 -2.396
C -82.987 -13.367 2.427
C -80.095 -12.999 1.947
C -80.671 -14.359 2.408
C -82.108 -14.522 1.868
C -82.801 -13.159 -4.536
C -79.937 -12.856 -3.884
C -81.979 -14.361 -3.989
C -80.519 -14.173 -4.462
C -82.585 -15.743 -1.88
C -82.608 -15.786 -0.33
C -79.741 -15.419 -2.404
C -79.799 -15.493 0.306
C -82.652 -15.875 2.409
C -79.853 -15.545 1.864
C -82.557 -15.686 -4.569
C -79.72 -15.377 -3.963
C -83.027 -1.692 0.627
C -81.399 -1.673 -1.42
C -81.468 -1.711 0.16
C -82.915 -1.635 -2.012
C -81.617 -1.792 2.787
C -83.122 -1.733 2.216
C -82.846 -1.607 -3.597
C -81.281 -1.599 -4.038
C -83.857 -2.892 -1.601
C -83.931 -2.921 -0.026
C -80.791 -2.964 -1.996
C -80.923 -3.036 0.7
C -83.248 -4.263 0.493
C -81.632 -4.192 -1.521
C -81.714 -4.231 0.056
C -83.112 -4.201 -2.118
C -84.079 -2.991 2.572
C -81.018 -3.084 2.249
C -81.879 -4.304 2.676
C -83.339 -4.3 2.075
C -83.719 -2.845 -4.201
C -80.725 -2.922 -3.546
C -83.039 -4.166 -3.7
C -81.525 -4.116 -4.144
C -83.882 -5.548 -1.676
C -83.963 -5.585 -0.103
C -80.86 -5.402 -2.085
C -81.003 -5.475 0.614
C -83.12 -6.872 0.434
C -81.519 -6.699 -1.604
C -81.602 -6.74 -0.018
C -82.981 -6.799 -2.207
C -84.103 -5.639 2.495
C -81.104 -5.518 2.166
C -81.768 -6.816 2.601
C -83.219 -6.914 2.007
C -83.756 -5.48 -4.276
C -80.799 -5.357 -3.639
C -82.918 -6.756 -3.784
C -81.419 -6.619 -4.227
C -83.45 -8.218 -1.724
C -83.53 -8.266 -0.182
C -80.609 -7.85 -2.165
C -80.743 -7.919 0.544
C -82.688 -9.445 0.386
C -81.14 -9.213 -1.674
C -81.212 -9.254 -0.085
C -82.568 -9.366 -2.277
C -83.691 -8.338 2.502
C -80.838 -7.96 2.1
C -81.355 -9.328 2.552
C -82.779 -9.489 1.975
C -83.342 -8.131 -4.42
C -80.555 -7.806 -3.724
C -82.516 -9.319 -3.869
C -81.052 -9.136 -4.315
C -83.151 -10.725 -1.782
C -83.211 -10.777 -0.226
C -80.25 -10.365 -2.243
C -80.357 -10.43 0.472
C -83.328 -10.859 2.473
C -80.436 -10.469 2.029
C -83.064 -10.642 -4.483
C -80.209 -10.326 -3.803
C -87.858 -1.775 0.294
C -86.325 -1.745 -1.779
C -86.395 -1.749 -0.228
C -87.725 -1.76 -2.425
C -86.506 -1.789 2.469
C -87.923 -1.803 1.854
C -87.646 -1.749 -3.988
C -86.198 -1.784 -4.544
C -88.517 -2.984 -1.891
C -88.591 -2.998 -0.313
C -85.387 -2.908 -2.254
C -85.513 -2.939 0.384
C -87.822 -4.263 0.238
C -86.172 -4.224 -1.784
C -86.246 -4.245 -0.196
C -87.697 -4.236 -2.379
C -88.707 -3.04 2.308
C -85.591 -2.967 1.954
C -86.374 -4.272 2.374
C -87.895 -4.279 1.815
C -88.394 -2.976 -4.509
C -85.297 -2.89 -3.829
C -87.613 -4.216 -3.956
C -86.03 -4.196 -4.348
C -88.496 -5.515 -1.91
C -88.571 -5.533 -0.332
C -85.389 -5.518 -2.283
C -85.523 -5.559 0.353
C -87.823 -6.755 0.264
C -86.291 -6.718 -1.798
C -86.367 -6.74 -0.245
C -87.69 -6.721 -2.456
C -88.699 -5.542 2.285
C -85.602 -5.576 1.927
C -86.513 -6.728 2.492
C -87.901 -6.763 1.825
C -88.367 -5.464 -4.53
C -85.306 -5.492 -3.853
C -87.612 -6.687 -4.016
C -86.16 -6.637 -4.528
C -92.372 -1.782 0.1
C -90.823 -1.745 -1.97
C -90.897 -1.762 -0.413
C -92.244 -1.75 -2.618
C -91.011 -1.813 2.288
C -92.435 -1.807 1.663
C -92.16 -1.739 -4.18
C -90.684 -1.734 -4.669
C -93.019 -3.01 -2.105
C -93.094 -3.029 -0.513
C -89.989 -2.978 -2.489
C -90.113 -3.006 0.152
C -92.349 -4.311 0.028
C -90.751 -4.272 -2.008
C -90.826 -4.289 -0.427
C -92.225 -4.282 -2.603
C -93.196 -3.075 2.114
C -90.178 -3.027 1.73
C -90.939 -4.318 2.17
C -92.411 -4.33 1.609
C -92.874 -2.995 -4.73
C -89.909 -2.964 -4.065
C -92.139 -4.263 -4.183
C -90.621 -4.242 -4.603
C -92.993 -5.58 -2.134
C -93.068 -5.599 -0.542
C -89.965 -5.539 -2.515
C -90.091 -5.568 0.125
C -92.321 -6.844 0.042
C -90.773 -6.801 -2.026
C -90.847 -6.818 -0.469
C -92.192 -6.812 -2.675
C -93.17 -5.614 2.085
C -90.161 -5.582 1.702
C -90.964 -6.83 2.231
C -92.385 -6.855 1.605
C -92.847 -5.534 -4.758
C -89.882 -5.515 -4.092
C -92.107 -6.786 -4.237
C -90.631 -6.748 -4.725
C -94.461 -3.045 -2.74
C -94.589 -3.077 -0.015
C -95.196 -4.318 -2.211
C -95.27 -4.337 -0.641
C -94.649 -3.099 1.553
C -95.375 -4.369 2.079
C -94.374 -3.029 -4.307
C -95.046 -4.286 -4.928
C -94.434 -5.564 -2.769
C -94.562 -5.596 -0.044
C -94.623 -5.611 1.524
C -94.347 -5.542 -4.336
C -82.368 -11.96 0.33
C -80.828 -11.724 -1.749
C -80.88 -11.765 -0.154
C -82.283 -11.881 -2.338
C -80.989 -11.842 2.474
C -82.438 -12.007 1.918
C -82.25 -11.838 -3.927
C -80.768 -11.653 -4.38
H -78.989 -12.828 0.117
H -78.932 -12.79 -1.991
H -79.09 -12.883 2.356
H -82.968 -13.387 3.517
H -80.666 -14.392 3.499
H -78.91 -12.741 -4.233
H -82.723 -13.125 -5.622
H -80.476 -14.14 -5.552
H -83.864 -13.275 -4.333
H -84.034 -13.494 2.159
H -83.943 -13.415 0.011
H -83.888 -13.335 -2.18
H -78.75 -15.383 0.033
H -78.705 -15.33 -2.078
H -78.841 -15.468 2.265
H -82.518 -15.922 3.489
H -78.691 -15.266 -4.311
H -82.574 -15.662 -5.658
H -83.572 -15.658 -4.233
H -83.706 -15.82 2.31
H -83.607 -15.75 0.039
H -83.604 -15.67 -2.175
H -81.628 -1.844 3.876
H -81.217 -1.579 -5.126
H -84.17 -3.039 3.657
H -81.937 -4.342 3.765
H -83.644 -2.811 -5.288
H -81.467 -4.08 -5.233
H -84.165 -5.674 3.582
H -81.816 -6.844 3.69
H -83.711 -5.448 -5.364
H -81.361 -6.57 -5.316
H -79.693 -7.765 0.3
H -79.587 -7.722 -1.815
H -79.844 -7.821 2.528
H -83.753 -8.358 3.59
H -81.384 -9.359 3.642
H -79.525 -7.659 -4.05
H -83.284 -8.081 -5.507
H -80.99 -9.093 -5.404
H -84.33 -8.436 -4.192
H -84.653 -8.626 2.143
H -84.518 -8.564 0.073
H -84.402 -8.489 -2.111
H -79.31 -10.283 0.212
H -79.225 -10.248 -1.898
H -79.439 -10.338 2.451
H -83.321 -10.883 3.562
H -79.18 -10.2 -4.141
H -82.977 -10.608 -5.569
H -84.128 -10.768 -4.29
H -84.371 -10.999 2.194
H -84.256 -10.921 0.047
H -84.174 -10.84 -2.142
H -86.555 -1.783 3.558
H -86.232 -2 -5.611
H -88.758 -3.049 3.397
H -86.429 -4.276 3.463
H -88.358 -2.98 -5.599
H -85.966 -4.199 -5.437
H -88.762 -5.547 3.374
H -86.619 -6.621 3.572
H -88.321 -5.448 -5.619
H -86.14 -6.536 -5.613
H -88.111 -0.841 -4.368
H -85.865 -0.772 -4.555
H -88.28 -7.683 -0.07
H -85.927 -7.659 -2.126
H -86.029 -7.683 0.109
H -88.177 -7.656 -2.194
H -86.133 -7.708 2.362
H -88.386 -7.677 2.16
H -88.059 -7.593 -4.422
H -85.831 -7.623 -4.335
H -88.339 -0.852 -0.017
H -86.007 -0.796 -2.148
H -86.101 -0.769 0.066
H -88.229 -0.84 -2.142
H -86.169 -0.826 2.155
H -88.426 -0.906 2.21
H -91.089 -1.887 3.372
H -90.66 -1.78 -5.757
H -93.243 -3.088 3.204
H -90.991 -4.331 3.259
H -92.82 -2.982 -5.819
H -90.571 -4.23 -5.692
H -93.218 -5.628 3.175
H -91.043 -6.786 3.317
H -92.793 -5.522 -5.848
H -90.609 -6.676 -5.812
H -92.66 -0.85 -4.567
H -90.228 -0.782 -4.417
H -92.811 -7.757 -0.294
H -90.28 -7.719 -2.331
H -90.383 -7.744 -0.141
H -92.71 -7.733 -2.409
H -90.471 -7.773 2.022
H -92.902 -7.755 1.944
H -92.588 -7.677 -4.645
H -90.158 -7.697 -4.495
H -92.882 -0.872 -0.215
H -90.348 -0.811 -2.254
H -90.453 -0.835 -0.064
H -92.782 -0.847 -2.33
H -90.537 -0.855 2.103
H -92.97 -0.927 2.022
H -95.366 -4.383 3.169
H -94.936 -4.273 -6.012
H -81.004 -11.877 3.564
H -80.715 -11.615 -5.469
H -95.019 -2.156 -2.451
H -95.119 -2.181 -0.334
H -95.188 -2.22 1.911
H -94.877 -2.141 -4.693
H -96.326 -4.352 -0.372
H -96.222 -4.326 -2.578
H -96.427 -4.378 1.799
H -96.12 -4.3 -4.747
H -94.973 -6.471 -2.5
H -95.072 -6.496 -0.384
H -95.141 -6.51 1.862
H -94.831 -6.432 -4.742
H -79.691 -2.995 -3.878
H -79.768 -3.06 -1.647
H -79.87 -3.115 0.449
H -80.021 -3.192 2.673
H -79.758 -5.308 -3.962
H -79.829 -5.374 -1.735
H -79.941 -5.425 0.375
H -80.1 -5.492 2.595
C -83.487 2.141 -1.341
C -83.498 2.133 0.209
C -80.458 2.123 -1.9
C -80.519 2.031 0.822
C -82.824 0.869 0.746
C -81.307 0.897 -1.369
C -81.362 0.857 0.236
C -82.753 0.912 -1.93
C -83.574 2.104 2.899
C -80.608 2.006 2.394
C -81.493 0.802 2.848
C -82.909 0.841 2.318
C -83.543 2.151 -4.029
C -80.736 2.235 -3.532
C -82.759 0.916 -3.511
C -81.3 0.915 -4.014
C -83.491 -0.316 -1.406
C -83.54 -0.339 0.136
C -80.57 -0.361 -1.899
C -80.708 -0.428 0.793
C -83.631 -0.408 2.874
C -80.807 -0.468 2.341
C -83.459 -0.3 -4.093
C -80.478 -0.319 -3.458
C -82.667 13.706 0.788
C -81.154 13.439 -1.3
C -81.191 13.431 0.29
C -82.608 13.722 -1.865
C -81.284 13.402 2.914
C -82.729 13.692 2.37
C -82.578 13.73 -3.444
C -81.113 13.464 -3.927
C -83.631 12.554 -1.4
C -83.675 12.554 0.177
C -80.68 12.095 -1.861
C -80.757 12.079 0.845
C -83.15 11.136 0.718
C -81.599 10.981 -1.33
C -81.649 10.976 0.246
C -83.064 11.141 -1.899
C -83.778 12.538 2.783
C -80.817 12.065 2.398
C -81.761 10.97 2.884
C -83.21 11.133 2.305
C -83.543 12.548 -4.008
C -80.656 12.106 -3.418
C -83.026 11.141 -3.486
C -81.548 10.989 -3.969
C -83.959 9.891 -1.403
C -84.005 9.885 0.171
C -80.955 9.703 -1.877
C -81.03 9.7 0.83
C -83.26 8.516 0.752
C -81.713 8.494 -1.332
C -81.747 8.485 0.256
C -83.203 8.527 -1.889
C -84.099 9.892 2.771
C -81.092 9.701 2.384
C -81.84 8.488 2.878
C -83.319 8.518 2.327
C -83.884 9.893 -4.005
C -80.935 9.703 -3.433
C -83.185 8.533 -3.466
C -81.693 8.497 -3.959
C -83.776 7.157 -1.322
C -83.791 7.141 0.223
C -80.909 7.268 -1.879
C -80.939 7.265 0.835
C -82.974 5.909 0.797
C -81.5 5.96 -1.32
C -81.498 5.945 0.272
C -82.974 5.927 -1.858
C -83.857 7.142 2.907
C -80.989 7.268 2.393
C -81.556 5.94 2.905
C -83.017 5.903 2.384
C -83.781 7.184 -4.004
C -80.918 7.264 -3.439
C -83.015 5.943 -3.446
C -81.558 5.982 -3.961
C -83.581 4.616 -1.295
C -83.568 4.599 0.251
C -80.684 4.741 -1.893
C -80.664 4.71 0.839
C -83.608 4.585 2.938
C -80.711 4.696 2.402
C -83.697 4.658 -3.973
C -80.78 4.75 -3.453
C -87.28 14.24 0.543
C -85.816 13.993 -1.556
C -85.863 14.019 -0.005
C -87.19 14.207 -2.184
C -85.93 14.03 2.698
C -87.322 14.238 2.103
C -87.135 14.188 -3.747
C -85.745 13.9 -4.326
C -88.141 13.123 -1.619
C -88.19 13.135 -0.039
C -85.118 12.699 -2.028
C -85.197 12.723 0.615
C -87.633 11.76 0.519
C -86.05 11.515 -1.521
C -86.094 11.523 0.066
C -87.553 11.741 -2.1
C -88.268 13.137 2.585
C -85.249 12.723 2.187
C -86.182 11.54 2.641
C -87.68 11.769 2.098
C -88.061 13.082 -4.24
C -85.058 12.686 -3.604
C -87.493 11.729 -3.679
C -85.949 11.489 -4.094
C -88.528 10.609 -1.605
C -88.575 10.616 -0.026
C -85.463 10.114 -2.007
C -85.544 10.12 0.627
C -88.005 9.284 0.572
C -86.509 9.056 -1.511
C -86.555 9.055 0.044
C -87.919 9.275 -2.143
C -88.655 10.651 2.591
C -85.595 10.131 2.201
C -86.641 9.097 2.754
C -88.052 9.305 2.133
C -88.436 10.61 -4.224
C -85.408 10.106 -3.578
C -87.867 9.277 -3.705
C -86.422 9.087 -4.235
C -91.652 15.02 0.41
C -90.164 14.753 -1.68
C -90.215 14.763 -0.123
C -91.563 15.005 -2.309
C -90.291 14.759 2.58
C -91.692 15.021 1.973
C -91.501 14.988 -3.872
C -90.064 14.716 -4.381
C -92.537 13.907 -1.771
C -92.589 13.916 -0.178
C -89.583 13.381 -2.197
C -89.666 13.399 0.447
C -92.08 12.52 0.368
C -90.54 12.244 -1.688
C -90.589 12.254 -0.107
C -91.996 12.505 -2.265
C -92.654 13.913 2.45
C -89.708 13.404 2.025
C -90.662 12.27 2.492
C -92.118 12.528 1.95
C -92.431 13.874 -4.398
C -89.526 13.367 -3.773
C -91.932 12.495 -3.846
C -90.446 12.228 -4.286
C -92.976 11.373 -1.771
C -93.026 11.382 -0.178
C -89.992 10.849 -2.191
C -90.075 10.864 0.451
C -92.503 10.025 0.412
C -91.006 9.762 -1.678
C -91.055 9.771 -0.119
C -92.416 10.01 -2.309
C -93.086 11.41 2.452
C -90.118 10.877 2.029
C -91.127 9.806 2.582
C -92.542 10.041 1.976
C -92.864 11.372 -4.399
C -89.932 10.843 -3.769
C -92.353 10.008 -3.872
C -90.901 9.766 -4.38
C -93.966 14.137 -2.387
C -94.054 14.151 0.34
C -94.911 13.024 -1.834
C -94.962 13.032 -0.262
C -94.092 14.156 1.909
C -95.026 13.045 2.461
C -93.9 14.125 -3.955
C -94.797 13.009 -4.556
C -94.399 11.655 -2.389
C -94.486 11.669 0.341
C -94.523 11.68 1.91
C -94.333 11.649 -3.958
C -82.77 3.368 0.788
C -81.25 3.4 -1.32
C -81.245 3.373 0.265
C -82.794 3.399 -1.853
C -81.326 3.344 2.909
C -82.82 3.353 2.383
C -82.923 3.428 -3.43
C -81.509 3.488 -3.957
H -83.539 2.077 3.988
H -81.523 0.769 3.939
H -80.02 2.473 -4.298
H -83.495 2.186 -5.118
H -81.285 0.884 -5.105
H -84.605 2.088 -3.799
H -84.633 2.143 2.651
H -84.544 2.147 0.515
H -84.528 2.143 -1.663
H -83.49 -0.473 3.952
H -83.494 -0.269 -5.183
H -84.446 -0.201 -3.717
H -84.667 -0.22 2.797
H -84.525 -0.191 0.5
H -84.484 -0.132 -1.7
H -81.293 13.365 4.005
H -81.078 13.467 -5.018
H -83.853 12.528 3.869
H -81.795 10.964 3.975
H -83.487 12.555 -5.096
H -81.51 10.989 -5.059
H -84.158 9.899 3.858
H -81.855 8.5 3.97
H -83.847 9.879 -5.093
H -81.666 8.504 -5.05
H -79.889 7.343 0.555
H -79.865 7.337 -1.573
H -79.975 7.36 2.785
H -83.834 7.173 3.995
H -81.55 5.952 3.996
H -79.892 7.303 -3.81
H -83.781 7.184 -5.093
H -81.545 5.993 -5.053
H -84.792 7.02 -3.704
H -84.883 6.946 2.662
H -84.802 6.967 0.54
H -84.783 6.977 -1.636
H -79.62 4.803 0.546
H -79.632 4.832 -1.627
H -79.699 4.781 2.796
H -83.554 4.591 4.027
H -79.774 4.776 -3.876
H -83.684 4.657 -5.063
H -84.752 4.618 -3.707
H -84.671 4.513 2.715
H -84.607 4.525 0.57
H -84.627 4.546 -1.595
H -85.951 14.07 3.787
H -85.83 13.682 -5.39
H -88.302 13.149 3.675
H -86.222 11.555 3.73
H -88.046 13.057 -5.33
H -85.901 11.462 -5.183
H -88.696 10.665 3.681
H -86.697 9.168 3.839
H -88.402 10.608 -5.314
H -86.407 9.196 -5.319
H -87.438 15.155 -4.139
H -85.219 14.819 -4.345
H -88.613 8.44 0.258
H -86.245 8.073 -1.844
H -86.307 8.064 0.371
H -88.547 8.434 -1.861
H -86.369 8.081 2.547
H -88.677 8.487 2.487
H -88.463 8.451 -4.091
H -86.2 8.059 -4.072
H -87.599 15.226 0.222
H -85.321 14.844 -1.951
H -85.396 14.926 0.272
H -87.519 15.202 -1.902
H -85.435 14.9 2.345
H -87.658 15.209 2.46
H -90.361 14.716 3.666
H -90.062 14.661 -5.469
H -92.684 13.922 3.541
H -90.698 12.279 3.582
H -92.389 13.871 -5.488
H -90.41 12.223 -5.377
H -93.117 11.417 3.542
H -91.179 9.876 3.668
H -92.822 11.367 -5.489
H -90.88 9.826 -5.467
H -91.835 15.95 -4.264
H -89.446 15.575 -4.142
H -93.157 9.215 0.094
H -90.685 8.77 -1.98
H -90.755 8.781 0.212
H -93.091 9.204 -2.026
H -90.809 8.789 2.379
H -93.209 9.255 2.332
H -92.995 9.217 -4.264
H -90.598 8.75 -4.147
H -91.991 16.005 0.09
H -89.536 15.586 -1.982
H -89.612 15.602 0.208
H -91.921 15.993 -2.024
H -89.661 15.617 2.372
H -92.052 15.987 2.33
H -94.999 13.045 3.55
H -94.698 12.996 -5.641
H -81.318 3.344 3.999
H -81.557 3.541 -5.051
H -94.343 15.117 -2.099
H -94.412 15.128 0.017
H -94.451 15.123 2.264
H -94.234 15.089 -4.344
H -95.997 13.217 0.022
H -95.925 13.206 -2.187
H -96.065 13.23 2.196
H -95.851 13.197 -4.363
H -95.092 10.867 -2.103
H -95.159 10.877 0.018
H -95.193 10.897 2.266
H -94.979 10.862 -4.349
H -79.635 11.939 -3.767
H -79.655 11.916 -1.538
H -79.716 11.902 0.573
H -79.818 11.881 2.799
H -79.903 9.639 -3.784
H -79.916 9.65 -1.554
H -79.975 9.65 0.562
H -80.077 9.658 2.787
C -82.325 17.612 -1.263
C -82.362 17.595 0.296
C -79.485 16.969 -1.783
C -79.545 16.955 0.931
C -81.95 16.2 0.858
C -80.484 15.893 -1.251
C -80.515 15.882 0.339
C -81.899 16.226 -1.814
C -82.437 17.577 3.001
C -79.596 16.951 2.489
C -80.589 15.865 2.979
C -82.003 16.19 2.453
C -82.275 17.629 -3.97
C -79.466 16.978 -3.343
C -81.886 16.234 -3.407
C -80.454 15.914 -3.894
C -82.898 15.167 -1.271
C -82.92 15.15 0.278
C -80.124 14.498 -1.822
C -80.181 14.476 0.889
C -82.968 15.11 3.022
C -80.236 14.462 2.448
C -82.882 15.181 -3.96
C -80.104 14.513 -3.381
C -78.69 28.619 1.041
C -77.282 28.049 -1.056
C -77.311 28.031 0.535
C -78.642 28.651 -1.612
C -77.4 27.989 3.155
C -78.746 28.601 2.624
C -78.615 28.669 -3.191
C -77.24 28.096 -3.681
C -79.898 27.74 -1.159
C -79.934 27.737 0.418
C -77.117 26.638 -1.633
C -77.191 26.603 1.069
C -79.74 26.234 0.939
C -78.264 25.748 -1.114
C -78.315 25.736 0.462
C -79.656 26.244 -1.679
C -80.028 27.721 3.024
C -77.25 26.582 2.622
C -78.426 25.725 3.096
C -79.796 26.231 2.525
C -79.82 27.739 -3.766
C -77.09 26.664 -3.189
C -79.617 26.249 -3.266
C -78.206 25.776 -3.75
C -80.809 25.225 -1.199
C -80.86 25.225 0.376
C -77.928 24.357 -1.677
C -78.024 24.338 1.027
C -80.482 23.729 0.911
C -78.957 23.348 -1.16
C -79.017 23.342 0.429
C -80.384 23.736 -1.735
C -80.947 25.231 2.98
C -78.094 24.332 2.581
C -79.136 23.338 3.052
C -80.551 23.73 2.488
C -80.732 25.234 -3.803
C -77.89 24.375 -3.231
C -80.343 23.746 -3.314
C -78.889 23.374 -3.783
C -81.283 22.552 -1.227
C -81.343 22.546 0.321
C -78.475 21.964 -1.712
C -78.572 21.953 0.997
C -80.912 21.157 0.894
C -79.407 20.85 -1.19
C -79.462 20.844 0.399
C -80.819 21.17 -1.773
C -81.455 22.549 3.014
C -78.641 21.954 2.554
C -79.57 20.841 3.038
C -80.979 21.158 2.485
C -81.191 22.571 -3.933
C -78.437 21.977 -3.271
C -80.781 21.181 -3.367
C -79.34 20.868 -3.83
C -81.794 20.073 -1.249
C -81.843 20.061 0.309
C -78.94 19.465 -1.746
C -79.021 19.458 0.967
C -81.933 20.049 3.013
C -79.082 19.457 2.525
C -81.722 20.092 -3.954
C -78.909 19.473 -3.305
C -83.098 30.175 0.812
C -81.73 29.63 -1.298
C -81.758 29.66 0.253
C -83.038 30.13 -1.914
C -81.799 29.677 2.953
C -83.126 30.179 2.373
C -82.999 30.103 -3.477
C -81.694 29.537 -4.061
C -84.195 29.269 -1.344
C -84.229 29.29 0.236
C -81.323 28.217 -1.778
C -81.38 28.245 0.865
C -83.971 27.832 0.788
C -82.487 27.261 -1.269
C -82.524 27.276 0.318
C -83.911 27.798 -1.833
C -84.284 29.304 2.862
C -81.421 28.251 2.437
C -82.588 27.306 2.895
C -84.004 27.849 2.367
C -84.142 29.217 -3.965
C -81.276 28.197 -3.354
C -83.865 27.776 -3.412
C -82.411 27.221 -3.844
C -85.1 26.895 -1.328
C -85.136 26.915 0.251
C -82.223 25.77 -1.769
C -82.298 25.793 0.869
C -84.868 25.502 0.848
C -83.473 24.964 -1.244
C -83.515 24.981 0.309
C -84.799 25.469 -1.871
C -85.191 26.965 2.872
C -82.338 25.81 2.443
C -83.578 25.05 3.036
C -84.904 25.53 2.41
C -85.022 26.878 -3.95
C -82.174 25.756 -3.339
C -84.749 25.46 -3.433
C -83.385 24.96 -3.958
C -87.24 31.829 0.717
C -85.849 31.273 -1.386
C -85.886 31.291 0.172
C -87.176 31.799 -2.004
C -85.94 31.297 2.876
C -87.267 31.834 2.281
C -87.13 31.772 -3.567
C -85.778 31.22 -4.088
C -88.349 30.919 -1.458
C -88.386 30.936 0.136
C -85.56 29.814 -1.909
C -85.619 29.846 0.736
C -88.166 29.468 0.677
C -86.727 28.895 -1.393
C -86.763 28.915 0.189
C -88.105 29.439 -1.957
C -88.431 30.941 2.766
C -85.647 29.857 2.315
C -86.812 28.941 2.79
C -88.19 29.481 2.259
C -88.27 30.868 -4.086
C -85.518 29.791 -3.486
C -88.055 29.417 -3.539
C -86.656 28.863 -3.993
C -89.288 28.524 -1.455
C -89.325 28.541 0.139
C -86.482 27.421 -1.902
C -86.544 27.454 0.742
C -89.085 27.108 0.724
C -87.687 26.556 -1.378
C -87.723 26.574 0.18
C -89.02 27.078 -1.998
C -89.358 28.576 2.769
C -86.573 27.473 2.32
C -87.767 26.618 2.883
C -89.108 27.128 2.288
C -89.197 28.503 -4.084
C -86.433 27.404 -3.48
C -88.969 27.064 -3.562
C -87.6 26.54 -4.081
C -89.708 31.427 -2.063
C -89.773 31.456 0.667
C -90.852 30.525 -1.502
C -90.89 30.541 0.07
C -89.796 31.465 2.236
C -90.929 30.561 2.796
C -89.658 31.404 -3.631
C -90.763 30.489 -4.225
C -90.629 29.082 -2.061
C -90.693 29.111 0.669
C -90.715 29.125 2.239
C -90.577 29.064 -3.63
C -81.419 18.674 0.875
C -79.915 18.366 -1.222
C -79.957 18.358 0.373
C -81.347 18.692 -1.795
C -80.047 18.348 3.002
C -81.476 18.667 2.465
C -81.322 18.703 -3.386
C -79.868 18.385 -3.853
H -78.519 16.726 0.648
H -78.474 16.73 -1.458
H -78.606 16.727 2.889
H -82.409 17.565 4.09
H -80.581 15.846 4.069
H -78.462 16.746 -3.701
H -82.198 17.621 -5.057
H -80.416 15.916 -4.984
H -83.316 17.871 -3.761
H -83.47 17.804 2.745
H -83.386 17.822 0.591
H -83.333 17.85 -1.603
H -79.161 14.216 0.61
H -79.118 14.231 -1.502
H -79.256 14.19 2.843
H -82.834 15.028 4.1
H -79.103 14.261 -3.736
H -82.912 15.201 -5.049
H -83.814 15.559 -3.597
H -83.94 15.527 2.949
H -83.835 15.538 0.66
H -83.826 15.594 -1.554
H -77.412 27.94 4.245
H -77.206 28.104 -4.771
H -80.101 27.713 4.111
H -78.459 25.714 4.187
H -79.764 27.748 -4.854
H -78.165 25.78 -4.84
H -80.988 25.224 4.068
H -79.161 23.337 4.143
H -80.708 25.242 -4.892
H -78.838 23.387 -4.873
H -77.534 21.754 0.732
H -77.458 21.759 -1.379
H -77.648 21.76 2.962
H -81.484 22.558 4.103
H -79.583 20.834 4.129
H -77.418 21.784 -3.612
H -81.103 22.584 -5.019
H -79.281 20.873 -4.919
H -82.234 22.623 -3.737
H -82.471 22.605 2.69
H -82.371 22.605 0.596
H -82.278 22.617 -1.603
H -77.987 19.253 0.692
H -77.926 19.251 -1.413
H -78.089 19.258 2.932
H -81.913 20.036 4.102
H -77.898 19.261 -3.656
H -81.639 20.082 -5.04
H -82.768 20.314 -3.751
H -82.969 20.254 2.751
H -82.873 20.265 0.597
H -82.804 20.287 -1.596
H -81.8 29.717 4.042
H -81.822 29.354 -5.128
H -84.304 29.319 3.953
H -82.611 27.326 3.985
H -84.138 29.193 -5.055
H -82.379 27.189 -4.933
H -85.221 26.987 3.962
H -83.607 25.172 4.119
H -84.996 26.868 -5.041
H -83.352 25.002 -5.047
H -83.099 31.114 -3.865
H -80.987 30.327 -4.065
H -85.638 24.802 0.536
H -83.456 23.945 -1.552
H -83.51 23.976 0.666
H -85.585 24.776 -1.585
H -83.566 23.998 2.885
H -85.68 24.858 2.769
H -85.504 24.777 -3.817
H -83.402 23.928 -3.707
H -83.207 31.208 0.496
H -81.068 30.361 -1.693
H -81.106 30.448 0.524
H -83.151 31.171 -1.628
H -81.13 30.423 2.595
H -83.248 31.197 2.733
H -86.008 31.265 3.963
H -85.795 31.168 -5.176
H -88.449 30.952 3.856
H -86.836 28.953 3.88
H -88.238 30.857 -5.176
H -86.63 28.852 -5.083
H -89.377 28.585 3.859
H -87.794 26.691 3.969
H -89.165 28.49 -5.174
H -87.576 26.592 -5.169
H -87.268 32.782 -3.956
H -84.996 31.934 -3.851
H -89.888 26.444 0.41
H -87.576 25.519 -1.682
H -87.627 25.544 0.511
H -89.839 26.421 -1.709
H -87.664 25.558 2.674
H -89.915 26.489 2.65
H -89.758 26.418 -3.948
H -87.507 25.484 -3.847
H -87.378 32.861 0.401
H -85.067 31.961 -1.692
H -85.121 31.988 0.5
H -87.326 32.839 -1.716
H -85.149 32.009 2.665
H -87.423 32.852 2.642
H -90.892 30.549 3.885
H -90.676 30.456 -5.311
H -80.053 18.335 4.093
H -79.818 18.388 -4.943
H -89.881 32.462 -1.772
H -89.931 32.484 0.347
H -89.953 32.483 2.595
H -89.796 32.415 -4.018
H -91.865 30.927 0.363
H -91.813 30.904 -1.847
H -91.913 30.949 2.542
H -91.758 30.882 -4.026
H -91.462 28.446 -1.769
H -91.512 28.467 0.352
H -91.524 28.489 2.6
H -91.369 28.421 -4.016
H -76.129 26.282 -3.542
H -76.158 26.231 -1.314
H -76.218 26.199 0.792
H -76.321 26.165 3.017
H -76.894 24.091 -3.575
H -76.933 24.057 -1.347
H -77.011 24.037 0.762
H -77.127 24.029 2.988
C -77.539 32.375 -0.97
C -77.572 32.35 0.589
C -74.896 31.161 -1.508
C -74.947 31.136 1.204
C -77.457 30.896 1.136
C -76.097 30.309 -0.983
C -76.123 30.287 0.608
C -77.413 30.938 -1.536
C -77.638 32.322 3.297
C -74.992 31.128 2.761
C -76.188 30.258 3.244
C -77.504 30.881 2.732
C -77.493 32.406 -3.678
C -74.879 31.18 -3.068
C -77.402 30.959 -3.129
C -76.071 30.349 -3.624
C -78.612 30.114 -0.999
C -78.63 30.085 0.55
C -76.047 28.871 -1.569
C -76.096 28.831 1.139
C -78.668 30.022 3.3
C -76.146 28.811 2.698
C -78.601 30.151 -3.691
C -76.027 28.898 -3.128
C -71.799 42.427 1.366
C -70.535 41.6 -0.738
C -70.562 41.583 0.853
C -71.753 42.457 -1.288
C -70.649 41.552 3.473
C -71.852 42.416 2.948
C -71.729 42.473 -2.867
C -70.494 41.645 -3.363
C -73.161 41.807 -0.832
C -73.192 41.806 0.745
C -70.65 40.186 -1.318
C -70.721 40.157 1.384
C -73.293 40.292 1.262
C -71.946 39.534 -0.797
C -71.994 39.527 0.779
C -73.217 40.294 -1.356
C -73.28 41.801 3.351
C -70.779 40.143 2.937
C -72.097 39.528 3.413
C -73.344 40.295 2.848
C -73.093 41.799 -3.44
C -70.622 40.211 -2.874
C -73.182 40.297 -2.942
C -71.891 39.559 -3.433
C -74.544 39.52 -0.875
C -74.59 39.523 0.701
C -71.889 38.106 -1.364
C -71.98 38.095 1.34
C -74.509 37.978 1.231
C -73.094 37.315 -0.847
C -73.149 37.312 0.742
C -74.419 37.978 -1.415
C -74.667 39.536 3.305
C -72.046 38.097 2.893
C -73.26 37.32 3.364
C -74.572 37.986 2.808
C -74.474 39.522 -3.478
C -71.852 38.122 -2.918
C -74.379 37.987 -2.994
C -73.029 37.338 -3.47
C -75.53 36.993 -0.908
C -75.585 36.99 0.64
C -72.895 35.863 -1.406
C -72.984 35.858 1.302
C -75.434 35.54 1.205
C -74.027 34.951 -0.887
C -74.077 34.946 0.703
C -75.348 35.55 -1.462
C -75.687 37 3.335
C -73.049 35.865 2.859
C -74.176 34.948 3.341
C -75.496 35.543 2.797
C -75.442 37.008 -3.615
C -72.858 35.876 -2.965
C -75.311 35.563 -3.056
C -73.963 34.971 -3.526
C -76.52 34.669 -0.94
C -76.565 34.654 0.618
C -73.849 33.501 -1.453
C -73.921 33.492 1.259
C -76.647 34.64 3.323
C -73.977 33.494 2.817
C -76.452 34.693 -3.646
C -73.821 33.513 -3.012
C -75.816 44.816 1.155
C -74.589 44.02 -0.961
C -74.605 44.05 0.59
C -75.775 44.768 -1.571
C -74.633 44.067 3.29
C -75.837 44.821 2.716
C -75.747 44.739 -3.134
C -74.581 43.93 -3.725
C -77.075 44.149 -0.999
C -77.1 44.172 0.581
C -74.467 42.556 -1.445
C -74.509 42.586 1.198
C -77.131 42.689 1.129
C -75.794 41.845 -0.934
C -75.821 41.862 0.653
C -77.087 42.652 -1.492
C -77.142 44.189 3.208
C -74.543 42.595 2.77
C -75.871 41.896 3.231
C -77.155 42.708 2.709
C -77.042 44.095 -3.62
C -74.429 42.532 -3.021
C -77.051 42.626 -3.071
C -75.735 41.799 -3.509
C -78.427 41.998 -0.985
C -78.455 42.02 0.595
C -75.827 40.332 -1.438
C -75.888 40.361 1.2
C -78.467 40.58 1.187
C -77.21 39.786 -0.911
C -77.243 39.805 0.642
C -78.413 40.542 -1.532
C -78.491 42.072 3.216
C -75.919 40.38 2.774
C -77.283 39.875 3.368
C -78.491 40.61 2.749
C -78.363 41.974 -3.607
C -75.787 40.314 -3.009
C -78.371 40.529 -3.094
C -77.133 39.773 -3.626
C -79.553 47.251 1.077
C -78.305 46.439 -1.032
C -78.332 46.46 0.526
C -79.505 47.217 -1.644
C -78.374 46.469 3.23
C -79.573 47.258 2.642
C -79.471 47.185 -3.207
C -78.255 46.381 -3.734
C -80.826 46.582 -1.095
C -80.854 46.603 0.499
C -78.309 44.954 -1.558
C -78.352 44.989 1.087
C -80.923 45.118 1.036
C -79.632 44.28 -1.04
C -79.658 44.301 0.542
C -80.878 45.084 -1.598
C -80.887 46.61 3.129
C -78.372 45.001 2.666
C -79.693 44.329 3.143
C -80.939 45.131 2.619
C -80.767 46.524 -3.724
C -78.277 44.926 -3.135
C -80.838 45.058 -3.18
C -79.577 44.241 -3.64
C -82.216 44.418 -1.093
C -82.243 44.438 0.501
C -79.681 42.787 -1.552
C -79.728 42.824 1.092
C -82.287 42.984 1.082
C -81.031 42.174 -1.026
C -81.058 42.195 0.533
C -82.239 42.949 -1.64
C -82.26 44.472 3.131
C -79.748 42.844 2.67
C -81.084 42.239 3.235
C -82.301 43.004 2.646
C -82.139 44.386 -3.723
C -79.642 42.765 -3.131
C -82.196 42.929 -3.204
C -80.958 42.148 -3.729
C -82.061 47.349 -1.694
C -82.109 47.383 1.035
C -83.358 46.687 -1.13
C -83.386 46.706 0.442
C -82.125 47.392 2.605
C -83.411 46.727 3.167
C -82.021 47.32 -3.263
C -83.286 46.641 -3.855
C -83.424 45.23 -1.694
C -83.472 45.264 1.037
C -83.485 45.278 2.607
C -83.381 45.206 -3.263
C -76.427 33.206 1.173
C -75.025 32.615 -0.934
C -75.062 32.603 0.662
C -76.362 33.232 -1.498
C -75.143 32.589 3.289
C -76.479 33.199 2.763
C -76.338 33.251 -3.088
C -74.982 32.645 -3.564
H -73.991 30.703 0.914
H -73.955 30.715 -1.189
H -74.067 30.703 3.154
H -77.606 32.292 4.386
H -76.178 30.226 4.335
H -73.946 30.747 -3.432
H -77.421 32.392 -4.765
H -76.034 30.354 -4.715
H -78.461 32.857 -3.463
H -78.604 32.758 3.052
H -78.526 32.78 0.893
H -78.477 32.82 -1.301
H -75.156 28.361 0.852
H -75.121 28.391 -1.257
H -75.247 28.33 3.085
H -78.535 29.892 4.374
H -75.104 28.442 -3.49
H -78.625 30.188 -4.779
H -79.434 30.711 -3.325
H -79.536 30.629 3.262
H -79.443 30.645 0.946
H -79.434 30.725 -1.271
H -70.666 41.503 4.564
H -70.462 41.649 -4.454
H -73.349 41.804 4.439
H -72.128 39.521 4.504
H -73.039 41.8 -4.528
H -71.854 39.559 -4.523
H -74.705 39.535 4.393
H -73.281 37.32 4.455
H -74.453 39.529 -4.567
H -72.978 37.345 -4.56
H -72.006 35.461 1.034
H -71.937 35.461 -1.077
H -72.11 35.479 3.263
H -75.706 37.008 4.424
H -74.186 34.937 4.432
H -71.898 35.488 -3.31
H -75.357 37.009 -4.701
H -73.908 34.971 -4.616
H -76.453 37.263 -3.412
H -76.674 37.258 3.02
H -76.581 37.25 0.921
H -76.494 37.255 -1.279
H -72.95 33.087 0.979
H -72.898 33.086 -1.125
H -73.042 33.098 3.219
H -76.623 34.614 4.412
H -72.874 33.104 -3.367
H -76.375 34.674 -4.733
H -77.432 35.119 -3.437
H -77.623 35.05 3.071
H -77.533 35.059 0.912
H -77.468 35.084 -1.281
H -74.622 44.104 4.379
H -74.747 43.777 -4.791
H -77.156 44.204 4.298
H -75.887 41.917 4.321
H -77.046 44.074 -4.711
H -75.713 41.764 -4.599
H -78.511 42.096 4.306
H -77.284 39.996 4.451
H -78.343 41.962 -4.698
H -77.096 39.812 -4.714
H -75.648 45.751 -3.52
H -73.733 44.566 -3.734
H -79.36 40.046 0.877
H -77.395 38.784 -1.222
H -77.433 38.817 0.995
H -79.319 40.016 -1.245
H -77.477 38.842 3.211
H -79.383 40.102 3.109
H -79.247 40.008 -3.477
H -77.353 38.764 -3.378
H -75.721 45.851 0.842
H -73.799 44.609 -1.359
H -73.812 44.696 0.859
H -75.681 45.811 -1.283
H -73.832 44.668 2.929
H -75.756 45.843 3.079
H -78.444 46.448 4.318
H -78.285 46.335 -4.822
H -80.9 46.621 4.22
H -79.71 44.343 4.234
H -80.741 46.51 -4.814
H -79.557 44.228 -4.73
H -82.275 44.482 4.222
H -81.093 42.314 4.322
H -82.114 44.37 -4.813
H -80.927 42.198 -4.817
H -79.408 48.204 -3.593
H -77.347 46.927 -3.499
H -83.207 42.491 0.77
H -81.127 41.136 -1.332
H -81.165 41.165 0.861
H -83.169 42.464 -1.349
H -81.192 41.18 3.024
H -83.217 42.535 3.01
H -83.098 42.451 -3.589
H -81.072 41.094 -3.497
H -79.486 48.292 0.764
H -77.404 46.961 -1.339
H -77.444 46.992 0.852
H -79.447 48.265 -1.353
H -77.46 47.012 3.018
H -79.525 48.286 3.005
H -83.375 46.705 4.256
H -83.211 46.594 -4.941
H -75.147 32.568 4.379
H -74.934 32.648 -4.654
H -82.026 48.397 -1.401
H -82.064 48.423 0.718
H -82.078 48.42 2.966
H -81.96 48.339 -3.647
H -84.266 47.275 0.738
H -84.227 47.248 -1.472
H -84.302 47.301 2.918
H -84.184 47.221 -3.65
H -84.364 44.768 -1.4
H -84.402 44.794 0.722
H -84.402 44.812 2.97
H -84.285 44.732 -3.647
H -69.755 39.65 -3.231
H -69.787 39.599 -1.004
H -69.846 39.572 1.103
H -69.947 39.553 3.328
H -70.931 37.65 -3.267
H -70.971 37.617 -1.038
H -71.045 37.604 1.071
H -71.154 37.611 3.296
C -69.95 45.893 -0.645
C -69.982 45.872 0.914
C -67.594 44.191 -1.196
C -67.639 44.171 1.517
C -70.148 44.421 1.459
C -68.935 43.587 -0.667
C -68.959 43.567 0.924
C -70.106 44.46 -1.213
C -70.043 45.851 3.621
C -67.68 44.169 3.074
C -69.019 43.545 3.561
C -70.191 44.412 3.055
C -69.909 45.921 -3.354
C -67.579 44.21 -2.755
C -70.096 44.482 -2.806
C -68.91 43.627 -3.308
C -71.439 43.883 -0.672
C -71.456 43.854 0.877
C -69.165 42.168 -1.255
C -69.212 42.131 1.454
C -71.496 43.793 3.628
C -69.261 42.117 3.013
C -71.43 43.925 -3.364
C -69.146 42.195 -2.814
C -62.365 54.628 1.679
C -61.294 53.579 -0.431
C -61.318 53.563 1.159
C -62.325 54.656 -0.975
C -61.399 53.542 3.781
C -62.414 54.624 3.262
C -62.304 54.67 -2.554
C -61.254 53.621 -3.057
C -63.828 54.292 -0.516
C -63.853 54.294 1.061
C -61.681 52.215 -1.014
C -61.748 52.194 1.689
C -64.244 52.828 1.577
C -63.078 51.827 -0.489
C -63.121 51.826 1.088
C -64.179 52.821 -1.042
C -63.931 54.301 3.668
C -61.801 52.187 3.241
C -63.213 51.842 3.722
C -64.289 52.838 3.163
C -63.773 54.275 -3.125
C -61.655 52.238 -2.57
C -64.15 52.82 -2.629
C -63.029 51.846 -3.125
C -65.63 52.32 -0.556
C -65.669 52.329 1.019
C -63.301 50.417 -1.057
C -63.383 50.419 1.647
C -65.887 50.798 1.548
C -64.635 49.876 -0.536
C -64.684 49.881 1.053
C -65.807 50.785 -1.099
C -65.732 52.353 3.624
C -63.442 50.43 3.201
C -64.782 49.905 3.676
C -65.942 50.815 3.126
C -65.57 52.313 -3.16
C -63.267 50.429 -2.612
C -65.773 50.789 -2.678
C -64.575 49.89 -3.16
C -67.087 50.034 -0.588
C -67.137 50.039 0.961
C -64.722 48.414 -1.097
C -64.802 48.422 1.611
C -67.267 48.586 1.523
C -66.008 47.74 -0.574
C -66.053 47.742 1.016
C -67.19 48.585 -1.144
C -67.225 50.064 3.656
C -64.858 48.438 3.168
C -66.139 47.758 3.654
C -67.322 48.599 3.116
C -67.008 50.037 -3.295
C -64.689 48.423 -2.656
C -67.157 48.593 -2.738
C -65.951 47.751 -3.214
C -68.508 47.946 -0.618
C -68.55 47.937 0.941
C -66.115 46.284 -1.143
C -66.178 46.284 1.57
C -68.623 47.934 3.646
C -66.227 46.293 3.128
C -68.446 47.961 -3.324
C -66.09 46.293 -2.702
C -65.831 57.76 1.48
C -64.795 56.741 -0.642
C -64.798 56.772 0.909
C -65.812 57.708 -1.246
C -64.809 56.789 3.608
C -65.844 57.766 3.042
C -65.796 57.677 -2.809
C -64.816 56.655 -3.408
C -67.206 57.356 -0.667
C -67.219 57.381 0.913
C -64.964 55.282 -1.126
C -64.989 55.317 1.518
C -67.538 55.932 1.46
C -66.402 54.844 -0.61
C -66.419 54.864 0.978
C -67.513 55.891 -1.162
C -67.245 57.401 3.539
C -65.014 55.329 3.09
C -66.451 54.903 3.556
C -67.551 55.953 3.039
C -67.194 57.301 -3.289
C -64.938 55.254 -2.703
C -67.488 55.861 -2.741
C -66.363 54.791 -3.185
C -68.953 55.512 -0.649
C -68.969 55.537 0.93
C -66.732 53.368 -1.114
C -66.776 53.404 1.524
C -69.261 54.125 1.521
C -68.193 53.102 -0.583
C -68.215 53.125 0.971
C -69.227 54.082 -1.198
C -68.984 55.59 3.551
C -66.797 53.427 3.098
C -68.231 53.198 3.697
C -69.273 54.157 3.083
C -68.905 55.48 -3.272
C -66.702 53.345 -2.685
C -69.194 54.063 -2.76
C -68.13 53.079 -3.297
C -69.014 60.881 1.422
C -67.959 59.843 -0.693
C -67.975 59.866 0.865
C -68.984 60.843 -1.299
C -68.004 59.879 3.57
C -69.026 60.889 2.987
C -68.963 60.808 -2.862
C -67.931 59.781 -3.395
C -70.402 60.48 -0.745
C -70.419 60.503 0.849
C -68.258 58.388 -1.221
C -68.283 58.427 1.425
C -70.777 59.06 1.385
C -69.685 57.987 -0.697
C -69.7 58.011 0.885
C -70.75 59.022 -1.249
C -70.44 60.511 3.479
C -68.293 58.44 3.004
C -69.718 58.041 3.486
C -70.784 59.073 2.968
C -70.366 60.416 -3.374
C -68.239 58.358 -2.798
C -70.723 58.991 -2.831
C -69.649 57.943 -3.298
C -72.191 58.631 -0.74
C -72.207 58.654 0.854
C -70.029 56.534 -1.211
C -70.057 56.575 1.434
C -72.534 57.236 1.435
C -71.471 56.198 -0.68
C -71.487 56.221 0.879
C -72.505 57.197 -1.287
C -72.207 58.686 3.485
C -70.066 56.596 3.012
C -71.493 56.265 3.582
C -72.538 57.256 2.999
C -72.133 58.59 -3.369
C -70.002 56.508 -2.79
C -72.473 57.172 -2.852
C -71.415 56.163 -3.383
C -71.463 61.476 -1.338
C -71.494 61.514 1.392
C -72.864 61.081 -0.77
C -72.881 61.103 0.803
C -71.502 61.523 2.961
C -72.891 61.123 3.529
C -71.437 61.443 -2.907
C -72.813 61.027 -3.494
C -73.217 59.667 -1.334
C -73.247 59.704 1.397
C -73.251 59.718 2.967
C -73.186 59.638 -2.903
C -68.691 46.489 1.493
C -67.438 45.642 -0.619
C -67.471 45.633 0.976
C -68.632 46.507 -1.177
C -67.543 45.631 3.604
C -68.738 46.488 3.083
C -68.611 46.524 -2.768
C -67.399 45.668 -3.25
H -66.786 43.562 1.223
H -66.756 43.572 -0.881
H -66.853 43.573 3.463
H -70.013 45.814 4.71
H -69.011 43.509 4.652
H -66.749 43.605 -3.124
H -69.845 45.895 -4.441
H -68.877 43.627 -4.399
H -70.77 46.55 -3.134
H -70.907 46.466 3.381
H -70.834 46.477 1.222
H -70.786 46.512 -0.972
H -68.383 41.489 1.162
H -68.349 41.517 -0.946
H -68.47 41.47 3.395
H -71.385 43.636 4.701
H -68.33 41.569 -3.18
H -71.452 43.969 -4.452
H -72.137 44.634 -2.992
H -72.231 44.556 3.599
H -72.143 44.56 1.278
H -72.127 44.644 -0.939
H -61.421 53.493 4.871
H -61.226 53.621 -4.148
H -63.996 54.315 4.756
H -63.24 51.839 4.813
H -63.722 54.267 -4.213
H -62.996 51.84 -4.215
H -65.766 52.357 4.712
H -64.799 49.907 4.767
H -65.551 52.317 -4.25
H -64.528 49.89 -4.25
H -63.921 47.843 1.339
H -63.86 47.834 -0.772
H -64.011 47.877 3.568
H -67.238 50.073 4.745
H -66.148 47.748 4.745
H -63.824 47.857 -3.006
H -66.928 50.023 -4.382
H -65.9 47.743 -4.304
H -67.948 50.484 -3.088
H -68.144 50.51 3.346
H -68.061 50.488 1.246
H -67.983 50.48 -0.955
H -65.305 45.699 1.286
H -65.261 45.692 -0.818
H -65.385 45.725 3.526
H -68.601 47.903 4.735
H -65.242 45.709 -3.061
H -68.378 47.93 -4.411
H -69.324 48.569 -3.111
H -69.502 48.525 3.397
H -69.42 48.521 1.239
H -69.359 48.537 -0.955
H -64.783 56.824 4.697
H -65.02 56.536 -4.472
H -67.251 57.418 4.63
H -66.458 54.925 4.646
H -67.208 57.283 -4.38
H -66.353 54.753 -4.275
H -68.995 55.616 4.642
H -68.205 53.314 4.78
H -68.892 55.466 -4.363
H -68.09 53.112 -4.386
H -65.501 58.65 -3.195
H -63.86 57.112 -3.431
H -70.243 53.778 1.214
H -68.571 52.157 -0.894
H -68.594 52.193 1.323
H -70.218 53.744 -0.908
H -68.623 52.222 3.539
H -70.246 53.834 3.447
H -70.156 53.725 -3.14
H -68.542 52.132 -3.049
H -65.536 58.757 1.167
H -63.909 57.165 -1.046
H -63.893 57.253 1.171
H -65.513 58.712 -0.957
H -63.908 57.221 3.24
H -65.562 58.751 3.405
H -68.072 59.87 4.657
H -67.974 59.744 -4.483
H -70.446 60.523 4.57
H -69.728 58.056 4.577
H -70.347 60.399 -4.465
H -69.636 57.928 -4.388
H -72.214 58.697 4.576
H -71.483 56.338 4.669
H -72.115 58.571 -4.46
H -71.379 56.207 -4.471
H -68.703 61.795 -3.248
H -66.934 60.137 -3.163
H -73.534 56.934 1.126
H -71.77 55.2 -0.986
H -71.793 55.232 1.207
H -73.511 56.904 -0.994
H -71.808 55.248 3.371
H -73.526 56.976 3.367
H -73.453 56.882 -3.233
H -71.734 55.152 -3.152
H -68.744 61.889 1.109
H -66.974 60.178 -1.003
H -66.999 60.213 1.188
H -68.72 61.859 -1.007
H -67.001 60.232 3.353
H -68.775 61.887 3.351
H -72.855 61.093 4.617
H -72.752 60.969 -4.581
H -67.548 45.609 4.694
H -67.356 45.663 -4.34
H -71.222 62.496 -1.044
H -71.246 62.526 1.075
H -71.251 62.522 3.323
H -71.177 62.431 -3.291
H -73.631 61.834 1.104
H -73.606 61.804 -1.107
H -73.652 61.862 3.283
H -73.578 61.773 -3.286
H -74.229 59.399 -1.037
H -74.252 59.428 1.085
H -74.24 59.442 3.334
H -74.168 59.352 -3.284
H -60.915 51.521 -2.932
H -60.948 51.471 -0.703
H -61.004 51.451 1.402
H -61.099 51.446 3.629
H -62.457 49.787 -2.964
H -62.495 49.758 -0.735
H -62.563 49.755 1.374
H -62.661 49.779 3.599
C -59.899 57.679 -0.332
C -59.928 57.659 1.227
C -57.916 55.556 -0.897
C -57.954 55.537 1.816
C -60.364 56.266 1.771
C -59.344 55.219 -0.363
C -59.365 55.199 1.228
C -60.326 56.304 -0.903
C -59.981 57.644 3.935
C -57.988 55.538 3.374
C -59.418 55.183 3.866
C -60.403 56.261 3.367
C -59.865 57.705 -3.042
C -57.905 55.575 -2.457
C -60.32 56.328 -2.496
C -59.323 55.261 -3.005
C -61.741 55.992 -0.356
C -61.757 55.962 1.193
C -59.844 53.873 -0.953
C -59.886 53.838 1.756
C -61.797 55.901 3.948
C -59.931 53.83 3.315
C -61.736 56.039 -3.048
C -59.825 53.899 -2.512
C -50.678 64.692 1.961
C -49.878 63.427 -0.153
C -49.9 63.415 1.437
C -50.644 64.711 -0.689
C -49.968 63.414 4.061
C -50.717 64.697 3.542
C -50.628 64.729 -2.268
C -49.844 63.47 -2.781
C -52.198 64.687 -0.214
C -52.218 64.69 1.363
C -50.559 62.191 -0.734
C -50.616 62.179 1.973
C -52.911 63.337 1.877
C -51.998 62.118 -0.198
C -52.032 62.122 1.378
C -52.861 63.325 -0.742
C -52.277 64.706 3.969
C -50.662 62.184 3.527
C -52.106 62.152 4.018
C -52.946 63.352 3.465
C -52.16 64.673 -2.821
C -50.537 62.213 -2.29
C -52.839 63.326 -2.33
C -51.959 62.137 -2.839
C -54.382 63.133 -0.25
C -54.412 63.145 1.326
C -52.509 60.792 -0.77
C -52.576 60.802 1.938
C -54.944 61.688 1.853
C -53.919 60.538 -0.241
C -53.958 60.548 1.348
C -54.881 61.67 -0.795
C -54.459 63.172 3.931
C -52.623 60.822 3.493
C -54.037 60.584 3.975
C -54.987 61.712 3.431
C -54.336 63.126 -2.855
C -52.482 60.802 -2.325
C -54.854 61.673 -2.374
C -53.871 60.55 -2.867
C -56.285 61.188 -0.279
C -56.325 61.198 1.27
C -54.295 59.129 -0.806
C -54.359 59.143 1.905
C -56.739 59.796 1.829
C -55.683 58.724 -0.276
C -55.719 58.73 1.314
C -56.676 59.788 -0.838
C -56.395 61.232 3.964
C -54.404 59.166 3.463
C -55.79 58.755 3.954
C -56.784 59.815 3.422
C -56.222 61.187 -2.985
C -54.269 59.136 -2.365
C -56.65 59.796 -2.432
C -55.637 58.733 -2.918
C -58.09 59.417 -0.307
C -58.126 59.412 1.251
C -56.069 57.321 -0.848
C -56.12 57.324 1.866
C -58.187 59.416 3.956
C -56.159 57.339 3.425
C -58.039 59.428 -3.014
C -56.05 57.33 -2.407
C -53.461 68.488 1.821
C -52.639 67.291 -0.302
C -52.639 67.311 1.252
C -53.452 68.449 -0.903
C -52.663 67.322 3.959
C -53.476 68.493 3.383
C -53.45 68.422 -2.466
C -52.676 67.229 -3.055
C -54.895 68.383 -0.331
C -54.902 68.404 1.249
C -53.108 65.898 -0.802
C -53.125 65.924 1.84
C -55.506 67.047 1.789
C -54.611 65.761 -0.287
C -54.622 65.778 1.301
C -55.492 67.012 -0.831
C -54.927 68.421 3.873
C -53.143 65.936 3.412
C -54.641 65.809 3.877
C -55.514 67.063 3.369
C -54.898 68.336 -2.952
C -53.094 65.874 -2.378
C -55.477 66.985 -2.411
C -54.588 65.717 -2.862
C -56.981 66.927 -0.319
C -56.991 66.949 1.261
C -55.241 64.388 -0.799
C -55.271 64.42 1.84
C -57.56 65.623 1.847
C -56.723 64.418 -0.264
C -56.737 64.438 1.289
C -57.54 65.585 -0.872
C -56.991 66.994 3.881
C -55.283 64.439 3.414
C -56.733 64.501 4.017
C -57.563 65.65 3.409
C -56.945 66.897 -2.941
C -55.22 64.367 -2.37
C -57.515 65.567 -2.434
C -56.672 64.397 -2.98
C -55.983 72.193 1.764
C -55.155 70.973 -0.355
C -55.163 70.994 1.203
C -55.968 72.157 -0.958
C -55.186 71.005 3.907
C -55.991 72.199 3.328
C -55.958 72.122 -2.521
C -55.147 70.914 -3.058
C -57.429 72.08 -0.401
C -57.437 72.101 1.192
C -55.731 69.606 -0.883
C -55.744 69.641 1.761
C -58.071 70.756 1.727
C -57.211 69.494 -0.359
C -57.219 69.516 1.223
C -58.056 70.72 -0.907
C -57.452 72.108 3.822
C -55.751 69.651 3.341
C -57.228 69.542 3.823
C -58.072 70.766 3.309
C -57.413 72.016 -3.031
C -55.721 69.577 -2.461
C -58.039 70.688 -2.489
C -57.19 69.451 -2.959
C -59.546 70.619 -0.395
C -59.555 70.641 1.199
C -57.837 68.142 -0.875
C -57.853 68.178 1.769
C -60.154 69.314 1.777
C -59.318 68.094 -0.341
C -59.327 68.115 1.217
C -60.137 69.277 -0.944
C -59.544 70.667 3.829
C -57.855 68.197 3.347
C -59.32 68.153 3.92
C -60.151 69.331 3.341
C -59.503 70.573 -3.024
C -57.819 68.115 -2.454
C -60.115 69.25 -2.509
C -59.276 68.055 -3.044
C -58.277 73.266 -0.991
C -58.293 73.302 1.739
C -59.727 73.153 -0.419
C -59.736 73.174 1.153
C -58.296 73.31 3.308
C -59.737 73.191 3.878
C -58.262 73.232 -2.56
C -59.696 73.096 -3.143
C -60.352 71.837 -0.985
C -60.368 71.874 1.746
C -60.366 71.885 3.315
C -60.332 71.805 -2.554
C -58.542 58.016 1.802
C -57.486 56.947 -0.319
C -57.514 56.941 1.277
C -58.491 58.03 -0.869
C -57.574 56.945 3.906
C -58.582 58.02 3.392
C -58.474 58.047 -2.46
C -57.454 56.973 -2.95
H -57.234 54.777 1.517
H -57.211 54.787 -0.587
H -57.289 54.794 3.758
H -59.955 57.6 5.024
H -59.411 55.143 4.956
H -57.207 54.825 -2.831
H -59.811 57.671 -4.13
H -59.295 55.258 -4.096
H -60.589 58.487 -2.817
H -60.713 58.414 3.698
H -60.647 58.416 1.54
H -60.602 58.446 -0.655
H -59.197 53.049 1.46
H -59.166 53.076 -0.649
H -59.278 53.042 3.694
H -61.709 55.716 5.018
H -59.145 53.13 -2.883
H -61.753 56.091 -4.137
H -62.292 56.868 -2.668
H -62.373 56.791 3.937
H -62.293 56.785 1.603
H -62.269 56.873 -0.616
H -49.994 63.382 5.151
H -49.826 63.467 -3.872
H -52.324 64.729 5.057
H -52.128 62.152 5.109
H -52.125 64.665 -3.91
H -51.935 62.13 -3.929
H -54.488 63.18 5.02
H -54.048 60.586 5.066
H -54.323 63.131 -3.944
H -53.831 60.544 -3.958
H -53.613 58.4 1.627
H -53.564 58.387 -0.486
H -53.685 58.446 3.858
H -56.404 61.242 5.053
H -55.795 58.744 5.045
H -53.536 58.41 -2.72
H -56.155 61.165 -4.072
H -55.594 58.719 -4.008
H -57.055 61.808 -2.765
H -57.209 61.852 3.657
H -57.141 61.82 1.561
H -57.078 61.804 -0.639
H -55.377 56.582 1.577
H -55.344 56.574 -0.528
H -55.442 56.617 3.818
H -58.168 59.379 5.045
H -55.331 56.594 -2.772
H -57.984 59.389 -4.101
H -58.782 60.193 -2.794
H -58.936 60.167 3.711
H -58.865 60.152 1.555
H -58.812 60.162 -0.639
H -52.672 67.336 5.048
H -52.857 67.168 -4.128
H -54.934 68.436 4.963
H -54.645 65.826 4.967
H -54.91 68.323 -4.043
H -54.584 65.688 -3.952
H -56.997 67.018 4.972
H -56.682 64.607 5.1
H -56.937 66.885 -4.032
H -56.628 64.428 -4.069
H -52.972 69.321 -2.848
H -51.647 67.482 -3.004
H -58.593 65.48 1.541
H -57.282 63.568 -0.579
H -57.294 63.599 1.64
H -58.577 65.451 -0.58
H -57.313 63.625 3.858
H -58.581 65.527 3.774
H -58.526 65.43 -2.812
H -57.263 63.548 -2.739
H -52.973 69.407 1.513
H -51.67 67.518 -0.679
H -51.651 67.569 1.543
H -52.963 69.374 -0.612
H -51.674 67.565 3.65
H -53.005 69.403 3.748
H -55.254 71.008 4.995
H -55.202 70.887 -4.146
H -57.454 72.118 4.913
H -57.235 69.557 4.914
H -57.402 71.998 -4.121
H -57.184 69.436 -4.05
H -59.548 70.676 4.92
H -59.294 68.221 5.007
H -59.494 70.554 -4.115
H -59.235 68.094 -4.132
H -55.511 73.041 -2.906
H -54.098 71.067 -2.832
H -61.194 69.216 1.47
H -59.809 67.175 -0.649
H -59.823 67.206 1.543
H -61.181 69.187 -0.648
H -59.831 67.219 3.707
H -61.175 69.25 3.71
H -61.134 69.158 -2.888
H -59.788 67.127 -2.814
H -55.522 73.129 1.452
H -54.124 71.108 -0.668
H -54.136 71.139 1.524
H -55.51 73.101 -0.665
H -54.133 71.152 3.69
H -55.549 73.127 3.693
H -59.706 73.153 4.966
H -59.651 73.029 -4.23
H -57.579 56.922 4.997
H -57.417 56.963 -4.041
H -57.841 74.219 -0.696
H -57.853 74.247 1.423
H -57.854 74.239 3.672
H -57.816 74.151 -2.943
H -60.327 74.037 1.457
H -60.315 74.008 -0.753
H -60.338 74.065 3.634
H -60.3 73.976 -2.931
H -61.397 71.772 -0.685
H -61.409 71.801 1.435
H -61.39 71.808 3.683
H -61.351 71.718 -2.932
H -49.975 61.351 -2.658
H -50.005 61.303 -0.429
H -50.056 61.29 1.683
H -50.136 61.307 3.91
H -51.825 60.007 -2.683
H -51.856 59.978 -0.454
H -51.912 59.983 1.66
H -51.992 60.022 3.886
C -47.529 67.033 -0.052
C -47.548 67.013 1.508
C -46.114 64.499 -0.643
C -46.141 64.468 2.073
C -48.325 65.787 2.042
C -47.588 64.539 -0.099
C -47.605 64.517 1.494
C -48.295 65.825 -0.63
C -47.577 66.986 4.221
C -46.164 64.464 3.63
C -47.647 64.501 4.13
C -48.352 65.783 3.636
C -47.503 67.066 -2.765
C -46.104 64.526 -2.201
C -48.289 65.854 -2.221
C -47.569 64.588 -2.738
C -49.753 65.873 -0.083
C -49.767 65.849 1.466
C -48.404 63.364 -0.687
C -48.443 63.332 2.024
C -49.81 65.812 4.192
C -48.482 63.329 3.582
C -49.745 65.922 -2.772
C -48.388 63.393 -2.245
C -37.208 72.14 2.224
C -36.603 70.795 0.096
C -36.617 70.776 1.687
C -37.182 72.176 -0.43
C -36.684 70.764 4.308
C -37.246 72.141 3.808
C -37.17 72.195 -2.009
C -36.572 70.845 -2.528
C -38.712 72.361 0.037
C -38.722 72.359 1.615
C -37.457 69.656 -0.491
C -37.502 69.636 2.21
C -39.606 71.115 2.125
C -38.903 69.763 0.043
C -38.928 69.764 1.621
C -39.57 71.108 -0.49
C -38.776 72.371 4.22
C -37.542 69.636 3.763
C -38.988 69.785 4.248
C -39.632 71.124 3.71
C -38.686 72.347 -2.569
C -37.439 69.682 -2.047
C -39.557 71.11 -2.076
C -38.876 69.786 -2.585
C -41.093 71.164 0.006
C -41.113 71.171 1.583
C -39.616 68.501 -0.528
C -39.661 68.505 2.168
C -41.838 69.784 2.109
C -41.052 68.433 0.011
C -41.077 68.436 1.585
C -41.799 69.776 -0.53
C -41.14 71.19 4.183
C -39.691 68.517 3.722
C -41.123 68.447 4.213
C -41.86 69.795 3.695
C -41.063 71.157 -2.594
C -39.597 68.513 -2.083
C -41.779 69.778 -2.117
C -41.021 68.441 -2.617
C -43.259 69.633 0.001
C -43.284 69.634 1.548
C -41.75 67.088 -0.538
C -41.781 67.085 2.108
C -43.983 68.374 2.102
C -43.21 67.147 -0.023
C -43.229 67.141 1.565
C -43.949 68.382 -0.568
C -43.314 69.639 4.248
C -41.798 67.087 3.676
C -43.255 67.135 4.169
C -44.001 68.376 3.677
C -43.215 69.634 -2.702
C -41.731 67.095 -2.107
C -43.93 68.393 -2.143
C -43.178 67.158 -2.629
C -45.396 68.297 -0.025
C -45.416 68.285 1.534
C -43.852 65.859 -0.583
C -43.876 65.843 2.099
C -45.441 68.269 4.236
C -43.893 65.84 3.645
C -45.359 68.318 -2.727
C -43.837 65.871 -2.127
C -39.268 76.318 2.064
C -38.714 75 -0.075
C -38.692 75.018 1.476
C -39.288 76.285 -0.663
C -38.675 75.013 4.174
C -39.268 76.313 3.625
C -39.293 76.264 -2.226
C -38.79 74.95 -2.848
C -40.704 76.483 -0.071
C -40.696 76.496 1.51
C -39.412 73.709 -0.56
C -39.402 73.727 2.083
C -41.532 75.263 2.051
C -40.904 73.834 -0.034
C -40.901 73.842 1.556
C -41.542 75.241 -0.569
C -40.697 76.502 4.135
C -39.412 73.734 3.655
C -40.9 73.868 4.129
C -41.528 75.273 3.631
C -40.731 76.454 -2.692
C -39.408 73.685 -2.138
C -41.541 75.218 -2.149
C -40.905 73.79 -2.605
C -43.013 75.441 -0.047
C -43.009 75.454 1.533
C -41.757 72.576 -0.541
C -41.766 72.598 2.096
C -43.8 74.243 2.115
C -43.213 72.902 -0.005
C -43.216 72.914 1.549
C -43.801 74.218 -0.602
C -42.986 75.484 4.153
C -41.766 72.611 3.671
C -43.189 72.957 4.27
C -43.789 74.262 3.678
C -42.998 75.42 -2.669
C -41.75 72.556 -2.112
C -43.79 74.204 -2.164
C -43.179 72.888 -2.724
C -41.006 80.425 2.057
C -40.445 79.078 -0.073
C -40.442 79.091 1.485
C -41.009 80.403 -0.663
C -40.448 79.091 4.189
C -41.005 80.423 3.621
C -41.012 80.378 -2.226
C -40.46 79.036 -2.774
C -42.453 80.608 -0.099
C -42.451 80.621 1.494
C -41.282 77.851 -0.607
C -41.274 77.871 2.038
C -43.332 79.419 2.025
C -42.749 78.023 -0.073
C -42.745 78.036 1.51
C -43.337 79.399 -0.609
C -42.452 80.615 4.123
C -41.269 77.873 3.618
C -42.734 78.047 4.109
C -43.324 79.42 3.608
C -42.46 80.562 -2.728
C -41.285 77.831 -2.184
C -43.333 79.376 -2.191
C -42.749 77.994 -2.672
C -44.813 79.59 -0.089
C -44.811 79.602 1.505
C -43.623 76.812 -0.592
C -43.618 76.834 2.052
C -45.651 78.409 2.079
C -45.081 77.058 -0.051
C -45.078 77.07 1.509
C -45.655 78.388 -0.642
C -44.782 79.609 4.135
C -43.608 76.843 3.631
C -45.049 77.09 4.212
C -45.637 78.416 3.644
C -44.792 79.555 -2.719
C -43.618 76.793 -2.171
C -45.645 78.369 -2.207
C -45.059 77.032 -2.754
C -43.052 81.944 -0.676
C -43.05 81.966 2.052
C -44.493 82.115 -0.098
C -44.491 82.127 1.474
C -43.044 81.964 3.621
C -44.478 82.127 4.196
C -43.05 81.919 -2.245
C -44.483 82.073 -2.821
C -45.366 80.949 -0.667
C -45.363 80.969 2.063
C -45.352 80.971 3.632
C -45.358 80.926 -2.237
C -46.106 66.995 2.074
C -45.325 65.718 -0.051
C -45.341 65.703 1.529
C -46.077 67.02 -0.592
C -45.366 65.691 4.173
C -46.126 66.989 3.675
C -46.063 67.042 -2.194
C -45.294 65.751 -2.697
H -45.675 63.543 1.759
H -45.658 63.565 -0.339
H -45.716 63.549 4.006
H -47.561 66.92 5.309
H -47.653 64.462 5.22
H -45.655 63.617 -2.588
H -47.469 67.026 -3.853
H -47.552 64.584 -3.829
H -48.008 68.002 -2.53
H -48.084 67.925 4.001
H -48.05 67.925 1.832
H -48.022 67.955 -0.364
H -47.969 62.399 1.722
H -47.937 62.426 -0.39
H -48.04 62.403 3.955
H -49.8 65.681 5.274
H -47.916 62.484 -2.622
H -49.753 65.967 -3.86
H -50.088 66.87 -2.414
H -50.141 66.813 4.065
H -50.101 66.789 1.846
H -50.074 66.849 -0.358
H -36.718 70.717 5.398
H -36.555 70.848 -3.619
H -38.828 72.401 5.308
H -39.01 69.785 5.338
H -38.649 72.328 -3.658
H -38.857 69.784 -3.675
H -41.159 71.204 5.272
H -41.121 68.432 5.303
H -41.05 71.162 -3.683
H -40.988 68.431 -3.707
H -43.3 69.618 5.337
H -43.27 67.121 5.26
H -43.18 69.616 -3.791
H -43.172 67.152 -3.721
H -43.86 70.432 -2.443
H -43.961 70.44 3.979
H -43.921 70.424 1.868
H -43.884 70.421 -0.341
H -45.414 68.222 5.325
H -45.315 68.286 -3.816
H -45.929 69.216 -2.495
H -46.02 69.163 4.009
H -45.983 69.161 1.851
H -45.952 69.18 -0.342
H -38.624 75.03 5.263
H -39.059 74.928 -3.904
H -40.687 76.512 5.226
H -40.893 73.884 5.219
H -40.76 76.457 -3.782
H -40.919 73.76 -3.694
H -42.981 75.502 5.243
H -43.124 73.036 5.355
H -42.998 75.414 -3.76
H -43.119 72.935 -3.811
H -38.652 77.056 -2.608
H -37.734 75.014 -2.923
H -44.844 74.304 1.818
H -43.939 72.19 -0.327
H -43.939 72.205 1.888
H -44.845 74.284 -0.306
H -43.938 72.221 4.092
H -44.812 74.336 4.045
H -44.813 74.267 -2.533
H -43.943 72.176 -2.518
H -38.622 77.133 1.755
H -37.743 75.069 -0.495
H -37.672 75.134 1.722
H -38.629 77.098 -0.37
H -37.685 75.081 3.787
H -38.632 77.116 3.991
H -40.51 79.102 5.277
H -40.521 79.031 -3.862
H -42.447 80.622 5.214
H -42.73 78.058 5.2
H -42.457 80.552 -3.818
H -42.749 77.988 -3.763
H -44.779 79.615 5.225
H -45.003 77.149 5.299
H -44.789 79.544 -3.809
H -45.014 77.074 -3.842
H -40.395 81.193 -2.607
H -39.4 78.982 -2.551
H -46.692 78.52 1.779
H -45.742 76.254 -0.36
H -45.739 76.271 1.833
H -46.695 78.504 -0.342
H -45.732 76.274 4.001
H -46.655 78.535 4.018
H -46.663 78.482 -2.581
H -45.741 76.218 -2.53
H -40.372 81.255 1.748
H -39.409 79.014 -0.39
H -39.405 79.037 1.802
H -40.374 81.237 -0.367
H -39.388 79.037 3.969
H -40.388 81.245 3.988
H -44.45 82.082 5.285
H -44.457 82.011 -3.908
H -45.35 65.654 5.262
H -45.251 65.736 -3.786
H -42.435 82.791 -0.377
H -42.434 82.808 1.739
H -42.427 82.787 3.986
H -42.432 82.735 -2.624
H -44.9 83.088 1.785
H -44.902 83.071 -0.424
H -44.896 83.104 3.958
H -44.901 83.054 -2.598
H -46.402 81.091 -0.363
H -46.399 81.106 1.758
H -46.37 81.095 4.005
H -46.376 81.046 -2.61
H -36.999 68.755 -2.42
H -37.028 68.7 -0.194
H -37.065 68.684 1.913
H -37.138 68.694 4.138
H -39.06 67.638 -2.448
H -39.083 67.605 -0.221
H -39.121 67.607 1.879
H -39.17 67.639 4.104
C -33.826 74.152 0.206
C -33.849 74.132 1.765
C -32.738 71.469 -0.388
C -32.758 71.444 2.326
C -34.751 72.975 2.307
C -34.19 71.651 0.158
C -34.203 71.628 1.749
C -34.722 73.019 -0.365
C -33.886 74.12 4.47
C -32.777 71.449 3.884
C -34.239 71.613 4.386
C -34.778 72.975 3.904
C -33.806 74.189 -2.5
C -32.734 71.496 -1.948
C -34.722 73.055 -1.957
C -34.177 71.708 -2.484
C -36.152 73.216 0.196
C -36.167 73.178 1.744
C -35.142 70.572 -0.437
C -35.172 70.532 2.274
C -36.207 73.111 4.502
C -35.206 70.529 3.834
C -36.156 73.285 -2.494
C -35.129 70.604 -1.996
C -22.631 77.341 2.444
C -22.342 75.888 0.321
C -22.356 75.877 1.912
C -22.607 77.361 -0.209
C -22.411 75.886 4.533
C -22.659 77.353 4.028
C -22.596 77.373 -1.788
C -22.31 75.921 -2.304
C -24.061 77.886 0.269
C -24.067 77.889 1.846
C -23.43 74.975 -0.258
C -23.471 74.973 2.445
C -25.203 76.882 2.364
C -24.804 75.421 0.283
C -24.825 75.431 1.86
C -25.177 76.861 -0.254
C -24.105 77.917 4.453
C -23.504 74.986 3.998
C -24.868 75.475 4.496
C -25.221 76.902 3.951
C -24.047 77.863 -2.339
C -23.411 74.991 -1.815
C -25.167 76.857 -1.842
C -24.777 75.432 -2.354
C -26.662 77.241 0.248
C -26.675 77.257 1.823
C -25.777 74.378 -0.286
C -25.818 74.401 2.42
C -27.706 76.096 2.353
C -27.184 74.658 0.252
C -27.206 74.674 1.841
C -27.672 76.066 -0.293
C -26.692 77.29 4.427
C -25.845 74.431 3.974
C -27.249 74.726 4.465
C -27.727 76.127 3.932
C -26.64 77.225 -2.356
C -25.759 74.382 -1.841
C -27.656 76.065 -1.872
C -27.153 74.662 -2.373
C -29.156 76.133 0.235
C -29.18 76.148 1.784
C -28.062 73.49 -0.313
C -28.097 73.514 2.397
C -30.081 74.991 2.343
C -29.501 73.619 0.226
C -29.521 73.629 1.816
C -30.044 74.976 -0.323
C -29.215 76.192 4.477
C -28.12 73.545 3.955
C -29.56 73.665 4.455
C -30.105 75.017 3.936
C -29.117 76.122 -2.468
C -28.047 73.495 -1.872
C -30.028 74.982 -1.917
C -29.475 73.627 -2.414
C -31.499 75.135 0.219
C -31.524 75.133 1.777
C -30.378 72.455 -0.347
C -30.403 72.461 2.367
C -31.561 75.144 4.479
C -30.424 72.481 3.926
C -31.467 75.146 -2.484
C -30.37 72.467 -1.906
C -23.794 81.864 2.299
C -23.512 80.459 0.164
C -23.486 80.474 1.715
C -23.827 81.832 -0.427
C -23.466 80.473 4.415
C -23.79 81.863 3.86
C -23.844 81.81 -1.991
C -23.599 80.422 -2.601
C -25.179 82.307 0.165
C -25.163 82.322 1.745
C -24.465 79.343 -0.323
C -24.446 79.364 2.32
C -26.229 81.288 2.292
C -25.902 79.771 0.207
C -25.893 79.783 1.795
C -26.251 81.263 -0.329
C -25.154 82.332 4.372
C -24.448 79.376 3.892
C -25.878 79.812 4.373
C -26.216 81.3 3.872
C -25.221 82.276 -2.457
C -24.472 79.319 -1.9
C -26.26 81.237 -1.909
C -25.919 79.726 -2.368
C -27.656 81.741 0.198
C -27.644 81.757 1.778
C -27 78.73 -0.297
C -26.996 78.761 2.341
C -28.666 80.738 2.367
C -28.359 79.311 0.248
C -28.354 79.329 1.802
C -28.682 80.706 -0.352
C -27.605 81.787 4.398
C -26.988 78.778 3.916
C -28.307 79.373 4.526
C -28.645 80.757 3.929
C -27.655 81.71 -2.425
C -27.001 78.707 -1.868
C -28.678 80.686 -1.914
C -28.34 79.282 -2.468
C -24.708 86.226 2.282
C -24.425 84.794 0.153
C -24.413 84.809 1.711
C -24.727 86.2 -0.439
C -24.408 84.814 4.416
C -24.701 86.227 3.847
C -24.742 86.172 -2.003
C -24.459 84.749 -2.549
C -26.103 86.68 0.13
C -26.092 86.696 1.724
C -25.486 83.755 -0.375
C -25.464 83.779 2.271
C -27.187 85.69 2.261
C -26.891 84.208 0.164
C -26.878 84.223 1.747
C -27.206 85.665 -0.373
C -26.083 86.693 4.354
C -25.452 83.782 3.851
C -26.855 84.237 4.348
C -27.172 85.692 3.844
C -26.131 86.629 -2.499
C -25.499 83.731 -1.951
C -27.214 85.637 -1.956
C -26.908 84.173 -2.436
C -28.617 86.136 0.152
C -28.606 86.151 1.746
C -27.989 83.194 -0.349
C -27.968 83.221 2.296
C -29.66 85.148 2.327
C -29.37 83.711 0.198
C -29.358 83.727 1.757
C -29.68 85.121 -0.396
C -28.566 86.156 4.376
C -27.951 83.231 3.874
C -29.316 83.745 4.46
C -29.639 85.154 3.891
C -28.614 86.091 -2.478
C -27.993 83.17 -1.928
C -29.68 85.096 -1.96
C -29.365 83.673 -2.506
C -26.438 88.103 -0.449
C -26.419 88.129 2.281
C -27.816 88.548 0.135
C -27.806 88.563 1.707
C -26.407 88.129 3.85
C -27.78 88.563 4.432
C -26.447 88.073 -2.018
C -27.827 88.497 -2.59
C -28.901 87.572 -0.429
C -28.882 87.598 2.303
C -28.864 87.599 3.873
C -28.905 87.544 -1.998
C -32.417 73.975 2.327
C -31.832 72.612 0.193
C -31.848 72.605 1.789
C -32.384 73.988 -0.343
C -31.885 72.616 4.417
C -32.443 73.984 3.917
C -32.375 74.01 -1.933
C -31.814 72.645 -2.438
H -32.356 70.481 2.018
H -32.35 70.496 -0.09
H -32.384 70.503 4.259
H -33.87 74.067 5.558
H -34.239 71.566 5.476
H -32.353 70.549 -2.332
H -33.778 74.15 -3.588
H -34.161 71.708 -3.575
H -34.203 75.175 -2.262
H -34.302 75.1 4.241
H -34.252 75.093 2.087
H -34.212 75.122 -0.105
H -34.806 69.553 1.968
H -34.788 69.585 -0.145
H -34.869 69.559 4.202
H -36.176 72.878 5.566
H -34.766 69.649 -2.378
H -36.161 73.357 -3.581
H -36.381 74.251 -2.094
H -36.432 74.146 4.537
H -36.367 74.129 2.174
H -36.326 74.232 -0.045
H -22.445 75.852 5.623
H -22.297 75.914 -3.395
H -24.14 77.956 5.541
H -24.883 75.479 5.587
H -24.021 77.838 -3.428
H -24.763 75.418 -3.445
H -26.709 77.305 5.516
H -27.253 74.728 5.557
H -26.633 77.226 -3.445
H -27.126 74.647 -3.464
H -27.678 72.55 2.113
H -27.654 72.529 -0.002
H -27.712 72.609 4.342
H -29.208 76.194 5.567
H -29.563 73.651 5.547
H -27.637 72.55 -2.234
H -29.074 76.086 -3.556
H -29.448 73.605 -3.505
H -29.656 77.009 -2.235
H -29.744 77.075 4.189
H -29.704 77.03 2.085
H -29.667 77.004 -0.113
H -29.981 71.502 2.071
H -29.971 71.494 -0.038
H -30.013 71.546 4.31
H -31.55 75.099 5.568
H -29.972 71.523 -2.279
H -31.439 75.099 -3.573
H -31.879 76.127 -2.255
H -31.991 76.116 4.243
H -31.943 76.089 2.089
H -31.904 76.093 -0.103
H -23.42 80.479 5.504
H -23.836 80.443 -3.664
H -25.142 82.341 5.462
H -25.864 79.825 5.463
H -25.25 82.278 -3.547
H -25.94 79.699 -3.458
H -27.592 81.806 5.489
H -28.217 79.443 5.609
H -27.66 81.701 -3.515
H -28.292 79.301 -3.556
H -23.062 82.46 -2.377
H -22.55 80.271 -2.623
H -29.678 80.996 2.07
H -29.196 78.73 -0.064
H -29.181 78.752 2.152
H -29.691 80.972 -0.051
H -29.171 78.775 4.361
H -29.631 81.026 4.303
H -29.669 80.941 -2.284
H -29.204 78.712 -2.228
H -22.998 82.532 1.985
H -22.541 80.32 -0.246
H -22.466 80.365 1.972
H -23.02 82.499 -0.139
H -22.479 80.335 4.042
H -23.006 82.524 4.223
H -24.46 84.836 5.504
H -24.524 84.751 -3.637
H -26.072 86.698 5.445
H -26.846 84.246 5.438
H -26.134 86.613 -3.59
H -26.914 84.162 -3.527
H -28.557 86.161 5.467
H -29.257 83.792 5.547
H -28.619 86.075 -3.569
H -29.319 83.7 -3.594
H -23.981 86.852 -2.389
H -23.429 84.49 -2.329
H -30.661 85.456 2.029
H -30.175 83.049 -0.107
H -30.159 83.071 2.086
H -30.677 85.435 -0.091
H -30.144 83.076 4.251
H -30.613 85.468 4.269
H -30.659 85.402 -2.331
H -30.189 83.007 -2.273
H -23.927 86.917 1.968
H -23.423 84.529 -0.168
H -23.406 84.553 2.024
H -23.942 86.896 -0.148
H -23.38 84.553 4.189
H -23.935 86.914 4.21
H -27.757 88.51 5.521
H -27.818 88.424 -3.678
H -31.891 72.59 5.508
H -31.791 72.632 -3.528
H -25.668 88.815 -0.155
H -25.654 88.835 1.963
H -25.641 88.817 4.212
H -25.686 88.754 -2.403
H -28.021 89.584 2.018
H -28.036 89.563 -0.193
H -28.004 89.602 4.197
H -28.048 89.54 -2.371
H -29.889 87.91 -0.12
H -29.874 87.929 2.001
H -29.837 87.916 4.25
H -29.882 87.854 -2.369
H -23.197 73.986 -2.186
H -23.23 73.946 0.042
H -23.267 73.944 2.149
H -23.327 73.977 4.376
H -25.443 73.402 -2.204
H -25.467 73.38 0.024
H -25.503 73.397 2.136
H -25.549 73.453 4.361
C -18.888 78.511 0.407
C -18.909 78.501 1.966
C -18.431 75.65 -0.182
C -18.448 75.636 2.53
C -20.048 77.586 2.513
C -19.803 76.163 0.367
C -19.817 76.148 1.959
C -20.02 77.615 -0.16
C -18.937 78.497 4.673
C -18.461 75.645 4.088
C -19.845 76.144 4.596
C -20.068 77.592 4.109
C -18.869 78.533 -2.302
C -18.425 75.671 -1.742
C -20.015 77.642 -1.753
C -19.786 76.205 -2.273
C -21.367 78.142 0.402
C -21.383 78.115 1.951
C -20.976 75.329 -0.218
C -21.006 75.305 2.491
C -21.425 78.069 4.702
C -21.033 75.312 4.051
C -21.361 78.195 -2.289
C -20.961 75.353 -1.776
C -7.303 79.294 2.612
C -7.314 77.817 0.486
C -7.324 77.806 2.076
C -7.285 79.314 -0.042
C -7.367 77.819 4.698
C -7.323 79.308 4.196
C -7.277 79.327 -1.621
C -7.285 77.848 -2.14
C -8.602 80.116 0.442
C -8.601 80.118 2.02
C -8.561 77.136 -0.09
C -8.592 77.137 2.613
C -9.91 79.352 2.541
C -9.818 77.843 0.457
C -9.831 77.855 2.034
C -9.898 79.331 -0.078
C -8.623 80.147 4.627
C -8.617 77.153 4.166
C -9.856 77.901 4.669
C -9.918 79.372 4.128
C -8.602 80.095 -2.166
C -8.544 77.151 -1.646
C -9.895 79.328 -1.665
C -9.799 77.852 -2.179
C -11.274 79.997 0.43
C -11.277 80.013 2.006
C -10.981 77.012 -0.108
C -11.008 77.04 2.596
C -12.512 79.079 2.537
C -12.303 77.567 0.433
C -12.317 77.587 2.023
C -12.494 79.045 -0.11
C -11.277 80.044 4.611
C -11.024 77.072 4.151
C -12.339 77.642 4.646
C -12.521 79.112 4.116
C -11.264 79.98 -2.174
C -10.966 77.015 -1.664
C -12.484 79.042 -1.689
C -12.279 77.566 -2.19
C -13.926 79.413 0.421
C -13.94 79.434 1.97
C -13.407 76.603 -0.127
C -13.428 76.633 2.582
C -15.057 78.493 2.533
C -14.789 77.029 0.416
C -14.801 77.043 2.006
C -15.033 78.469 -0.134
C -13.956 79.482 4.666
C -13.439 76.666 4.14
C -14.822 77.085 4.645
C -15.069 78.522 4.126
C -13.898 79.392 -2.286
C -13.394 76.604 -1.686
C -15.02 78.471 -1.728
C -14.769 77.028 -2.224
C -16.411 78.943 0.412
C -16.43 78.948 1.971
C -15.902 76.083 -0.152
C -15.918 76.096 2.561
C -16.455 78.966 4.676
C -15.928 76.119 4.12
C -16.387 78.942 -2.294
C -15.895 76.091 -1.711
C -7.547 83.964 2.476
C -7.555 82.534 0.337
C -7.52 82.541 1.888
C -7.597 83.945 -0.25
C -7.489 82.531 4.588
C -7.537 83.96 4.037
C -7.624 83.929 -1.814
C -7.658 82.52 -2.427
C -8.827 84.674 0.349
C -8.802 84.683 1.929
C -8.711 81.627 -0.146
C -8.677 81.639 2.497
C -10.047 83.877 2.479
C -10.033 82.328 0.391
C -10.015 82.336 1.979
C -10.084 83.861 -0.142
C -8.781 84.686 4.555
C -8.67 81.647 4.069
C -9.983 82.356 4.557
C -10.025 83.883 4.059
C -8.884 84.657 -2.273
C -8.729 81.607 -1.723
C -10.105 83.84 -1.722
C -10.069 82.293 -2.184
C -11.366 84.605 0.392
C -11.344 84.615 1.971
C -11.315 81.524 -0.11
C -11.294 81.549 2.529
C -12.542 83.816 2.565
C -12.531 82.362 0.444
C -12.514 82.376 1.997
C -12.576 83.793 -0.154
C -11.289 84.633 4.592
C -11.276 81.562 4.103
C -12.446 82.407 4.724
C -12.512 83.829 4.127
C -11.381 84.578 -2.232
C -11.327 81.505 -1.681
C -12.582 83.774 -1.716
C -12.53 82.333 -2.272
C -7.595 88.424 2.468
C -7.604 86.968 0.336
C -7.583 86.978 1.895
C -7.629 88.407 -0.253
C -7.566 86.977 4.599
C -7.582 88.42 4.033
C -7.655 88.385 -1.817
C -7.656 86.936 -2.366
C -8.884 89.145 0.322
C -8.863 89.155 1.916
C -8.848 86.156 -0.188
C -8.811 86.17 2.458
C -10.131 88.381 2.457
C -10.136 86.873 0.357
C -10.114 86.883 1.939
C -10.165 88.365 -0.178
C -8.845 89.146 4.546
C -8.793 86.168 4.037
C -10.079 86.887 4.541
C -10.11 88.377 4.039
C -8.931 89.105 -2.307
C -8.872 86.138 -1.765
C -10.184 88.342 -1.76
C -10.169 86.847 -2.243
C -11.456 89.1 0.354
C -11.435 89.11 1.948
C -11.412 86.094 -0.153
C -11.376 86.112 2.492
C -12.662 88.33 2.532
C -12.664 86.869 0.401
C -12.644 86.879 1.96
C -12.697 88.313 -0.19
C -11.385 89.102 4.578
C -11.351 86.116 4.071
C -12.589 86.883 4.663
C -12.634 88.329 4.096
C -11.471 89.06 -2.277
C -11.427 86.074 -1.732
C -12.708 88.29 -1.755
C -12.677 86.835 -2.303
C -8.938 90.607 -0.254
C -8.905 90.624 2.476
C -10.202 91.31 0.336
C -10.183 91.32 1.908
C -8.887 90.618 4.046
C -10.148 91.31 4.634
C -8.959 90.582 -1.823
C -10.233 91.267 -2.389
C -11.457 90.565 -0.224
C -11.423 90.581 2.507
C -11.4 90.576 4.077
C -11.472 90.54 -1.794
C -17.551 78.018 2.525
C -17.287 76.558 0.392
C -17.299 76.557 1.988
C -17.526 78.021 -0.146
C -17.323 76.576 4.616
C -17.568 78.033 4.115
C -17.516 78.036 -1.737
C -17.27 76.58 -2.238
H -18.278 74.605 2.223
H -18.273 74.615 0.119
H -18.294 74.634 4.463
H -18.93 78.438 5.761
H -19.853 76.101 5.686
H -18.269 74.66 -2.123
H -18.854 78.482 -3.39
H -19.774 76.194 -3.364
H -19.031 79.584 -2.069
H -19.116 79.547 4.447
H -19.08 79.528 2.287
H -19.045 79.543 0.093
H -20.876 74.268 2.187
H -20.856 74.288 0.077
H -20.926 74.291 4.42
H -21.445 77.868 5.772
H -20.829 74.338 -2.155
H -21.357 78.254 -3.377
H -21.355 79.193 -1.906
H -21.404 79.129 4.684
H -21.364 79.096 2.363
H -21.318 79.169 0.146
H -7.404 77.79 5.789
H -7.277 77.841 -3.231
H -8.645 80.19 5.716
H -9.865 77.906 5.76
H -8.585 80.068 -3.255
H -9.791 77.838 -3.27
H -11.287 80.058 5.7
H -12.338 77.643 5.738
H -11.259 79.983 -3.264
H -12.258 77.545 -3.281
H -13.218 75.603 2.295
H -13.204 75.579 0.183
H -13.233 75.666 4.525
H -13.946 79.484 5.755
H -14.823 77.071 5.736
H -13.188 75.596 -2.05
H -13.863 79.34 -3.374
H -14.751 76.999 -3.315
H -14.243 80.371 -2.063
H -14.293 80.451 4.372
H -14.273 80.402 2.271
H -14.248 80.367 0.069
H -15.717 75.068 2.263
H -15.713 75.057 0.158
H -15.731 75.116 4.503
H -16.449 78.915 5.765
H -15.712 75.082 -2.084
H -16.373 78.885 -3.382
H -16.575 79.99 -2.067
H -16.661 80.009 4.443
H -16.629 79.973 2.283
H -16.598 79.967 0.089
H -7.438 82.525 5.676
H -7.892 82.59 -3.489
H -8.762 84.69 5.646
H -9.961 82.364 5.647
H -8.917 84.666 -3.364
H -10.099 82.272 -3.274
H -11.268 84.647 5.683
H -12.334 82.458 5.807
H -11.393 84.572 -3.322
H -12.489 82.341 -3.361
H -6.732 84.414 -2.202
H -6.658 82.168 -2.455
H -13.486 84.268 2.273
H -13.469 81.964 0.137
H -13.438 81.98 2.355
H -13.513 84.25 0.151
H -13.414 81.996 4.571
H -13.425 84.284 4.506
H -13.506 84.22 -2.082
H -13.489 81.951 -2.02
H -6.638 84.464 2.159
H -6.631 82.211 -0.077
H -6.539 82.236 2.14
H -6.674 84.441 0.035
H -6.549 82.204 4.21
H -6.637 84.454 4.397
H -7.61 87.006 5.687
H -7.724 86.952 -3.453
H -8.829 89.146 5.637
H -10.064 86.892 5.631
H -8.941 89.092 -3.398
H -10.182 86.84 -3.334
H -11.371 89.102 5.669
H -12.518 86.915 5.749
H -11.483 89.047 -3.367
H -12.632 86.854 -3.392
H -6.778 88.905 -2.205
H -6.696 86.48 -2.149
H -13.586 88.826 2.238
H -13.584 86.377 0.098
H -13.556 86.391 2.291
H -13.613 88.813 0.119
H -13.532 86.388 4.455
H -13.528 88.824 4.479
H -13.61 88.781 -2.122
H -13.615 86.342 -2.068
H -6.696 88.951 2.152
H -6.673 86.513 0.011
H -6.644 86.53 2.203
H -6.722 88.936 0.036
H -6.61 86.521 4.368
H -6.696 88.945 4.394
H -10.132 91.251 5.722
H -10.242 91.195 -3.476
H -17.33 76.551 5.706
H -17.255 76.559 -3.329
H -8.044 91.155 0.038
H -8.018 91.169 2.157
H -8.001 91.144 4.405
H -8.081 91.103 -2.21
H -10.195 92.363 2.221
H -10.221 92.349 0.011
H -10.167 92.373 4.401
H -10.246 92.333 -2.168
H -12.36 91.087 0.089
H -12.333 91.099 2.21
H -12.292 91.075 4.459
H -12.373 91.035 -2.159
H -8.533 76.125 -2.02
H -8.566 76.088 0.208
H -8.596 76.089 2.315
H -8.641 76.128 4.542
H -10.852 75.992 -2.029
H -10.875 75.972 0.2
H -10.901 75.994 2.31
H -10.928 76.054 4.536
C -78.974 -0 -1.75
C -79.15 -0.019 0.919
C -77.737 2.073 1.065
C -78.955 1.505 -1.243
C -79.061 1.482 0.364
C -77.439 2.03 -1.637
C -79.267 -0.047 2.49
C -79.25 1.441 3.011
C -77.864 2.063 2.616
C -78.796 -0.043 -3.31
C -77.095 1.928 -3.168
C -78.287 1.343 -3.851
C -77.786 -0.867 -1.032
C -77.893 -0.866 0.507
C -78.109 -0.876 3.197
C -77.545 -0.985 -3.678
H -79.323 1.457 4.099
H -78.244 1.415 -4.94
H -78.24 -0.821 4.276
H -77.43 -1.006 -4.76
H -77.855 -1.906 -1.336
H -78.014 -1.898 0.825
H -78.158 -1.933 2.958
H -77.708 -2.022 -3.401
H -77.368 3.083 -1.369
H -77.616 3.111 0.766
H -77.83 3.086 2.99
H -76.899 2.934 -3.562
C 65.993 -0.471 -1.689
C 65.813 -0.502 0.953
C 67.163 1.742 1.114
C 65.932 1.026 -1.149
C 65.833 1.007 0.444
C 67.33 1.779 -1.566
C 65.705 -0.526 2.547
C 65.649 0.969 3.03
C 67.055 1.715 2.661
C 66.105 -0.461 -3.283
C 67.436 1.794 -3.112
C 66.117 1.045 -3.735
C 67.306 -1.173 -1.037
C 67.204 -1.195 0.51
C 67.019 -1.218 3.214
C 67.508 -1.124 -3.74
H 65.558 0.979 4.116
H 66.213 1.08 -4.82
H 66.945 -1.164 4.298
H 67.616 -1.041 -4.82
H 67.364 -2.206 -1.371
H 67.203 -2.238 0.818
H 67.067 -2.279 2.984
H 67.522 -2.19 -3.533
H 67.285 2.821 -1.256
H 67.178 2.792 0.832
H 67.008 2.737 3.039
H 67.442 2.825 -3.466
C -54.173 1.718 -0.685
C -54.135 1.681 1.921
C -54.113 1.657 3.487
C -54.195 1.741 -2.252
C -50.327 0.951 -0.249
C -50.299 0.932 1.316
C -52.903 -0.542 -0.739
C -52.864 -0.575 1.867
C -51.568 1.683 1.872
C -52.887 0.953 -0.198
C -52.863 0.934 1.367
C -51.613 1.716 -0.734
C -50.251 0.901 3.902
C -52.841 -0.596 3.433
C -52.821 0.898 3.953
C -51.541 1.662 3.439
C -50.375 0.982 -2.836
C -52.927 -0.522 -2.306
C -51.64 1.737 -2.3
C -52.929 0.988 -2.786
C -49.058 -1.316 -0.302
C -49.03 -1.332 1.264
C -50.299 -0.578 1.818
C -51.618 -1.309 -0.251
C -51.593 -1.327 1.314
C -50.344 -0.548 -0.787
C -48.983 -1.36 3.849
C -51.551 -1.357 3.9
C -50.272 -0.597 3.385
C -49.106 -1.289 -2.888
C -50.371 -0.53 -2.354
C -51.661 -1.279 -2.838
C -49.055 1.715 -0.787
C -49.005 1.685 1.818
C -48.975 1.666 3.384
C -49.084 1.734 -2.354
C -45.209 0.947 -0.359
C -45.178 0.931 1.206
C -47.785 -0.553 -0.84
C -47.736 -0.58 1.765
C -46.444 1.686 1.761
C -47.768 0.948 -0.304
C -47.738 0.932 1.261
C -46.496 1.714 -0.843
C -45.126 0.904 3.791
C -47.707 -0.597 3.331
C -47.686 0.903 3.847
C -46.413 1.669 3.328
C -45.261 0.973 -2.944
C -47.815 -0.537 -2.407
C -46.527 1.731 -2.41
C -47.819 0.977 -2.889
C -43.94 -1.327 -0.408
C -43.911 -1.341 1.157
C -45.177 -0.583 1.71
C -46.499 -1.322 -0.355
C -46.47 -1.337 1.21
C -45.227 -0.558 -0.894
C -43.861 -1.365 3.742
C -46.42 -1.363 3.796
C -45.147 -0.598 3.277
C -43.99 -1.304 -2.993
C -45.257 -0.543 -2.461
C -46.549 -1.297 -2.94
C -43.937 1.713 -0.899
C -43.886 1.687 1.705
C -43.855 1.671 3.272
C -43.968 1.729 -2.465
C -40.091 0.942 -0.465
C -40.063 0.928 1.1
C -42.668 -0.562 -0.947
C -42.618 -0.586 1.657
C -41.329 1.687 1.652
C -42.65 0.944 -0.414
C -42.62 0.93 1.151
C -41.378 1.712 -0.952
C -40.015 0.904 3.685
C -42.589 -0.6 3.223
C -42.57 0.905 3.736
C -41.299 1.672 3.218
C -40.14 0.965 -3.048
C -42.698 -0.548 -2.514
C -41.408 1.726 -2.518
C -42.701 0.969 -2.998
C -38.822 -1.338 -0.509
C -38.795 -1.351 1.056
C -40.061 -0.589 1.606
C -41.381 -1.332 -0.46
C -41.353 -1.346 1.105
C -40.109 -0.566 -0.998
C -38.749 -1.372 3.641
C -41.304 -1.368 3.69
C -40.032 -0.602 3.172
C -38.869 -1.317 -3.092
C -40.137 -0.553 -2.564
C -41.43 -1.311 -3.044
C -38.819 1.71 -1.001
C -38.772 1.686 1.602
C -38.744 1.672 3.169
C -38.847 1.724 -2.568
C -34.973 0.934 -0.554
C -34.947 0.92 1.011
C -37.549 -0.571 -1.044
C -37.504 -0.593 1.559
C -36.215 1.683 1.557
C -37.532 0.938 -0.512
C -37.505 0.925 1.053
C -36.259 1.706 -1.046
C -34.906 0.898 3.594
C -37.477 -0.606 3.126
C -37.46 0.902 3.637
C -36.188 1.669 3.124
C -35.015 0.956 -3.137
C -37.576 -0.559 -2.611
C -36.285 1.72 -2.612
C -37.577 0.961 -3.095
C -33.703 -1.35 -0.593
C -33.678 -1.362 0.972
C -34.946 -0.598 1.517
C -36.263 -1.343 -0.553
C -36.237 -1.356 1.012
C -34.988 -0.577 -1.086
C -33.638 -1.382 3.555
C -36.194 -1.377 3.596
C -34.921 -0.611 3.083
C -33.743 -1.33 -3.176
C -35.014 -0.564 -2.653
C -36.306 -1.323 -3.136
C -33.698 1.702 -1.086
C -33.657 1.679 1.517
C -33.632 1.665 3.083
C -33.723 1.715 -2.653
C -29.852 0.922 -0.629
C -29.829 0.909 0.936
C -32.428 -0.583 -1.125
C -32.388 -0.604 1.478
C -31.098 1.674 1.48
C -32.413 0.929 -0.593
C -32.389 0.915 0.972
C -31.138 1.696 -1.123
C -29.791 0.887 3.519
C -32.364 -0.617 3.044
C -32.349 0.893 3.555
C -31.075 1.66 3.046
C -29.89 0.944 -3.211
C -32.452 -0.571 -2.691
C -31.161 1.71 -2.69
C -32.452 0.951 -3.176
C -28.582 -1.365 -0.665
C -28.558 -1.376 0.9
C -29.828 -0.611 1.442
C -31.143 -1.357 -0.63
C -31.119 -1.369 0.935
C -29.867 -0.59 -1.16
C -28.521 -1.397 3.483
C -31.081 -1.389 3.518
C -29.805 -0.624 3.008
C -28.619 -1.345 -3.248
C -29.89 -0.578 -2.727
C -31.181 -1.337 -3.213
C -28.577 1.69 -1.158
C -28.538 1.667 1.445
C -28.515 1.653 3.011
C -28.6 1.703 -2.724
C -24.73 0.906 -0.698
C -24.706 0.893 0.867
C -27.305 -0.598 -1.195
C -27.267 -0.619 1.407
C -25.977 1.659 1.41
C -27.291 0.915 -0.663
C -27.268 0.902 0.902
C -26.015 1.682 -1.192
C -24.667 0.871 3.449
C -27.244 -0.632 2.974
C -27.231 0.879 3.485
C -25.953 1.645 2.977
C -24.768 0.929 -3.28
C -27.328 -0.585 -2.761
C -26.039 1.696 -2.758
C -27.329 0.937 -3.245
C -23.459 -1.382 -0.735
C -23.434 -1.394 0.83
C -24.704 -0.627 1.373
C -26.02 -1.373 -0.7
C -25.997 -1.385 0.865
C -24.744 -0.607 -1.229
C -23.394 -1.414 3.412
C -25.959 -1.405 3.448
C -24.681 -0.641 2.939
C -23.498 -1.362 -3.317
C -24.768 -0.594 -2.796
C -26.058 -1.353 -3.282
C -23.454 1.673 -1.227
C -23.413 1.651 1.375
C -23.389 1.636 2.941
C -23.478 1.687 -2.793
C -22.182 -0.616 -1.266
C -22.14 -0.636 1.336
C -20.849 1.642 1.336
C -22.168 0.897 -0.734
C -22.142 0.885 0.831
C -20.893 1.664 -1.265
C -22.115 -0.65 2.902
C -22.101 0.862 3.412
C -20.823 1.627 2.903
C -22.208 -0.603 -2.832
C -20.919 1.678 -2.832
C -22.209 0.92 -3.316
C -20.896 -1.392 -0.774
C -20.87 -1.403 0.791
C -20.827 -1.424 3.373
C -20.939 -1.371 -3.356
C -59.299 1.723 -0.621
C -59.288 1.678 1.986
C -59.282 1.648 3.552
C -59.304 1.753 -2.187
C -55.45 0.957 -0.155
C -55.431 0.935 1.41
C -58.027 -0.527 -0.669
C -58.011 -0.565 1.937
C -56.708 1.679 1.96
C -58.016 0.961 -0.123
C -58.005 0.938 1.442
C -56.735 1.72 -0.646
C -55.399 0.896 3.996
C -58.002 -0.591 3.504
C -57.986 0.895 4.028
C -56.693 1.652 3.527
C -55.482 0.995 -2.744
C -58.036 -0.501 -2.236
C -56.75 1.746 -2.213
C -58.034 1.004 -2.712
C -54.18 -1.301 -0.207
C -54.16 -1.32 1.358
C -55.435 -0.571 1.908
C -56.744 -1.292 -0.173
C -56.731 -1.311 1.393
C -55.464 -0.535 -0.698
C -54.125 -1.354 3.944
C -56.708 -1.348 3.979
C -55.418 -0.594 3.475
C -54.214 -1.268 -2.795
C -55.481 -0.512 -2.265
C -56.767 -1.255 -2.761
C -64.443 1.733 -0.63
C -64.479 1.68 1.974
C -64.499 1.641 3.539
C -64.417 1.769 -2.195
C -60.586 0.967 -0.107
C -60.586 0.942 1.457
C -63.167 -0.506 -0.662
C -63.194 -0.548 1.942
C -61.877 1.678 1.993
C -63.163 0.974 -0.113
C -63.178 0.948 1.451
C -61.868 1.728 -0.613
C -60.585 0.894 4.043
C -63.208 -0.577 3.508
C -63.199 0.896 4.035
C -61.883 1.644 3.559
C -60.586 1.014 -2.697
C -63.148 -0.475 -2.228
C -61.86 1.761 -2.179
C -63.138 1.026 -2.701
C -59.311 -1.28 -0.151
C -59.308 -1.301 1.413
C -60.597 -0.558 1.95
C -61.885 -1.267 -0.148
C -61.894 -1.288 1.416
C -60.594 -0.517 -0.656
C -59.3 -1.34 4
C -61.906 -1.329 4.001
C -60.598 -0.585 3.517
C -59.318 -1.24 -2.741
C -60.591 -0.489 -2.222
C -61.87 -1.224 -2.737
C -69.628 1.762 -0.8
C -69.742 1.725 1.826
C -69.808 1.688 3.399
C -69.551 1.786 -2.373
C -65.753 0.982 -0.147
C -65.785 0.957 1.416
C -68.356 -0.488 -0.774
C -68.458 -0.523 1.828
C -67.099 1.687 1.922
C -68.362 0.994 -0.228
C -68.419 0.974 1.342
C -67.029 1.739 -0.683
C -65.836 0.9 3.997
C -68.509 -0.552 3.398
C -68.508 0.915 3.919
C -67.139 1.644 3.487
C -65.691 1.036 -2.734
C -68.284 -0.456 -2.343
C -66.979 1.775 -2.248
C -68.248 1.041 -2.814
C -64.468 -1.253 -0.169
C -64.494 -1.273 1.395
C -65.81 -0.537 1.904
C -67.066 -1.24 -0.222
C -67.114 -1.258 1.343
C -65.751 -0.495 -0.697
C -64.529 -1.312 3.978
C -67.177 -1.291 3.925
C -65.839 -0.566 3.47
C -64.423 -1.208 -2.756
C -65.71 -0.462 -2.262
C -66.977 -1.194 -2.811
C -74.846 1.801 -1.315
C -75.084 1.852 1.362
C -75.212 1.844 2.913
C -74.668 1.744 -2.859
C -70.981 1.018 -0.386
C -71.069 1.013 1.193
C -73.645 -0.43 -1.149
C -73.855 -0.396 1.482
C -72.433 1.729 1.63
C -73.626 1.055 -0.624
C -73.747 1.08 0.957
C -72.258 1.722 -1.048
C -71.218 0.975 3.778
C -73.97 -0.406 3.064
C -73.952 1.072 3.551
C -72.533 1.708 3.18
C -70.802 1.024 -2.985
C -73.507 -0.469 -2.729
C -72.141 1.708 -2.597
C -73.378 0.995 -3.229
C -69.69 -1.241 -0.326
C -69.766 -1.255 1.247
C -71.138 -0.497 1.696
C -72.376 -1.145 -0.489
C -72.49 -1.134 1.057
C -70.978 -0.481 -0.924
C -69.871 -1.276 3.841
C -72.666 -1.138 3.722
C -71.222 -0.52 3.274
C -69.541 -1.2 -2.929
C -70.874 -0.472 -2.503
C -72.159 -1.162 -3.159
C -76.266 1.207 -0.909
C -76.412 1.24 0.674
C -76.64 1.242 3.263
C -75.898 1.065 -3.502
C -75.067 -1.054 -0.73
C -75.196 -1.022 0.814
C -76.551 -0.253 1.202
C -76.322 -0.303 -1.421
C -75.412 -1.006 3.481
C -76.679 -0.258 2.792
C -74.811 -1.15 -3.388
C -76.158 -0.389 -3
H -34.889 0.891 4.684
H -37.442 0.895 4.727
H -35.033 0.969 -4.227
H -37.597 0.974 -4.185
H -33.622 -1.389 4.645
H -36.177 -1.383 4.686
H -33.761 -1.318 -4.266
H -36.325 -1.312 -4.226
H -29.777 0.88 4.609
H -32.334 0.886 4.645
H -29.905 0.957 -4.301
H -32.468 0.963 -4.265
H -28.507 -1.403 4.572
H -31.066 -1.396 4.608
H -28.634 -1.333 -4.337
H -31.197 -1.326 -4.303
H -24.653 0.864 4.539
H -27.217 0.872 4.574
H -24.784 0.941 -4.369
H -27.344 0.949 -4.335
H -23.379 -1.421 4.501
H -25.945 -1.412 4.537
H -23.514 -1.351 -4.407
H -26.073 -1.342 -4.372
H -22.085 0.855 4.502
H -22.226 0.932 -4.406
H -20.81 -1.43 4.462
H -63.209 0.873 5.125
H -63.131 1.047 -3.791
H -65.858 0.874 5.087
H -68.544 0.881 5.008
H -65.668 1.057 -3.824
H -68.195 1.055 -3.902
H -64.544 -1.331 5.068
H -67.205 -1.304 5.015
H -71.304 0.973 4.864
H -74.058 1.093 4.636
H -70.714 1.042 -4.071
H -73.27 1.004 -4.315
H -69.925 -1.283 4.929
H -72.746 -1.069 4.805
H -72.066 -1.119 -4.243
H -76.756 1.271 4.347
H -75.766 1.054 -4.586
H -75.517 -0.933 4.562
H -74.702 -1.14 -4.472
H -41.452 -1.299 -4.134
H -55.499 1.013 -3.833
H -54.232 -1.252 -3.885
H -42.724 0.982 -4.088
H -44.014 -1.292 -4.083
H -56.779 -1.238 -3.851
H -45.285 0.986 -4.034
H -46.573 -1.284 -4.03
H -58.046 1.023 -3.802
H -59.324 -1.223 -3.831
H -47.843 0.991 -3.979
H -60.59 1.035 -3.787
H -49.129 -1.275 -3.977
H -50.398 0.997 -3.925
H -51.682 -1.265 -3.928
H -40.161 0.978 -4.138
H -38.889 -1.305 -4.182
H -52.95 1.004 -3.876
H -47.664 0.893 4.936
H -50.229 0.889 4.991
H -38.73 -1.379 4.731
H -61.91 -1.347 5.091
H -52.802 0.885 5.042
H -41.284 -1.375 4.779
H -51.531 -1.369 4.99
H -54.109 -1.367 5.034
H -57.976 0.877 5.118
H -56.696 -1.364 5.069
H -42.548 0.897 4.826
H -45.104 0.895 4.88
H -60.583 0.874 5.133
H -46.398 -1.372 4.885
H -48.961 -1.37 4.939
H -39.994 0.896 4.774
H -55.383 0.881 5.086
H -43.839 -1.373 4.831
H -59.296 -1.358 5.089
H -72.397 -2.188 -0.794
H -72.569 -2.173 1.367
H -72.705 -2.205 3.523
H -72.221 -2.221 -2.933
H -75.287 -2.059 1.135
H -75.09 -2.103 -1.017
H -75.449 -2.075 3.284
H -74.875 -2.205 -3.135
C 7.31 1.587 -1.982
C 7.382 1.573 0.619
C 7.426 1.564 2.185
C 7.267 1.596 -3.548
C 11.171 0.816 -1.575
C 11.212 0.809 -0.01
C 8.585 -0.697 -2.029
C 8.655 -0.709 0.572
C 9.946 1.572 0.547
C 8.605 0.818 -1.504
C 8.648 0.81 0.06
C 9.876 1.585 -2.054
C 11.28 0.797 2.572
C 8.697 -0.716 2.138
C 8.719 0.796 2.642
C 9.988 1.564 2.113
C 11.104 0.828 -4.155
C 8.543 -0.69 -3.595
C 9.834 1.593 -3.62
C 8.535 0.83 -4.085
C 12.445 -1.466 -1.618
C 12.484 -1.472 -0.053
C 11.218 -0.709 0.502
C 9.879 -1.466 -1.55
C 9.92 -1.472 0.015
C 11.151 -0.698 -2.099
C 12.55 -1.482 2.529
C 9.989 -1.483 2.597
C 11.259 -0.716 2.068
C 12.38 -1.457 -4.198
C 11.111 -0.692 -3.665
C 9.811 -1.456 -4.13
C 12.442 1.584 -2.124
C 12.509 1.572 0.477
C 12.549 1.565 2.044
C 12.403 1.591 -3.69
C 16.302 0.816 -1.705
C 16.338 0.809 -0.14
C 13.717 -0.699 -2.166
C 13.781 -0.709 0.435
C 15.071 1.572 0.412
C 13.737 0.816 -1.642
C 13.775 0.809 -0.077
C 15.009 1.583 -2.189
C 16.398 0.799 2.443
C 13.819 -0.715 2.002
C 13.839 0.798 2.505
C 15.109 1.565 1.978
C 16.243 0.825 -4.286
C 13.68 -0.693 -3.732
C 14.972 1.59 -3.755
C 13.673 0.826 -4.223
C 17.576 -1.466 -1.742
C 17.61 -1.471 -0.177
C 16.343 -0.708 0.373
C 15.011 -1.466 -1.682
C 15.047 -1.472 -0.117
C 16.284 -0.699 -2.228
C 17.667 -1.479 2.406
C 15.109 -1.481 2.465
C 16.379 -0.713 1.94
C 17.52 -1.458 -4.323
C 16.249 -0.694 -3.795
C 14.95 -1.458 -4.263
C 17.576 1.583 -2.25
C 17.633 1.572 0.352
C 17.668 1.566 1.918
C 17.542 1.589 -3.816
C 21.434 0.815 -1.815
C 21.464 0.809 -0.25
C 18.851 -0.699 -2.286
C 18.905 -0.707 0.316
C 20.195 1.572 0.297
C 18.868 0.816 -1.763
C 18.901 0.809 -0.198
C 20.143 1.582 -2.305
C 21.513 0.8 2.333
C 18.938 -0.712 1.882
C 18.956 0.8 2.385
C 20.227 1.567 1.863
C 21.385 0.824 -4.397
C 18.818 -0.694 -3.852
C 20.112 1.588 -3.872
C 18.814 0.825 -4.344
C 22.708 -1.464 -1.845
C 22.736 -1.469 -0.28
C 21.467 -0.706 0.264
C 20.142 -1.465 -1.796
C 20.173 -1.47 -0.231
C 21.417 -0.698 -2.338
C 22.782 -1.476 2.303
C 20.225 -1.477 2.352
C 21.496 -0.711 1.831
C 22.662 -1.458 -4.427
C 21.388 -0.694 -3.904
C 20.091 -1.458 -4.377
C 22.71 1.582 -2.355
C 22.757 1.572 0.247
C 22.785 1.567 1.813
C 22.682 1.587 -3.922
C 26.566 0.814 -1.903
C 26.589 0.808 -0.338
C 23.984 -0.698 -2.385
C 24.028 -0.706 0.218
C 25.318 1.571 0.203
C 24 0.815 -1.862
C 24.026 0.809 -0.297
C 25.277 1.581 -2.399
C 26.628 0.8 2.246
C 24.055 -0.71 1.784
C 24.07 0.801 2.287
C 25.343 1.566 1.77
C 26.529 0.823 -4.485
C 23.958 -0.694 -3.951
C 25.253 1.586 -3.966
C 23.957 0.823 -4.443
C 27.84 -1.463 -1.927
C 27.861 -1.468 -0.362
C 26.59 -0.706 0.177
C 25.274 -1.464 -1.889
C 25.298 -1.468 -0.324
C 26.552 -0.698 -2.425
C 27.897 -1.475 2.223
C 25.339 -1.475 2.26
C 26.613 -0.71 1.744
C 27.805 -1.457 -4.509
C 26.529 -0.694 -3.992
C 25.233 -1.457 -4.471
C 27.845 1.579 -2.437
C 27.88 1.569 0.166
C 27.902 1.564 1.732
C 27.824 1.584 -4.004
C 31.701 0.81 -1.967
C 31.717 0.804 -0.402
C 29.12 -0.699 -2.461
C 29.152 -0.707 0.142
C 30.443 1.566 0.134
C 29.133 0.812 -1.938
C 29.153 0.807 -0.373
C 30.414 1.576 -2.469
C 31.744 0.794 2.183
C 29.172 -0.711 1.709
C 29.185 0.798 2.212
C 30.461 1.56 1.7
C 31.675 0.819 -4.55
C 29.1 -0.695 -4.027
C 30.397 1.581 -4.036
C 29.102 0.821 -4.52
C 32.975 -1.465 -1.987
C 32.989 -1.47 -0.421
C 31.715 -0.709 0.113
C 30.407 -1.464 -1.959
C 30.425 -1.468 -0.394
C 31.688 -0.7 -2.491
C 33.013 -1.477 2.164
C 30.455 -1.476 2.19
C 31.731 -0.713 1.679
C 32.951 -1.457 -4.569
C 31.672 -0.696 -4.057
C 30.378 -1.457 -4.542
C 32.984 1.571 -2.496
C 33.007 1.561 0.107
C 33.021 1.555 1.674
C 32.97 1.577 -4.063
C 36.841 0.8 -2.009
C 36.849 0.793 -0.444
C 34.258 -0.703 -2.515
C 34.279 -0.712 0.089
C 35.572 1.554 0.087
C 34.27 0.806 -1.991
C 34.282 0.799 -0.426
C 35.555 1.565 -2.517
C 36.864 0.782 2.141
C 34.292 -0.717 1.655
C 34.303 0.789 2.159
C 35.583 1.548 1.653
C 36.828 0.811 -4.592
C 34.246 -0.698 -4.082
C 35.545 1.572 -4.083
C 34.25 0.815 -4.574
C 38.116 -1.47 -2.024
C 38.123 -1.476 -0.459
C 36.845 -0.716 0.07
C 35.544 -1.467 -2.008
C 35.555 -1.472 -0.443
C 36.831 -0.707 -2.534
C 38.135 -1.485 2.127
C 35.573 -1.481 2.142
C 36.854 -0.722 1.637
C 38.105 -1.461 -4.608
C 36.822 -0.701 -4.1
C 35.527 -1.458 -4.591
C 38.129 1.557 -2.532
C 38.139 1.545 0.072
C 38.146 1.538 1.639
C 38.123 1.564 -4.099
C 39.406 -0.712 -2.546
C 39.413 -0.723 0.058
C 40.709 1.534 0.064
C 39.415 0.792 -2.021
C 39.419 0.785 -0.456
C 40.706 1.547 -2.54
C 39.418 -0.729 1.624
C 39.427 0.773 2.13
C 40.711 1.527 1.631
C 39.401 -0.706 -4.113
C 40.705 1.554 -4.107
C 39.409 0.804 -4.604
C 40.691 -1.474 -2.034
C 40.693 -1.481 -0.469
C 40.698 -1.492 2.117
C 40.687 -1.464 -4.617
C 2.178 1.594 -1.83
C 2.253 1.577 0.77
C 2.298 1.567 2.336
C 2.134 1.604 -3.396
C 6.039 0.82 -1.431
C 6.083 0.811 0.134
C 3.453 -0.692 -1.882
C 3.526 -0.706 0.719
C 4.818 1.575 0.694
C 3.474 0.822 -1.355
C 3.518 0.813 0.209
C 4.744 1.59 -1.907
C 6.156 0.797 2.715
C 3.57 -0.715 2.285
C 3.592 0.798 2.79
C 4.862 1.565 2.26
C 5.967 0.833 -4.011
C 3.409 -0.684 -3.448
C 4.7 1.599 -3.473
C 3.4 0.837 -3.936
C 7.314 -1.464 -1.479
C 7.356 -1.472 0.086
C 6.091 -0.708 0.644
C 4.748 -1.462 -1.405
C 4.791 -1.47 0.159
C 6.019 -0.695 -1.956
C 7.427 -1.484 2.668
C 4.864 -1.483 2.741
C 6.134 -0.716 2.21
C 7.243 -1.453 -4.059
C 5.976 -0.687 -3.523
C 4.676 -1.45 -3.986
C -2.952 1.604 -1.679
C -2.879 1.586 0.922
C -2.836 1.574 2.488
C -2.995 1.615 -3.245
C 0.908 0.826 -1.279
C 0.952 0.817 0.285
C -1.678 -0.683 -1.732
C -1.605 -0.699 0.869
C -0.313 1.581 0.846
C -1.657 0.831 -1.204
C -1.614 0.821 0.361
C -0.387 1.598 -1.754
C 1.027 0.8 2.866
C -1.562 -0.71 2.435
C -1.54 0.803 2.942
C -0.268 1.57 2.412
C 0.834 0.842 -3.86
C -1.721 -0.673 -3.298
C -0.431 1.609 -3.32
C -1.73 0.848 -3.784
C 2.182 -1.459 -1.331
C 2.226 -1.467 0.234
C 0.961 -0.703 0.794
C -0.383 -1.455 -1.256
C -0.34 -1.464 0.309
C 0.887 -0.688 -1.807
C 2.3 -1.482 2.815
C -0.267 -1.479 2.89
C 1.005 -0.713 2.36
C 2.109 -1.446 -3.911
C 0.843 -0.679 -3.373
C -0.456 -1.44 -3.836
C -8.08 1.618 -1.536
C -8.014 1.598 1.065
C -7.974 1.585 2.631
C -8.12 1.631 -3.102
C -4.222 0.837 -1.13
C -4.18 0.826 0.435
C -6.807 -0.67 -1.588
C -6.739 -0.688 1.013
C -5.446 1.591 0.995
C -6.787 0.844 -1.058
C -6.747 0.833 0.506
C -5.516 1.611 -1.605
C -4.109 0.807 3.016
C -6.698 -0.7 2.579
C -6.678 0.813 3.087
C -5.404 1.579 2.561
C -4.293 0.855 -3.71
C -6.847 -0.659 -3.154
C -5.558 1.623 -3.171
C -6.855 0.863 -3.639
C -2.949 -1.45 -1.182
C -2.906 -1.459 0.383
C -4.172 -0.694 0.942
C -5.514 -1.444 -1.11
C -5.472 -1.453 0.455
C -4.243 -0.677 -1.658
C -2.834 -1.476 2.963
C -5.403 -1.471 3.035
C -4.13 -0.705 2.508
C -3.02 -1.434 -3.763
C -4.285 -0.667 -3.224
C -5.582 -1.427 -3.691
C -13.206 1.636 -1.41
C -13.149 1.614 1.191
C -13.114 1.6 2.757
C -13.241 1.649 -2.977
C -9.352 0.851 -0.991
C -9.313 0.84 0.574
C -11.934 -0.654 -1.459
C -11.874 -0.673 1.142
C -10.581 1.606 1.13
C -11.916 0.86 -0.928
C -11.88 0.848 0.637
C -10.644 1.627 -1.47
C -9.249 0.819 3.154
C -11.839 -0.686 2.708
C -11.821 0.827 3.217
C -10.544 1.592 2.697
C -9.416 0.872 -3.572
C -11.969 -0.641 -3.025
C -10.681 1.64 -3.036
C -11.975 0.881 -3.51
C -8.078 -1.437 -1.041
C -8.039 -1.447 0.523
C -9.307 -0.681 1.08
C -10.643 -1.429 -0.977
C -10.606 -1.439 0.588
C -9.37 -0.662 -1.521
C -7.974 -1.465 3.104
C -10.545 -1.458 3.168
C -9.268 -0.693 2.646
C -8.144 -1.419 -3.622
C -9.409 -0.65 -3.087
C -10.704 -1.41 -3.558
C -18.331 1.655 -1.308
C -18.283 1.632 1.293
C -18.254 1.618 2.86
C -18.36 1.669 -2.874
C -14.48 0.869 -0.871
C -14.447 0.857 0.694
C -17.059 -0.635 -1.352
C -17.009 -0.655 1.25
C -15.716 1.623 1.245
C -17.043 0.878 -0.82
C -17.013 0.866 0.745
C -15.769 1.645 -1.356
C -14.392 0.835 3.274
C -16.979 -0.668 2.816
C -16.963 0.844 3.326
C -15.685 1.609 2.811
C -14.534 0.891 -3.453
C -17.089 -0.622 -2.918
C -15.8 1.659 -2.923
C -17.092 0.9 -3.402
C -13.207 -1.42 -0.918
C -13.173 -1.431 0.647
C -14.442 -0.664 1.199
C -15.77 -1.411 -0.864
C -15.739 -1.422 0.701
C -14.496 -0.644 -1.402
C -13.116 -1.451 3.228
C -15.687 -1.442 3.281
C -14.409 -0.677 2.765
C -13.263 -1.401 -3.499
C -14.529 -0.632 -2.969
C -15.822 -1.391 -3.446
C -19.606 0.888 -0.775
C -19.578 0.875 0.79
C -19.533 0.853 3.371
C -19.65 0.91 -3.357
C -18.334 -1.401 -0.816
C -18.305 -1.412 0.748
C -19.575 -0.646 1.295
C -19.621 -0.625 -1.306
C -18.258 -1.433 3.33
C -19.548 -0.659 2.861
C -18.38 -1.381 -3.398
C -19.648 -0.612 -2.873
H 26.644 0.798 3.336
H 24.089 0.799 3.377
H 26.514 0.828 -5.574
H 23.939 0.829 -5.533
H 27.912 -1.475 3.312
H 25.357 -1.476 3.35
H 27.791 -1.452 -5.599
H 25.216 -1.453 -5.56
H 31.756 0.793 3.273
H 29.199 0.796 3.302
H 31.665 0.824 -5.639
H 29.089 0.827 -5.61
H 33.024 -1.478 3.254
H 30.468 -1.476 3.28
H 32.941 -1.453 -5.659
H 30.365 -1.452 -5.632
H 36.871 0.78 3.231
H 34.313 0.787 3.249
H 36.822 0.817 -5.682
H 34.242 0.821 -5.664
H 38.141 -1.487 3.216
H 35.582 -1.482 3.232
H 38.1 -1.456 -5.697
H 35.519 -1.454 -5.681
H 39.431 0.77 3.22
H 39.406 0.81 -5.694
H 40.701 -1.495 3.207
H 40.685 -1.459 -5.707
H -1.508 0.797 4.031
H -1.762 0.858 -4.874
H -4.077 0.801 4.105
H -6.649 0.806 4.176
H -4.324 0.865 -4.8
H -6.884 0.874 -4.729
H -2.803 -1.481 4.053
H -5.373 -1.477 4.125
H -3.05 -1.425 -4.852
H -5.612 -1.418 -4.78
H -9.221 0.812 4.244
H -11.795 0.819 4.307
H -9.443 0.883 -4.661
H -12 0.892 -4.599
H -7.945 -1.471 4.193
H -10.518 -1.465 4.258
H -8.172 -1.409 -4.712
H -10.73 -1.4 -4.648
H -14.369 0.827 4.364
H -16.943 0.836 4.415
H -14.557 0.902 -4.542
H -17.113 0.912 -4.492
H -13.092 -1.457 4.317
H -15.666 -1.449 4.371
H -13.287 -1.39 -4.589
H -15.843 -1.38 -4.536
H -19.515 0.845 4.461
H -19.669 0.922 -4.446
H -18.239 -1.44 4.419
H -18.4 -1.37 -4.488
H 20.069 -1.453 -5.467
H 5.936 0.841 -5.1
H 7.213 -1.447 -5.148
H 18.791 0.83 -5.433
H 17.496 -1.453 -5.412
H 4.645 -1.443 -5.075
H 16.218 0.831 -5.375
H 14.924 -1.453 -5.352
H 3.368 0.846 -5.025
H 2.078 -1.438 -5
H 13.646 0.833 -5.312
H 0.802 0.851 -4.949
H 12.353 -1.451 -5.288
H -0.487 -1.432 -4.926
H 11.075 0.835 -5.245
H 9.782 -1.449 -5.22
H 21.365 0.83 -5.486
H 22.643 -1.453 -5.517
H 8.505 0.838 -5.174
H 13.868 0.795 3.595
H 11.309 0.794 3.661
H 22.802 -1.477 3.393
H -0.235 -1.484 3.979
H 8.75 0.793 3.732
H 20.247 -1.478 3.442
H 10.019 -1.486 3.686
H 7.458 -1.487 3.757
H 3.625 0.793 3.88
H 4.896 -1.487 3.83
H 18.98 0.798 3.475
H 16.424 0.797 3.532
H 1.059 0.795 3.955
H 15.136 -1.482 3.555
H 12.578 -1.484 3.619
H 21.535 0.799 3.423
H 6.188 0.793 3.805
H 17.692 -1.48 3.496
H 2.332 -1.486 3.904
C 41.993 0.782 -2.026
C 41.992 0.774 -0.461
C 41.991 0.762 2.125
C 41.994 0.795 -4.609
C 43.271 -1.48 -2.036
C 43.267 -1.488 -0.471
C 41.984 -0.731 0.052
C 41.985 -0.719 -2.552
C 43.264 -1.5 2.116
C 41.984 -0.738 1.619
C 43.276 -1.469 -4.619
C 41.985 -0.713 -4.119
C 43.288 1.534 -2.54
C 43.282 1.52 0.064
C 43.278 1.512 1.63
C 43.292 1.541 -4.107
C 44.569 -0.729 -2.549
C 44.559 -0.742 0.055
C 45.859 1.503 0.073
C 44.576 0.77 -2.022
C 44.569 0.761 -0.457
C 45.876 1.518 -2.531
C 44.554 -0.749 1.622
C 44.559 0.748 2.129
C 45.85 1.495 1.639
C 44.576 -0.721 -4.115
C 45.886 1.525 -4.098
C 44.587 0.784 -4.605
C 45.857 -1.488 -2.028
C 45.847 -1.497 -0.463
C 45.833 -1.511 2.123
C 45.872 -1.474 -4.611
H 41.992 0.758 3.215
H 41.995 0.801 -5.699
H 43.263 -1.504 3.206
H 43.277 -1.463 -5.709
H 44.556 0.743 3.219
H 44.592 0.79 -5.695
H 45.828 -1.516 3.213
H 45.878 -1.468 -5.701
C 47.166 0.756 -2.007
C 47.152 0.746 -0.442
C 47.13 0.731 2.144
C 47.188 0.77 -4.589
C 48.451 -1.497 -2.008
C 48.434 -1.508 -0.443
C 47.14 -0.755 0.069
C 47.162 -0.74 -2.534
C 48.407 -1.524 2.143
C 47.128 -0.763 1.636
C 48.478 -1.481 -4.59
C 47.175 -0.732 -4.101
C 48.473 1.498 -2.509
C 48.444 1.483 0.094
C 48.426 1.475 1.661
C 48.491 1.505 -4.075
C 49.766 -0.753 -2.506
C 49.73 -0.771 0.097
C 51.037 1.46 0.13
C 49.766 0.738 -1.978
C 49.744 0.727 -0.413
C 51.082 1.476 -2.471
C 49.71 -0.78 1.663
C 49.708 0.712 2.171
C 51.01 1.452 1.696
C 49.787 -0.745 -4.072
C 51.108 1.482 -4.037
C 49.803 0.753 -4.559
C 51.058 -1.508 -1.972
C 51.032 -1.522 -0.408
C 50.99 -1.54 2.175
C 51.1 -1.489 -4.553
H 47.123 0.726 3.234
H 47.199 0.776 -5.679
H 48.397 -1.531 3.232
H 48.49 -1.475 -5.68
H 49.695 0.705 3.261
H 49.82 0.759 -5.649
H 50.973 -1.549 3.265
H 51.119 -1.482 -5.642
C 52.381 0.719 -1.932
C 52.349 0.707 -0.368
C 52.295 0.69 2.214
C 52.434 0.734 -4.511
C 53.685 -1.521 -1.918
C 53.648 -1.538 -0.355
C 52.334 -0.79 0.14
C 52.386 -0.769 -2.459
C 53.587 -1.56 2.224
C 52.303 -0.8 1.705
C 53.743 -1.497 -4.494
C 52.416 -0.759 -4.025
C 53.707 1.453 -2.413
C 53.645 1.436 0.185
C 53.604 1.427 1.75
C 53.745 1.457 -3.979
C 55.035 -0.786 -2.389
C 54.962 -0.812 0.204
C 56.271 1.416 0.267
C 55.02 0.701 -1.863
C 54.975 0.685 -0.299
C 56.357 1.436 -2.33
C 54.916 -0.824 1.769
C 54.896 0.665 2.278
C 56.212 1.406 1.833
C 55.074 -0.774 -3.954
C 56.408 1.436 -3.896
C 55.093 0.714 -4.437
C 56.346 -1.539 -1.84
C 56.296 -1.559 -0.277
C 56.208 -1.587 2.296
C 56.42 -1.506 -4.41
H 52.274 0.681 3.304
H 52.46 0.739 -5.6
H 53.562 -1.573 3.314
H 53.771 -1.488 -5.584
H 54.864 0.652 3.368
H 55.129 0.716 -5.527
H 56.167 -1.608 3.385
H 56.457 -1.492 -5.499
C 57.697 0.696 -1.764
C 57.637 0.678 -0.194
C 57.519 0.651 2.377
C 57.795 0.705 -4.33
C 59.071 -1.57 -1.728
C 59.006 -1.589 -0.156
C 57.634 -0.838 0.3
C 57.734 -0.805 -2.287
C 58.875 -1.62 2.425
C 57.567 -0.851 1.871
C 59.167 -1.525 -4.307
C 57.786 -0.792 -3.858
C 59.035 1.475 -2.215
C 58.918 1.456 0.402
C 58.836 1.441 1.972
C 59.106 1.475 -3.786
C 60.489 -0.746 -2.131
C 60.35 -0.762 0.489
C 61.647 1.519 0.637
C 60.406 0.774 -1.605
C 60.328 0.762 -0.02
C 61.798 1.536 -2.035
C 60.253 -0.782 2.065
C 60.161 0.729 2.554
C 61.543 1.497 2.188
C 60.568 -0.739 -3.707
C 61.892 1.534 -3.586
C 60.547 0.781 -4.176
C 61.916 -1.287 -1.474
C 61.824 -1.289 0.074
C 61.639 -1.286 2.775
C 62.07 -1.272 -4.149
H 57.464 0.629 3.465
H 57.84 0.701 -5.419
H 58.805 -1.658 3.511
H 59.226 -1.484 -5.394
H 60.07 0.727 3.639
H 60.624 0.795 -5.262
H 61.528 -1.168 3.852
H 62.144 -1.233 -5.235
H 62.118 -2.299 -1.756
H 61.973 -2.287 0.429
H 61.842 -2.326 2.668
H 62.222 -2.303 -3.896
C 63.178 0.932 -1.38
C 63.085 0.922 0.205
C 62.905 0.892 2.806
C 63.35 0.937 -3.978
C 64.614 -1.183 -1.264
C 64.508 -1.198 0.291
C 63.099 -0.549 0.729
C 63.271 -0.535 -1.914
C 64.32 -1.219 2.976
C 62.994 -0.569 2.317
C 64.8 -1.155 -3.949
C 63.37 -0.534 -3.501
C 64.566 1.677 -1.806
C 64.4 1.654 0.872
C 64.291 1.631 2.424
C 64.672 1.679 -3.358
H 62.815 0.905 3.892
H 63.437 0.963 -5.064
H 64.231 -1.163 4.06
H 64.887 -1.072 -5.031
H 64.506 -2.245 0.588
H 64.67 -2.225 -1.578
H 64.361 -2.286 2.766
H 64.817 -2.226 -3.763
H -72.299 2.768 -0.758
H -72.405 2.777 1.345
H -72.546 2.731 3.552
H -72.146 2.729 -2.973
H -74.818 2.855 -1.043
H -74.991 2.897 1.071
H -75.188 2.871 3.279
H -74.587 2.76 -3.248
H 64.505 2.722 -1.511
H 61.738 2.58 -1.745
H 61.64 2.568 0.356
H 61.879 2.562 -3.944
H 64.233 2.655 2.794
H 64.666 2.709 -3.715
H 61.482 2.517 2.558
H 64.396 2.705 0.589
H -61.867 -1.206 -3.827
H -20.956 -1.36 -4.445
C -54.152 6.23 -0.617
C -54.106 6.19 1.989
C -54.078 6.165 3.556
C -54.179 6.255 -2.184
C -50.306 5.477 -0.192
C -50.274 5.457 1.373
C -52.883 3.976 -0.677
C -52.837 3.939 1.929
C -51.542 6.203 1.933
C -52.865 5.47 -0.135
C -52.836 5.448 1.43
C -51.594 6.238 -0.673
C -50.22 5.423 3.959
C -52.81 3.916 3.496
C -52.787 5.41 4.017
C -51.511 6.181 3.499
C -50.36 5.511 -2.778
C -52.91 3.999 -2.243
C -51.625 6.26 -2.239
C -52.914 5.508 -2.722
C -49.036 3.215 -0.249
C -49.006 3.197 1.316
C -50.273 3.946 1.874
C -51.596 3.213 -0.193
C -51.567 3.193 1.372
C -50.324 3.979 -0.731
C -48.953 3.165 3.901
C -51.519 3.158 3.958
C -50.243 3.925 3.44
C -49.089 3.246 -2.835
C -50.354 4 -2.298
C -51.644 3.247 -2.78
C -49.036 6.246 -0.732
C -48.981 6.214 1.873
C -48.948 6.194 3.439
C -49.069 6.266 -2.299
C -45.19 5.489 -0.311
C -45.157 5.472 1.254
C -47.766 3.983 -0.789
C -47.712 3.952 1.816
C -46.423 6.223 1.812
C -47.748 5.484 -0.251
C -47.715 5.465 1.313
C -46.478 6.253 -0.793
C -45.102 5.443 3.839
C -47.68 3.934 3.382
C -47.659 5.434 3.899
C -46.389 6.206 3.378
C -45.245 5.518 -2.896
C -47.798 4.001 -2.356
C -46.512 6.271 -2.359
C -47.803 5.514 -2.837
C -43.92 3.218 -0.364
C -43.888 3.202 1.201
C -45.154 3.957 1.757
C -46.478 3.217 -0.307
C -46.446 3.2 1.258
C -45.207 3.985 -0.847
C -43.835 3.175 3.786
C -46.392 3.171 3.843
C -45.122 3.94 3.324
C -43.972 3.245 -2.948
C -45.239 4.002 -2.414
C -46.532 3.246 -2.892
C -43.92 6.259 -0.851
C -43.866 6.231 1.753
C -43.833 6.214 3.319
C -43.953 6.276 -2.418
C -40.074 5.495 -0.421
C -40.044 5.479 1.144
C -42.649 3.987 -0.903
C -42.597 3.961 1.701
C -41.31 6.236 1.697
C -42.632 5.493 -0.368
C -42.6 5.476 1.197
C -41.361 6.263 -0.906
C -39.994 5.454 3.729
C -42.566 3.945 3.267
C -42.547 5.45 3.782
C -41.279 6.221 3.264
C -40.123 5.521 -3.004
C -42.68 4.003 -2.47
C -41.392 6.279 -2.473
C -42.685 5.52 -2.952
C -38.803 3.218 -0.468
C -38.774 3.203 1.097
C -40.04 3.962 1.649
C -41.361 3.219 -0.418
C -41.331 3.203 1.147
C -40.09 3.988 -0.955
C -38.727 3.179 3.682
C -41.28 3.178 3.732
C -40.011 3.947 3.215
C -38.85 3.243 -3.051
C -40.119 4.003 -2.522
C -41.412 3.244 -3.002
C -38.802 6.266 -0.957
C -38.754 6.24 1.647
C -38.725 6.224 3.213
C -38.831 6.281 -2.523
C -34.956 5.495 -0.512
C -34.93 5.48 1.053
C -37.53 3.987 -1.003
C -37.484 3.962 1.601
C -36.198 6.24 1.601
C -37.515 5.496 -0.469
C -37.487 5.481 1.096
C -36.242 6.266 -1.002
C -34.888 5.455 3.637
C -37.456 3.948 3.167
C -37.441 5.456 3.681
C -36.171 6.226 3.168
C -34.998 5.52 -3.094
C -37.558 4.002 -2.569
C -36.269 6.281 -2.569
C -37.561 5.522 -3.052
C -33.684 3.213 -0.553
C -33.659 3.198 1.012
C -34.927 3.961 1.558
C -36.243 3.216 -0.513
C -36.217 3.201 1.052
C -34.97 3.985 -1.045
C -33.618 3.175 3.595
C -36.173 3.178 3.636
C -34.901 3.946 3.124
C -33.724 3.236 -3.136
C -34.995 4 -2.612
C -36.287 3.24 -3.096
C -33.682 6.265 -1.043
C -33.641 6.239 1.56
C -33.616 6.224 3.127
C -33.707 6.28 -2.609
C -29.836 5.487 -0.585
C -29.812 5.473 0.98
C -32.409 3.981 -1.084
C -32.369 3.957 1.519
C -31.083 6.236 1.524
C -32.396 5.492 -0.55
C -32.372 5.477 1.015
C -31.122 6.261 -1.079
C -29.775 5.448 3.563
C -32.345 3.943 3.086
C -32.332 5.452 3.598
C -31.059 6.221 3.09
C -29.873 5.512 -3.168
C -32.433 3.996 -2.65
C -31.145 6.276 -2.646
C -32.435 5.517 -3.133
C -28.563 3.202 -0.625
C -28.54 3.188 0.94
C -29.81 3.952 1.483
C -31.124 3.208 -0.59
C -31.1 3.194 0.975
C -29.849 3.976 -1.119
C -28.503 3.164 3.523
C -31.062 3.17 3.558
C -29.787 3.937 3.05
C -28.6 3.225 -3.207
C -29.872 3.991 -2.685
C -31.162 3.232 -3.173
C -28.561 6.256 -1.113
C -28.523 6.231 1.489
C -28.5 6.216 3.056
C -28.584 6.271 -2.68
C -24.714 5.474 -0.653
C -24.69 5.459 0.911
C -27.288 3.97 -1.153
C -27.249 3.945 1.449
C -25.961 6.224 1.455
C -27.275 5.481 -0.619
C -27.252 5.467 0.946
C -26 6.249 -1.147
C -24.652 5.434 3.494
C -27.226 3.931 3.016
C -27.215 5.442 3.528
C -25.938 6.209 3.022
C -24.753 5.499 -3.236
C -27.311 3.984 -2.719
C -26.023 6.265 -2.713
C -27.312 5.506 -3.202
C -23.441 3.186 -0.694
C -23.416 3.172 0.871
C -24.687 3.938 1.415
C -26.002 3.194 -0.659
C -25.978 3.18 0.906
C -24.727 3.962 -1.187
C -23.376 3.148 3.453
C -25.941 3.156 3.488
C -24.663 3.923 2.981
C -23.48 3.21 -3.276
C -24.75 3.977 -2.754
C -26.04 3.218 -3.241
C -23.439 6.241 -1.182
C -23.398 6.216 1.42
C -23.374 6.201 2.986
C -23.463 6.257 -2.748
C -22.165 3.953 -1.224
C -22.123 3.929 1.378
C -20.834 6.208 1.381
C -22.153 5.465 -0.69
C -22.127 5.451 0.875
C -20.878 6.233 -1.22
C -22.098 3.914 2.944
C -22.086 5.426 3.457
C -20.808 6.192 2.948
C -22.19 3.968 -2.79
C -20.904 6.248 -2.787
C -22.194 5.491 -3.272
C -20.879 3.177 -0.733
C -20.852 3.163 0.832
C -20.809 3.139 3.414
C -20.921 3.201 -3.315
C -59.271 6.214 -0.533
C -59.245 6.162 2.074
C -59.23 6.128 3.64
C -59.283 6.247 -2.098
C -55.425 5.463 -0.083
C -55.401 5.438 1.482
C -58.004 3.969 -0.591
C -57.978 3.923 2.016
C -56.673 6.176 2.038
C -57.987 5.456 -0.042
C -57.969 5.428 1.523
C -56.711 6.222 -0.569
C -55.359 5.395 4.068
C -57.964 3.893 3.582
C -57.938 5.379 4.109
C -56.651 6.147 3.604
C -55.466 5.505 -2.672
C -58.017 3.999 -2.157
C -56.732 6.25 -2.136
C -58.016 5.505 -2.631
C -54.156 3.211 -0.142
C -54.132 3.188 1.423
C -55.405 3.931 1.978
C -56.719 3.209 -0.1
C -56.701 3.184 1.465
C -55.442 3.972 -0.629
C -54.091 3.149 4.009
C -56.671 3.14 4.051
C -55.383 3.905 3.544
C -54.198 3.249 -2.73
C -55.464 3.998 -2.195
C -56.75 3.253 -2.689
C -64.394 6.207 -0.514
C -64.399 6.141 2.097
C -64.399 6.093 3.662
C -64.381 6.246 -2.079
C -60.551 5.45 -0.015
C -60.541 5.419 1.549
C -63.133 3.968 -0.566
C -63.144 3.909 2.039
C -61.821 6.149 2.094
C -63.119 5.447 -0.007
C -63.117 5.412 1.557
C -61.832 6.209 -0.512
C -60.524 5.361 4.136
C -63.15 3.868 3.605
C -63.115 5.343 4.143
C -61.814 6.109 3.66
C -60.564 5.505 -2.605
C -63.122 4.005 -2.131
C -61.833 6.246 -2.077
C -63.109 5.508 -2.597
C -59.285 3.208 -0.071
C -59.276 3.181 1.494
C -60.558 3.915 2.038
C -61.855 3.208 -0.06
C -61.856 3.178 1.504
C -60.567 3.968 -0.569
C -59.259 3.13 4.08
C -61.858 3.121 4.09
C -60.553 3.88 3.604
C -59.3 3.257 -2.661
C -60.57 4.002 -2.134
C -61.849 3.264 -2.649
C -65.688 5.449 -0.029
C -65.697 5.413 1.546
C -68.266 3.987 -0.673
C -68.323 3.926 1.976
C -66.976 6.146 2.093
C -68.225 5.446 -0.066
C -68.242 5.413 1.492
C -66.957 6.215 -0.56
C -65.704 5.329 4.135
C -68.356 3.881 3.557
C -68.26 5.325 4.185
C -66.983 6.098 3.676
C -65.649 5.511 -2.622
C -68.223 4.019 -2.254
C -66.935 6.251 -2.142
C -68.164 5.501 -2.76
C -64.43 3.211 -0.073
C -64.444 3.179 1.491
C -65.735 3.908 2.016
C -67.009 3.218 -0.124
C -67.038 3.187 1.449
C -65.702 3.971 -0.594
C -64.467 3.111 4.076
C -67.082 3.109 4.037
C -65.753 3.86 3.582
C -64.396 3.271 -2.662
C -65.672 4.01 -2.158
C -66.937 3.275 -2.715
C -69.555 3.234 -0.201
C -69.597 3.212 1.351
C -69.669 3.133 4.035
C -69.451 3.272 -2.886
H -34.871 5.447 4.727
H -37.422 5.448 4.77
H -35.016 5.534 -4.184
H -37.581 5.536 -4.142
H -33.602 3.167 4.685
H -36.156 3.17 4.726
H -33.741 3.25 -4.226
H -36.306 3.254 -4.185
H -29.761 5.44 4.652
H -32.317 5.445 4.688
H -29.888 5.527 -4.258
H -32.451 5.531 -4.222
H -28.488 3.156 4.613
H -31.047 3.162 4.648
H -28.615 3.239 -4.297
H -31.178 3.245 -4.262
H -24.637 5.426 4.583
H -27.2 5.434 4.618
H -24.767 5.513 -4.325
H -27.327 5.521 -4.291
H -23.361 3.14 4.542
H -25.926 3.149 4.578
H -23.496 3.223 -4.366
H -26.055 3.232 -4.331
H -22.069 5.417 4.546
H -22.21 5.505 -4.362
H -20.792 3.131 4.504
H -20.939 3.214 -4.404
H -63.115 5.314 5.233
H -63.108 5.536 -3.687
H -65.697 5.283 5.225
H -68.218 5.242 5.271
H -65.619 5.534 -3.711
H -68.086 5.509 -3.846
H -64.479 3.082 5.165
H -67.092 3.063 5.126
H -64.384 3.296 -3.752
H -66.893 3.295 -3.804
H -69.651 3.041 5.12
H -69.358 3.271 -3.971
H -41.435 3.258 -4.091
H -55.487 5.525 -3.762
H -54.219 3.267 -3.82
H -42.709 5.535 -4.042
H -43.997 3.259 -4.038
H -56.766 3.272 -3.779
H -45.27 5.533 -3.986
H -46.557 3.26 -3.982
H -58.033 5.526 -3.721
H -59.31 3.279 -3.75
H -47.83 5.53 -3.927
H -60.574 5.53 -3.694
H -49.114 3.262 -3.925
H -61.851 3.288 -3.739
H -50.386 5.528 -3.868
H -51.668 3.264 -3.87
H -40.145 5.536 -4.094
H -38.871 3.256 -4.141
H -52.938 5.526 -3.812
H -47.634 5.424 4.989
H -50.196 5.411 5.049
H -38.707 3.171 4.771
H -61.859 3.097 5.18
H -52.764 5.397 5.106
H -41.259 3.17 4.822
H -51.497 3.145 5.047
H -54.072 3.134 5.099
H -57.924 5.36 5.199
H -56.656 3.123 5.141
H -42.524 5.441 4.872
H -45.078 5.434 4.929
H -60.517 5.338 5.226
H -46.369 3.161 4.933
H -48.93 3.154 4.991
H -39.973 5.446 4.819
H -55.34 5.379 5.158
H -43.812 3.167 4.876
H -59.251 3.11 5.17
C 7.323 6.154 -1.953
C 7.397 6.136 0.647
C 7.442 6.126 2.213
C 7.279 6.164 -3.519
C 11.185 5.381 -1.551
C 11.226 5.372 0.014
C 8.6 3.87 -2.006
C 8.672 3.854 0.595
C 9.961 6.135 0.573
C 8.619 5.383 -1.478
C 8.662 5.373 0.086
C 9.889 6.151 -2.028
C 11.296 5.357 2.595
C 8.716 3.845 2.161
C 8.736 5.357 2.668
C 10.004 6.125 2.139
C 11.116 5.397 -4.132
C 8.557 3.878 -3.572
C 9.846 6.161 -3.594
C 8.547 5.399 -4.059
C 12.461 3.098 -1.598
C 12.501 3.09 -0.034
C 11.235 3.853 0.523
C 9.895 3.1 -1.528
C 9.938 3.091 0.036
C 11.166 3.868 -2.078
C 12.569 3.077 2.548
C 10.008 3.077 2.618
C 11.277 3.845 2.089
C 12.395 3.111 -4.179
C 11.125 3.876 -3.644
C 9.826 3.114 -4.109
C 12.456 6.149 -2.1
C 12.523 6.134 0.501
C 12.565 6.125 2.067
C 12.415 6.158 -3.666
C 16.317 5.379 -1.685
C 16.353 5.37 -0.12
C 13.733 3.866 -2.146
C 13.798 3.853 0.455
C 15.086 6.133 0.434
C 13.751 5.38 -1.62
C 13.79 5.371 -0.056
C 15.022 6.148 -2.167
C 16.414 5.357 2.463
C 13.838 3.845 2.021
C 13.856 5.357 2.527
C 15.124 6.124 2
C 16.256 5.392 -4.266
C 13.694 3.874 -3.713
C 14.984 6.156 -3.733
C 13.686 5.394 -4.201
C 17.593 3.097 -1.726
C 17.628 3.089 -0.161
C 16.36 3.852 0.391
C 15.027 3.098 -1.664
C 15.065 3.09 -0.1
C 16.3 3.865 -2.21
C 17.686 3.078 2.422
C 15.128 3.077 2.483
C 16.397 3.845 1.957
C 17.536 3.108 -4.307
C 16.264 3.872 -3.777
C 14.965 3.11 -4.245
C 17.589 6.146 -2.229
C 17.648 6.132 0.372
C 17.683 6.124 1.938
C 17.554 6.154 -3.796
C 21.449 5.376 -1.797
C 21.478 5.368 -0.232
C 18.867 3.864 -2.269
C 18.922 3.852 0.332
C 20.209 6.131 0.316
C 18.882 5.377 -1.744
C 18.916 5.369 -0.179
C 20.156 6.144 -2.286
C 21.529 5.355 2.351
C 18.956 3.845 1.899
C 18.972 5.356 2.404
C 20.242 6.123 1.882
C 21.399 5.388 -4.379
C 18.834 3.871 -3.836
C 20.125 6.152 -3.852
C 18.828 5.39 -4.325
C 22.725 3.095 -1.831
C 22.753 3.088 -0.266
C 21.484 3.851 0.28
C 20.159 3.096 -1.781
C 20.191 3.089 -0.217
C 21.434 3.863 -2.322
C 22.8 3.077 2.317
C 20.243 3.078 2.367
C 21.514 3.844 1.846
C 22.679 3.105 -4.413
C 21.404 3.869 -3.889
C 20.107 3.107 -4.363
C 22.724 6.142 -2.336
C 22.771 6.128 0.266
C 22.799 6.121 1.832
C 22.696 6.149 -3.903
C 26.581 5.37 -1.885
C 26.604 5.361 -0.32
C 24.001 3.861 -2.37
C 24.045 3.849 0.233
C 25.332 6.125 0.222
C 24.015 5.373 -1.845
C 24.041 5.365 -0.28
C 25.292 6.138 -2.381
C 26.642 5.349 2.264
C 24.072 3.843 1.799
C 24.085 5.353 2.304
C 25.357 6.117 1.788
C 26.544 5.382 -4.467
C 23.975 3.867 -3.936
C 25.267 6.146 -3.947
C 23.972 5.386 -4.426
C 27.858 3.09 -1.913
C 27.879 3.083 -0.348
C 26.607 3.846 0.192
C 25.291 3.093 -1.875
C 25.316 3.086 -0.31
C 26.569 3.858 -2.41
C 27.914 3.073 2.236
C 25.357 3.076 2.274
C 26.63 3.84 1.759
C 27.824 3.101 -4.495
C 26.547 3.864 -3.977
C 25.251 3.103 -4.457
C 27.86 6.134 -2.418
C 27.894 6.12 0.185
C 27.915 6.112 1.751
C 27.839 6.141 -3.985
C 31.716 5.358 -1.948
C 31.731 5.349 -0.383
C 29.138 3.854 -2.445
C 29.169 3.842 0.158
C 30.457 6.113 0.154
C 29.148 5.365 -1.92
C 29.167 5.356 -0.355
C 30.429 6.127 -2.449
C 31.757 5.336 2.202
C 29.189 3.835 1.724
C 29.199 5.343 2.23
C 30.474 6.105 1.72
C 31.691 5.371 -4.53
C 29.119 3.861 -4.012
C 30.412 6.135 -4.016
C 29.118 5.377 -4.502
C 32.994 3.08 -1.971
C 33.008 3.073 -0.406
C 31.733 3.836 0.129
C 30.426 3.086 -1.945
C 30.443 3.079 -0.38
C 31.707 3.848 -2.474
C 33.031 3.061 2.179
C 30.472 3.068 2.205
C 31.749 3.829 1.696
C 32.972 3.092 -4.553
C 31.692 3.855 -4.041
C 30.397 3.097 -4.527
C 32.998 6.118 -2.475
C 33.02 6.104 0.129
C 33.034 6.095 1.695
C 32.985 6.127 -4.041
C 34.278 3.841 -2.497
C 34.297 3.828 0.106
C 35.584 6.092 0.11
C 34.285 5.349 -1.97
C 34.296 5.34 -0.405
C 35.569 6.107 -2.494
C 34.309 3.82 1.673
C 34.316 5.326 2.18
C 35.594 6.083 1.676
C 34.266 3.848 -4.064
C 35.56 6.116 -4.061
C 34.266 5.363 -4.553
C 35.564 3.073 -1.991
C 35.574 3.065 -0.426
C 35.591 3.053 2.159
C 35.548 3.085 -4.574
C 2.191 6.161 -1.798
C 2.268 6.141 0.803
C 2.314 6.129 2.369
C 2.145 6.173 -3.364
C 6.053 5.386 -1.402
C 6.098 5.375 0.162
C 3.468 3.875 -1.854
C 3.543 3.858 0.747
C 4.833 6.138 0.724
C 3.488 5.389 -1.325
C 3.533 5.378 0.24
C 4.757 6.157 -1.876
C 6.173 5.358 2.743
C 3.589 3.847 2.313
C 3.609 5.359 2.821
C 4.878 6.127 2.29
C 5.979 5.403 -3.983
C 3.423 3.886 -3.42
C 4.712 6.168 -3.442
C 3.412 5.407 -3.905
C 7.33 3.102 -1.455
C 7.373 3.092 0.11
C 6.108 3.856 0.67
C 4.764 3.104 -1.379
C 4.809 3.094 0.185
C 6.034 3.872 -1.93
C 7.447 3.077 2.691
C 4.884 3.078 2.766
C 6.153 3.845 2.236
C 7.257 3.117 -4.035
C 5.99 3.882 -3.496
C 4.69 3.12 -3.96
C -2.939 6.172 -1.641
C -2.865 6.15 0.959
C -2.82 6.137 2.525
C -2.983 6.185 -3.207
C 0.922 5.393 -1.246
C 0.968 5.382 0.318
C -1.662 3.885 -1.699
C -1.588 3.865 0.902
C -0.298 6.145 0.881
C -1.643 5.398 -1.168
C -1.598 5.386 0.396
C -0.374 6.166 -1.719
C 1.044 5.362 2.899
C -1.543 3.853 2.468
C -1.523 5.365 2.977
C -0.252 6.132 2.447
C 0.846 5.413 -3.827
C -1.707 3.897 -3.265
C -0.42 6.178 -3.285
C -1.718 5.419 -3.749
C 2.198 3.108 -1.302
C 2.243 3.097 0.262
C 0.978 3.861 0.825
C -0.367 3.112 -1.225
C -0.322 3.101 0.339
C 0.903 3.88 -1.776
C 2.319 3.079 2.843
C -0.247 3.082 2.92
C 1.024 3.849 2.39
C 2.124 3.125 -3.883
C 0.858 3.891 -3.342
C -0.441 3.131 -3.806
C -8.067 6.186 -1.495
C -7.999 6.163 1.106
C -7.958 6.149 2.672
C -8.107 6.201 -3.061
C -4.208 5.404 -1.092
C -4.165 5.392 0.472
C -6.791 3.899 -1.551
C -6.722 3.877 1.05
C -5.432 6.156 1.034
C -6.773 5.411 -1.019
C -6.731 5.399 0.546
C -5.503 6.179 -1.566
C -4.092 5.37 3.053
C -6.68 3.863 2.616
C -6.661 5.375 3.126
C -5.388 6.142 2.6
C -4.281 5.426 -3.673
C -6.832 3.912 -3.117
C -5.546 6.192 -3.132
C -6.842 5.434 -3.6
C -2.932 3.118 -1.149
C -2.888 3.106 0.416
C -4.155 3.871 0.977
C -5.497 3.124 -1.075
C -5.455 3.112 0.49
C -4.227 3.891 -1.623
C -2.815 3.086 2.996
C -5.384 3.091 3.07
C -4.111 3.858 2.543
C -3.005 3.137 -3.73
C -4.27 3.904 -3.189
C -5.568 3.145 -3.656
C -13.193 6.204 -1.367
C -13.134 6.18 1.234
C -13.099 6.164 2.8
C -13.227 6.219 -2.933
C -9.337 5.419 -0.95
C -9.298 5.406 0.615
C -11.918 3.915 -1.419
C -11.857 3.893 1.182
C -10.567 6.171 1.173
C -11.901 5.428 -0.886
C -11.865 5.415 0.679
C -10.63 6.195 -1.428
C -9.233 5.382 3.195
C -11.821 3.878 2.748
C -11.804 5.39 3.259
C -10.528 6.156 2.739
C -9.403 5.443 -3.531
C -11.954 3.93 -2.985
C -10.668 6.21 -2.994
C -11.962 5.452 -3.468
C -8.062 3.132 -1.005
C -8.022 3.119 0.56
C -9.29 3.885 1.119
C -10.626 3.14 -0.939
C -10.588 3.127 0.626
C -9.355 3.907 -1.482
C -7.955 3.097 3.14
C -10.526 3.104 3.206
C -9.25 3.87 2.685
C -8.129 3.153 -3.586
C -9.394 3.921 -3.048
C -10.688 3.162 -3.52
C -18.317 6.223 -1.263
C -18.268 6.199 1.338
C -18.239 6.183 2.905
C -18.345 6.239 -2.829
C -14.465 5.437 -0.828
C -14.431 5.424 0.737
C -17.042 3.934 -1.31
C -16.992 3.911 1.291
C -15.702 6.189 1.289
C -17.028 5.447 -0.776
C -16.997 5.433 0.789
C -15.755 6.214 -1.312
C -14.376 5.399 3.317
C -16.961 3.896 2.858
C -16.947 5.408 3.369
C -15.67 6.173 2.856
C -14.52 5.462 -3.41
C -17.072 3.949 -2.876
C -15.787 6.229 -2.878
C -17.078 5.472 -3.358
C -13.19 3.149 -0.878
C -13.155 3.136 0.686
C -14.425 3.902 1.24
C -15.753 3.158 -0.824
C -15.721 3.145 0.741
C -14.48 3.925 -1.361
C -13.098 3.112 3.267
C -15.669 3.121 3.322
C -14.391 3.886 2.806
C -13.247 3.172 -3.46
C -14.513 3.94 -2.927
C -15.805 3.182 -3.406
C -19.591 5.456 -0.731
C -19.563 5.442 0.834
C -19.517 5.417 3.416
C -19.635 5.482 -3.313
C -18.316 3.167 -0.775
C -18.287 3.154 0.789
C -19.558 3.92 1.337
C -19.604 3.944 -1.264
C -18.24 3.13 3.371
C -19.531 3.905 2.904
C -18.363 3.191 -3.357
C -19.631 3.959 -2.83
H 26.659 5.346 3.354
H 24.105 5.35 3.394
H 26.53 5.39 -5.557
H 23.954 5.393 -5.516
H 27.93 3.071 3.326
H 25.375 3.074 3.363
H 27.81 3.107 -5.585
H 25.235 3.11 -5.547
H 31.769 5.333 3.292
H 29.213 5.341 3.32
H 31.682 5.379 -5.62
H 29.105 5.385 -5.592
H 33.042 3.059 3.269
H 30.485 3.066 3.295
H 32.963 3.099 -5.643
H 30.386 3.104 -5.617
H 34.325 5.322 3.27
H 34.26 5.371 -5.643
H 35.599 3.049 3.249
H 35.542 3.093 -5.664
H -1.49 5.358 4.066
H -1.75 5.43 -4.838
H -4.059 5.362 4.142
H -6.631 5.368 4.215
H -4.312 5.438 -4.762
H -6.872 5.446 -4.689
H -2.783 3.079 4.085
H -5.353 3.084 4.159
H -3.037 3.148 -4.819
H -5.598 3.156 -4.745
H -9.204 5.374 4.285
H -11.778 5.382 4.349
H -9.43 5.455 -4.621
H -11.987 5.465 -4.557
H -7.925 3.09 4.23
H -10.499 3.097 4.296
H -8.157 3.165 -4.675
H -10.715 3.174 -4.609
H -14.352 5.39 4.407
H -16.926 5.399 4.459
H -14.543 5.475 -4.499
H -17.098 5.485 -4.448
H -13.073 3.104 4.357
H -15.647 3.113 4.411
H -13.271 3.184 -4.549
H -15.827 3.194 -4.495
H -19.499 5.408 4.505
H -19.653 5.495 -4.402
H -18.22 3.122 4.46
H -18.383 3.204 -4.447
H 20.086 3.114 -5.452
H 5.947 5.413 -5.072
H 7.226 3.125 -5.125
H 18.804 5.398 -5.415
H 17.512 3.115 -5.396
H 4.658 3.129 -5.049
H 16.231 5.4 -5.355
H 14.939 3.117 -5.335
H 3.38 5.418 -4.995
H 2.091 3.135 -4.972
H 13.658 5.403 -5.29
H 0.814 5.423 -4.916
H 12.367 3.119 -5.268
H -0.474 3.141 -4.895
H 11.086 5.405 -5.221
H 9.796 3.122 -5.198
H 21.379 5.396 -5.468
H 22.66 3.112 -5.502
H 8.516 5.409 -5.148
H 13.885 5.353 3.616
H 11.327 5.352 3.685
H 22.821 3.075 3.407
H -0.214 3.076 4.009
H 8.768 5.352 3.757
H 20.266 3.076 3.456
H 10.039 3.073 3.707
H 7.479 3.072 3.78
H 3.643 5.353 3.91
H 4.917 3.073 3.856
H 18.997 5.353 3.493
H 16.441 5.353 3.552
H 1.078 5.355 3.988
H 15.155 3.075 3.572
H 12.598 3.073 3.638
H 21.551 5.352 3.441
H 6.207 5.352 3.833
H 17.711 3.075 3.512
H 2.352 3.074 3.932
C 36.855 5.337 -1.987
C 36.863 5.328 -0.422
C 36.876 5.313 2.164
C 36.843 5.352 -4.57
C 38.136 3.063 -2.006
C 38.142 3.054 -0.44
C 36.863 3.817 0.089
C 36.85 3.831 -2.514
C 38.152 3.041 2.145
C 36.871 3.809 1.656
C 38.127 3.076 -4.588
C 36.842 3.839 -4.081
C 38.141 6.093 -2.507
C 38.15 6.077 0.097
C 38.156 6.067 1.663
C 38.136 6.102 -4.074
C 39.425 3.818 -2.525
C 39.43 3.803 0.079
C 40.718 6.058 0.09
C 39.427 5.322 -1.997
C 39.431 5.313 -0.432
C 40.716 6.075 -2.514
C 39.434 3.795 1.645
C 39.437 5.297 2.154
C 40.719 6.049 1.657
C 39.421 3.826 -4.092
C 40.715 6.084 -4.081
C 39.422 5.338 -4.58
C 40.711 3.05 -2.013
C 40.712 3.041 -0.448
C 40.715 3.028 2.138
C 40.709 3.064 -4.596
H 36.883 5.309 3.254
H 36.839 5.361 -5.659
H 38.158 3.038 3.235
H 38.123 3.084 -5.678
H 39.441 5.293 3.244
H 39.421 5.347 -5.67
H 40.718 3.023 3.228
H 40.709 3.072 -5.686
C 42.002 5.304 -2.001
C 42.001 5.294 -0.435
C 41.999 5.279 2.151
C 42.004 5.32 -4.584
C 43.29 3.034 -2.013
C 43.286 3.025 -0.448
C 42.001 3.787 0.075
C 42.003 3.802 -2.529
C 43.28 3.011 2.138
C 42 3.779 1.642
C 43.296 3.049 -4.596
C 42.004 3.81 -4.096
C 43.293 6.053 -2.513
C 43.287 6.037 0.091
C 43.284 6.028 1.657
C 43.297 6.062 -4.08
C 44.585 3.782 -2.524
C 44.574 3.767 0.08
C 45.859 6.012 0.1
C 44.58 5.282 -1.996
C 44.573 5.273 -0.431
C 45.874 6.028 -2.504
C 44.567 3.759 1.646
C 44.563 5.257 2.156
C 45.849 6.004 1.666
C 44.592 3.79 -4.091
C 45.883 6.036 -4.071
C 44.591 5.298 -4.579
C 45.873 3.016 -2.003
C 45.863 3.006 -0.438
C 45.848 2.992 2.148
C 45.89 3.029 -4.586
H 42.001 5.273 3.241
H 42.006 5.329 -5.673
H 43.28 3.006 3.228
H 43.3 3.056 -5.686
H 44.561 5.252 3.246
H 44.597 5.306 -5.669
H 45.843 2.986 3.238
H 45.898 3.037 -5.676
C 47.161 5.257 -1.981
C 47.149 5.248 -0.416
C 47.128 5.234 2.17
C 47.182 5.271 -4.564
C 48.463 2.993 -1.982
C 48.446 2.984 -0.417
C 47.151 3.744 0.095
C 47.173 3.759 -2.509
C 48.418 2.97 2.168
C 47.138 3.737 1.661
C 48.492 3.006 -4.564
C 47.187 3.766 -4.076
C 48.458 5.998 -2.484
C 48.433 5.985 0.119
C 48.416 5.977 1.685
C 48.473 6.005 -4.051
C 49.767 3.732 -2.481
C 49.733 3.719 0.122
C 51.008 5.957 0.15
C 49.746 5.229 -1.955
C 49.728 5.221 -0.39
C 51.044 5.968 -2.452
C 49.711 3.712 1.688
C 49.694 5.208 2.195
C 50.982 5.95 1.716
C 49.788 3.738 -4.047
C 51.065 5.97 -4.018
C 49.778 5.239 -4.537
C 51.061 2.969 -1.946
C 51.036 2.959 -0.381
C 50.992 2.946 2.203
C 51.104 2.979 -4.527
H 47.122 5.228 3.26
H 47.193 5.279 -5.654
H 48.409 2.964 3.258
H 48.506 3.013 -5.654
H 49.683 5.203 3.285
H 49.794 5.246 -5.627
H 50.976 2.94 3.293
H 51.125 2.984 -5.617
C 52.335 5.201 -1.914
C 52.309 5.194 -0.35
C 52.258 5.182 2.235
C 52.376 5.205 -4.496
C 53.668 2.945 -1.891
C 53.633 2.935 -0.327
C 52.32 3.693 0.165
C 52.369 3.705 -2.436
C 53.567 2.921 2.256
C 52.287 3.686 1.73
C 53.725 2.95 -4.471
C 52.398 3.707 -4.002
C 53.631 5.941 -2.408
C 53.583 5.933 0.199
C 53.545 5.926 1.764
C 53.656 5.938 -3.974
C 54.975 3.682 -2.375
C 54.909 3.672 0.23
C 56.154 5.924 0.283
C 54.924 5.182 -1.862
C 54.891 5.175 -0.287
C 56.213 5.93 -2.366
C 54.861 3.664 1.795
C 54.814 5.16 2.3
C 56.108 5.914 1.865
C 55.012 3.679 -3.941
C 56.245 5.927 -3.949
C 54.97 5.174 -4.447
C 56.282 2.932 -1.818
C 56.236 2.921 -0.245
C 56.139 2.902 2.339
C 56.352 2.927 -4.4
H 52.239 5.178 3.325
H 52.397 5.208 -5.586
H 53.542 2.914 3.345
H 53.754 2.951 -5.561
H 54.77 5.149 3.389
H 54.98 5.161 -5.538
H 56.087 2.887 3.428
H 56.375 2.913 -5.489
C 57.474 5.169 -1.777
C 57.436 5.162 -0.22
C 57.339 5.138 2.47
C 57.529 5.157 -4.467
C 58.856 2.958 -1.7
C 58.801 2.945 -0.149
C 57.489 3.679 0.337
C 57.574 3.689 -2.307
C 58.673 2.913 2.53
C 57.429 3.667 1.916
C 58.948 2.944 -4.378
C 57.623 3.686 -3.888
H 57.245 5.107 3.555
H 57.5 5.109 -5.555
H 58.568 2.869 3.613
H 58.937 2.884 -5.465
C -54.137 10.742 -0.55
C -54.082 10.702 2.057
C -54.048 10.679 3.623
C -54.17 10.766 -2.116
C -50.29 10.003 -0.134
C -50.255 9.983 1.431
C -52.865 8.493 -0.612
C -52.811 8.455 1.994
C -51.522 10.725 1.993
C -52.847 9.987 -0.07
C -52.814 9.964 1.495
C -51.581 10.76 -0.613
C -50.195 9.95 4.017
C -52.779 8.432 3.561
C -52.756 9.928 4.081
C -51.486 10.704 3.56
C -50.35 10.037 -2.721
C -52.897 8.516 -2.178
C -51.616 10.781 -2.179
C -52.904 10.024 -2.658
C -49.018 7.746 -0.194
C -48.984 7.726 1.371
C -50.251 8.471 1.932
C -51.576 7.734 -0.132
C -51.543 7.713 1.433
C -50.308 8.506 -0.673
C -48.926 7.694 3.957
C -51.488 7.678 4.019
C -50.217 8.451 3.499
C -49.076 7.778 -2.78
C -50.342 8.526 -2.24
C -51.631 7.77 -2.719
C -49.024 10.776 -0.678
C -48.964 10.744 1.928
C -48.928 10.725 3.494
C -49.06 10.795 -2.244
C -45.177 10.03 -0.261
C -45.142 10.012 1.304
C -47.751 8.517 -0.736
C -47.693 8.486 1.869
C -46.408 10.761 1.863
C -47.734 10.018 -0.198
C -47.698 9.999 1.367
C -46.467 10.791 -0.742
C -45.084 9.984 3.889
C -47.658 8.467 3.436
C -47.638 9.969 3.952
C -46.372 10.744 3.43
C -45.235 10.059 -2.846
C -47.785 8.536 -2.302
C -46.503 10.809 -2.308
C -47.794 10.048 -2.784
C -43.904 7.763 -0.315
C -43.871 7.746 1.249
C -45.136 8.498 1.807
C -46.461 7.755 -0.256
C -46.427 7.737 1.309
C -45.193 8.527 -0.797
C -43.815 7.719 3.835
C -46.369 7.708 3.895
C -45.102 8.481 3.374
C -43.959 7.792 -2.9
C -45.227 8.545 -2.364
C -46.518 7.785 -2.841
C -43.91 10.803 -0.803
C -43.853 10.775 1.802
C -43.819 10.759 3.368
C -43.944 10.82 -2.369
C -40.062 10.048 -0.374
C -40.031 10.031 1.191
C -42.635 8.535 -0.856
C -42.581 8.507 1.749
C -41.298 10.785 1.745
C -42.62 10.04 -0.32
C -42.587 10.023 1.245
C -41.351 10.813 -0.859
C -39.98 10.005 3.776
C -42.548 8.491 3.315
C -42.532 9.996 3.83
C -41.266 10.77 3.311
C -40.113 10.075 -2.958
C -42.667 8.552 -2.422
C -41.383 10.829 -2.426
C -42.675 10.068 -2.905
C -38.788 7.773 -0.422
C -38.758 7.757 1.143
C -40.025 8.514 1.695
C -41.346 7.77 -0.371
C -41.315 7.753 1.194
C -40.076 8.541 -0.909
C -38.71 7.732 3.727
C -41.262 7.727 3.778
C -39.995 8.499 3.261
C -38.836 7.8 -3.006
C -40.106 8.557 -2.475
C -41.398 7.797 -2.955
C -38.792 10.82 -0.911
C -38.743 10.793 1.693
C -38.714 10.778 3.26
C -38.822 10.836 -2.477
C -34.945 10.055 -0.466
C -34.919 10.039 1.099
C -37.517 8.544 -0.957
C -37.47 8.518 1.646
C -36.188 10.797 1.647
C -37.504 10.052 -0.423
C -37.476 10.036 1.142
C -36.233 10.824 -0.956
C -34.876 10.013 3.684
C -37.442 8.503 3.213
C -37.429 10.011 3.727
C -36.161 10.782 3.214
C -34.988 10.081 -3.049
C -37.545 8.56 -2.524
C -36.26 10.839 -2.523
C -37.55 10.079 -3.006
C -33.67 7.774 -0.508
C -33.645 7.759 1.057
C -34.914 8.519 1.603
C -36.229 7.775 -0.468
C -36.202 7.759 1.097
C -34.957 8.545 -1
C -33.604 7.734 3.64
C -36.158 7.734 3.681
C -34.888 8.504 3.17
C -33.71 7.8 -3.091
C -34.983 8.561 -2.566
C -36.273 7.801 -3.051
C -33.673 10.825 -0.996
C -33.631 10.799 1.607
C -33.606 10.784 3.173
C -33.698 10.841 -2.563
C -29.826 10.051 -0.539
C -29.802 10.036 1.026
C -32.397 8.544 -1.038
C -32.356 8.518 1.565
C -31.074 10.798 1.57
C -32.386 10.054 -0.504
C -32.361 10.038 1.061
C -31.113 10.824 -1.033
C -29.765 10.01 3.609
C -32.332 8.503 3.131
C -32.322 10.013 3.645
C -31.05 10.782 3.137
C -29.863 10.078 -3.122
C -32.421 8.56 -2.605
C -31.136 10.84 -2.599
C -32.425 10.08 -3.087
C -28.55 7.767 -0.579
C -28.526 7.752 0.986
C -29.797 8.515 1.529
C -31.11 7.772 -0.545
C -31.086 7.756 1.02
C -29.836 8.541 -1.073
C -28.489 7.726 3.569
C -31.048 7.731 3.603
C -29.774 8.5 3.096
C -28.587 7.793 -3.162
C -29.859 8.556 -2.64
C -31.148 7.798 -3.128
C -28.552 10.82 -1.066
C -28.514 10.794 1.536
C -28.491 10.779 3.103
C -28.575 10.836 -2.633
C -24.705 10.04 -0.606
C -24.681 10.024 0.959
C -27.275 8.536 -1.107
C -27.237 8.51 1.496
C -25.953 10.788 1.503
C -27.266 10.046 -0.572
C -27.242 10.031 0.993
C -25.992 10.815 -1.1
C -24.642 9.998 3.541
C -27.214 8.494 3.062
C -27.205 10.005 3.575
C -25.93 10.773 3.069
C -24.743 10.066 -3.189
C -27.298 8.551 -2.673
C -26.015 10.831 -2.666
C -27.302 10.073 -3.155
C -23.428 7.753 -0.648
C -23.403 7.738 0.917
C -24.675 8.503 1.461
C -25.989 7.761 -0.613
C -25.965 7.746 0.952
C -24.714 8.529 -1.141
C -23.363 7.712 3.499
C -25.928 7.72 3.535
C -24.651 8.487 3.028
C -23.467 7.779 -3.23
C -24.738 8.545 -2.707
C -26.027 7.787 -3.195
C -23.431 10.807 -1.135
C -23.39 10.781 1.468
C -23.366 10.765 3.034
C -23.455 10.823 -2.701
C -22.153 8.521 -1.177
C -22.111 8.495 1.425
C -20.826 10.773 1.429
C -22.143 10.032 -0.642
C -22.118 10.016 0.922
C -20.87 10.799 -1.173
C -22.086 8.479 2.991
C -22.076 9.99 3.504
C -20.799 10.757 2.996
C -22.179 8.537 -2.743
C -20.896 10.815 -2.739
C -22.184 10.058 -3.225
C -20.866 7.744 -0.686
C -20.839 7.73 0.879
C -20.796 7.704 3.46
C -20.909 7.771 -3.268
C -59.251 10.706 -0.441
C -59.208 10.655 2.165
C -59.18 10.621 3.731
C -59.272 10.736 -2.007
C -55.405 9.97 -0.01
C -55.374 9.945 1.554
C -57.98 8.466 -0.507
C -57.94 8.417 2.1
C -56.643 10.679 2.115
C -57.964 9.953 0.043
C -57.936 9.924 1.607
C -56.694 10.723 -0.492
C -55.321 9.903 4.141
C -57.917 8.386 3.666
C -57.889 9.875 4.194
C -56.613 10.651 3.681
C -55.456 10.012 -2.599
C -58.001 8.497 -2.073
C -56.722 10.751 -2.057
C -58.006 10 -2.547
C -54.134 7.722 -0.073
C -54.105 7.699 1.491
C -55.374 8.437 2.051
C -56.694 7.71 -0.022
C -56.668 7.683 1.543
C -55.422 8.479 -0.556
C -54.054 7.659 4.078
C -56.625 7.637 4.13
C -55.346 8.41 3.618
C -54.184 7.763 -2.662
C -55.45 8.506 -2.122
C -56.735 7.756 -2.611
C -64.372 10.681 -0.399
C -64.343 10.616 2.255
C -64.319 10.572 3.838
C -64.378 10.715 -1.981
C -60.524 9.937 0.085
C -60.501 9.905 1.649
C -63.098 8.447 -0.451
C -63.08 8.383 2.161
C -61.774 10.632 2.207
C -63.088 9.926 0.109
C -63.07 9.889 1.684
C -61.81 10.691 -0.404
C -60.46 9.844 4.236
C -63.065 8.338 3.726
C -63.027 9.814 4.274
C -61.748 10.592 3.773
C -60.553 9.991 -2.505
C -63.099 8.484 -2.016
C -61.822 10.724 -1.97
C -63.096 9.981 -2.485
C -59.254 7.698 0.02
C -59.234 7.668 1.584
C -60.509 8.398 2.137
C -61.817 7.689 0.046
C -61.804 7.655 1.61
C -60.538 8.455 -0.469
C -59.201 7.613 4.171
C -61.78 7.589 4.197
C -60.491 8.361 3.702
C -59.284 7.751 -2.57
C -60.55 8.489 -2.035
C -61.829 7.748 -2.544
C -65.624 9.902 0.132
C -65.609 9.864 1.69
C -65.565 9.778 4.386
C -65.618 9.959 -2.565
C -64.383 7.685 0.05
C -64.376 7.647 1.624
C -65.652 8.376 2.186
C -66.919 7.671 0.046
C -66.918 7.633 1.604
C -65.66 8.446 -0.468
C -64.356 7.566 4.215
C -66.9 7.544 4.3
C -65.642 8.329 3.769
C -64.37 7.746 -2.544
C -65.654 8.482 -2.05
C -66.889 7.73 -2.65
H -34.859 10.006 4.773
H -37.41 10.003 4.817
H -35.005 10.096 -4.138
H -37.57 10.094 -4.096
H -33.588 7.726 4.73
H -36.14 7.726 4.771
H -33.727 7.815 -4.181
H -36.292 7.816 -4.141
H -29.751 10.002 4.699
H -32.307 10.005 4.735
H -29.878 10.092 -4.211
H -32.441 10.095 -4.177
H -28.475 7.718 4.658
H -31.033 7.723 4.693
H -28.601 7.808 -4.251
H -31.163 7.812 -4.217
H -24.627 9.99 4.631
H -27.191 9.997 4.665
H -24.757 10.081 -4.278
H -27.316 10.088 -4.245
H -23.348 7.704 4.589
H -25.913 7.712 4.624
H -23.483 7.794 -4.32
H -26.041 7.801 -4.285
H -22.06 9.982 4.594
H -22.2 10.073 -4.315
H -20.779 7.695 4.55
H -20.926 7.785 -4.358
H -62.996 9.774 5.364
H -63.087 10 -3.575
H -65.494 9.704 5.471
H -65.566 9.963 -3.653
H -64.335 7.522 5.304
H -66.841 7.464 5.385
H -64.352 7.768 -3.634
H -66.825 7.738 -3.738
H -41.421 7.812 -4.045
H -55.482 10.031 -3.689
H -54.209 7.782 -3.751
H -42.699 10.083 -3.994
H -43.984 7.807 -3.99
H -56.757 7.777 -3.701
H -45.262 10.075 -3.936
H -46.545 7.801 -3.931
H -58.028 10.023 -3.636
H -59.3 7.775 -3.66
H -47.822 10.064 -3.874
H -60.568 10.015 -3.594
H -49.103 7.794 -3.87
H -61.837 7.775 -3.633
H -50.378 10.053 -3.81
H -51.658 7.788 -3.809
H -40.135 10.09 -4.048
H -38.857 7.815 -4.096
H -52.932 10.042 -3.748
H -47.611 9.959 5.042
H -50.168 9.939 5.107
H -38.69 7.724 4.817
H -61.771 7.562 5.287
H -52.73 9.915 5.171
H -41.24 7.718 4.868
H -51.463 7.665 5.109
H -54.031 7.644 5.168
H -57.869 9.857 5.283
H -56.606 7.62 5.22
H -42.508 9.988 4.92
H -45.058 9.976 4.979
H -60.443 9.821 5.326
H -46.344 7.698 4.984
H -48.901 7.683 5.047
H -39.959 9.997 4.865
H -55.297 9.888 5.231
H -43.791 7.71 4.924
H -59.187 7.592 5.26
C 7.33 10.718 -1.92
C 7.406 10.698 0.681
C 7.451 10.686 2.247
C 7.284 10.73 -3.486
C 11.193 9.945 -1.521
C 11.235 9.934 0.043
C 8.61 8.435 -1.975
C 8.684 8.417 0.625
C 9.969 10.696 0.605
C 8.627 9.947 -1.446
C 8.671 9.936 0.118
C 9.896 10.715 -1.997
C 11.307 9.916 2.626
C 8.729 8.406 2.191
C 8.746 9.917 2.7
C 10.013 10.685 2.171
C 11.122 9.963 -4.102
C 8.566 8.446 -3.541
C 9.852 10.727 -3.563
C 8.553 9.966 -4.027
C 12.472 7.663 -1.572
C 12.513 7.653 -0.008
C 11.247 8.415 0.551
C 9.907 7.665 -1.5
C 9.95 7.654 0.064
C 11.177 8.433 -2.05
C 12.582 7.636 2.574
C 10.022 7.637 2.646
C 11.29 8.405 2.117
C 12.405 7.679 -4.153
C 11.134 8.443 -3.616
C 9.835 7.682 -4.081
C 12.462 10.713 -2.07
C 12.532 10.695 0.531
C 12.574 10.684 2.097
C 12.421 10.724 -3.636
C 16.324 9.941 -1.658
C 16.362 9.93 -0.093
C 13.743 8.431 -2.12
C 13.81 8.414 0.481
C 15.094 10.693 0.463
C 13.759 9.943 -1.592
C 13.799 9.932 -0.027
C 15.029 10.711 -2.139
C 16.424 9.914 2.49
C 13.85 8.404 2.047
C 13.866 9.915 2.555
C 15.133 10.683 2.029
C 16.263 9.958 -4.239
C 13.704 8.44 -3.686
C 14.991 10.721 -3.705
C 13.692 9.961 -4.173
C 17.604 7.659 -1.703
C 17.64 7.65 -0.138
C 16.372 8.412 0.416
C 15.038 7.661 -1.64
C 15.077 7.651 -0.075
C 16.31 8.429 -2.186
C 17.699 7.635 2.445
C 15.141 7.636 2.507
C 16.409 8.403 1.982
C 17.546 7.674 -4.284
C 16.273 8.438 -3.752
C 14.975 7.677 -4.221
C 17.596 10.708 -2.202
C 17.656 10.691 0.4
C 17.692 10.681 1.966
C 17.561 10.718 -3.769
C 21.456 9.935 -1.772
C 21.486 9.925 -0.208
C 18.877 8.426 -2.246
C 18.933 8.411 0.356
C 20.217 10.688 0.342
C 18.89 9.938 -1.718
C 18.924 9.928 -0.154
C 20.163 10.705 -2.26
C 21.537 9.909 2.376
C 18.967 8.402 1.922
C 18.981 9.912 2.43
C 20.249 10.678 1.909
C 21.407 9.951 -4.354
C 18.844 8.435 -3.812
C 20.132 10.715 -3.826
C 18.835 9.955 -4.299
C 22.736 7.654 -1.81
C 22.765 7.645 -0.245
C 21.495 8.408 0.302
C 20.17 7.657 -1.76
C 20.202 7.648 -0.195
C 21.445 8.423 -2.3
C 22.812 7.631 2.338
C 20.256 7.633 2.388
C 21.525 8.399 1.869
C 22.69 7.668 -4.392
C 21.415 8.432 -3.866
C 20.118 7.672 -4.341
C 22.731 10.701 -2.311
C 22.778 10.684 0.292
C 22.807 10.674 1.858
C 22.703 10.711 -3.877
C 26.589 9.925 -1.86
C 26.611 9.914 -0.295
C 24.012 8.419 -2.347
C 24.056 8.404 0.255
C 25.339 10.678 0.248
C 24.022 9.931 -1.82
C 24.049 9.921 -0.255
C 25.299 10.695 -2.355
C 26.649 9.898 2.289
C 24.083 8.395 1.822
C 24.093 9.905 2.329
C 25.364 10.669 1.814
C 26.552 9.941 -4.442
C 23.986 8.428 -3.914
C 25.275 10.705 -3.921
C 23.979 9.947 -4.401
C 27.869 7.644 -1.892
C 27.89 7.635 -0.326
C 26.617 8.399 0.215
C 25.303 7.65 -1.854
C 25.327 7.641 -0.289
C 26.58 8.414 -2.388
C 27.925 7.62 2.258
C 25.368 7.626 2.295
C 26.64 8.39 1.781
C 27.836 7.659 -4.473
C 26.558 8.423 -3.954
C 25.263 7.664 -4.436
C 27.866 10.688 -2.391
C 27.9 10.671 0.211
C 27.921 10.661 1.778
C 27.846 10.698 -3.958
C 31.722 9.906 -1.921
C 31.737 9.895 -0.355
C 29.148 8.407 -2.422
C 29.179 8.391 0.181
C 30.462 10.66 0.182
C 29.155 9.917 -1.894
C 29.174 9.906 -0.329
C 30.435 10.678 -2.421
C 31.761 9.878 2.229
C 29.198 8.382 1.748
C 29.205 9.89 2.256
C 30.478 10.65 1.748
C 31.699 9.924 -4.503
C 29.13 8.416 -3.988
C 30.419 10.689 -3.988
C 29.126 9.934 -4.476
C 33.004 7.627 -1.947
C 33.017 7.617 -0.382
C 31.742 8.381 0.154
C 30.437 7.637 -1.922
C 30.453 7.627 -0.357
C 31.717 8.398 -2.449
C 33.039 7.601 2.203
C 30.481 7.612 2.227
C 31.757 8.372 1.72
C 32.983 7.643 -4.529
C 31.703 8.407 -4.016
C 30.409 7.652 -4.504
C 33.003 10.666 -2.445
C 33.024 10.647 0.159
C 33.037 10.637 1.725
C 32.991 10.677 -4.012
C 34.287 8.386 -2.471
C 34.305 8.369 0.133
C 35.587 10.631 0.142
C 34.29 9.893 -1.941
C 34.3 9.882 -0.376
C 35.572 10.651 -2.462
C 34.316 8.359 1.699
C 34.319 9.864 2.209
C 35.596 10.62 1.708
C 34.276 8.396 -4.037
C 35.564 10.662 -4.029
C 34.273 9.912 -4.524
C 35.573 7.614 -1.965
C 35.582 7.604 -0.4
C 35.598 7.587 2.185
C 35.558 7.631 -4.548
C 2.198 10.726 -1.76
C 2.276 10.704 0.841
C 2.324 10.691 2.406
C 2.151 10.739 -3.326
C 6.061 9.95 -1.368
C 6.107 9.938 0.196
C 3.478 8.441 -1.819
C 3.555 8.421 0.781
C 4.841 10.701 0.76
C 3.496 9.954 -1.289
C 3.542 9.941 0.276
C 4.764 10.721 -1.841
C 6.184 9.918 2.777
C 3.602 8.409 2.347
C 3.62 9.92 2.857
C 4.888 10.688 2.326
C 5.985 9.97 -3.949
C 3.432 8.454 -3.385
C 4.717 10.734 -3.407
C 3.418 9.975 -3.869
C 7.341 7.667 -1.425
C 7.386 7.656 0.14
C 6.12 8.419 0.702
C 4.775 7.67 -1.347
C 4.821 7.658 0.218
C 6.044 8.438 -1.898
C 7.461 7.637 2.721
C 4.898 7.639 2.799
C 6.166 8.407 2.268
C 7.267 7.685 -4.005
C 5.999 8.449 -3.464
C 4.699 7.689 -3.927
C -2.932 10.737 -1.6
C -2.856 10.714 1.001
C -2.81 10.699 2.566
C -2.977 10.751 -3.166
C 0.93 9.958 -1.208
C 0.977 9.945 0.356
C -1.652 8.451 -1.66
C -1.576 8.429 0.94
C -0.289 10.708 0.921
C -1.635 9.963 -1.128
C -1.589 9.95 0.436
C -0.367 10.731 -1.68
C 1.055 9.923 2.937
C -1.53 8.416 2.506
C -1.512 9.927 3.017
C -0.242 10.694 2.487
C 0.853 9.98 -3.789
C -1.698 8.465 -3.226
C -0.413 10.744 -3.245
C -1.711 9.986 -3.709
C 2.21 7.674 -1.268
C 2.256 7.662 0.297
C 0.99 8.425 0.861
C -0.356 7.678 -1.188
C -0.31 7.666 0.376
C 0.913 8.446 -1.739
C 2.333 7.641 2.878
C -0.233 7.644 2.957
C 1.037 8.412 2.427
C 2.133 7.694 -3.848
C 0.867 8.459 -3.305
C -0.432 7.7 -3.769
C -8.059 10.752 -1.45
C -7.99 10.727 1.151
C -7.948 10.712 2.717
C -8.101 10.767 -3.016
C -4.2 9.97 -1.05
C -4.156 9.956 0.514
C -6.78 8.465 -1.508
C -6.71 8.442 1.092
C -5.423 10.72 1.077
C -6.765 9.977 -0.976
C -6.722 9.963 0.589
C -5.496 10.744 -1.523
C -4.081 9.932 3.095
C -6.667 8.427 2.658
C -6.651 9.939 3.17
C -5.379 10.705 2.643
C -4.274 9.993 -3.632
C -6.823 8.48 -3.074
C -5.539 10.759 -3.089
C -6.835 10.001 -3.557
C -2.921 7.684 -1.11
C -2.876 7.671 0.454
C -4.143 8.435 1.018
C -5.486 7.691 -1.034
C -5.443 7.678 0.53
C -4.217 8.458 -1.583
C -2.801 7.649 3.035
C -5.37 7.654 3.111
C -4.098 8.421 2.584
C -2.995 7.706 -3.691
C -4.261 8.472 -3.149
C -5.558 7.714 -3.615
C -13.185 10.77 -1.32
C -13.126 10.745 1.281
C -13.09 10.729 2.847
C -13.22 10.786 -2.886
C -9.329 9.985 -0.905
C -9.289 9.971 0.66
C -11.907 8.483 -1.374
C -11.845 8.458 1.227
C -10.558 10.736 1.219
C -11.893 9.994 -0.84
C -11.856 9.98 0.725
C -10.622 10.761 -1.382
C -9.222 9.946 3.24
C -11.808 8.442 2.793
C -11.794 9.954 3.305
C -10.519 10.72 2.785
C -9.395 10.01 -3.487
C -11.943 8.498 -2.94
C -10.661 10.776 -2.948
C -11.954 10.02 -3.422
C -8.05 7.699 -0.962
C -8.009 7.685 0.603
C -9.278 8.45 1.162
C -10.614 7.707 -0.895
C -10.576 7.693 0.67
C -9.344 8.474 -1.438
C -7.941 7.661 3.183
C -10.512 7.668 3.25
C -9.237 8.434 2.729
C -8.118 7.723 -3.543
C -9.384 8.489 -3.004
C -10.678 7.732 -3.476
C -18.308 10.789 -1.216
C -18.26 10.764 1.386
C -18.231 10.747 2.952
C -18.337 10.806 -2.782
C -14.456 10.004 -0.781
C -14.422 9.989 0.784
C -17.031 8.502 -1.263
C -16.98 8.477 1.338
C -15.693 10.754 1.337
C -17.019 10.013 -0.729
C -16.988 9.998 0.836
C -15.747 10.78 -1.265
C -14.366 9.963 3.364
C -16.949 8.46 2.904
C -16.938 9.972 3.417
C -15.661 10.738 2.903
C -14.512 10.03 -3.363
C -17.061 8.518 -2.829
C -15.779 10.796 -2.831
C -17.069 10.04 -3.311
C -13.178 7.716 -0.833
C -13.143 7.702 0.731
C -14.413 8.467 1.286
C -15.741 7.726 -0.778
C -15.709 7.711 0.787
C -14.469 8.492 -1.315
C -13.084 7.676 3.312
C -15.656 7.685 3.368
C -14.379 8.451 2.852
C -13.236 7.741 -3.415
C -14.502 8.508 -2.881
C -15.794 7.751 -3.36
C -19.581 10.023 -0.683
C -19.553 10.008 0.882
C -19.508 9.982 3.463
C -19.626 10.049 -3.265
C -18.304 7.735 -0.729
C -18.275 7.72 0.836
C -19.546 8.486 1.384
C -19.592 8.512 -1.217
C -18.227 7.695 3.417
C -19.519 8.47 2.951
C -18.351 7.761 -3.311
C -19.62 8.528 -2.784
H 26.665 9.894 3.379
H 24.113 9.901 3.419
H 26.538 9.951 -5.532
H 23.962 9.957 -5.491
H 27.94 7.617 3.348
H 25.386 7.623 3.385
H 27.823 7.668 -5.563
H 25.247 7.673 -5.526
H 31.773 9.874 3.319
H 29.219 9.885 3.346
H 31.691 9.935 -5.593
H 29.114 9.944 -5.566
H 33.05 7.597 3.293
H 30.494 7.608 3.317
H 32.976 7.653 -5.619
H 30.399 7.661 -5.594
H 34.328 9.859 3.299
H 34.267 9.923 -5.614
H 35.606 7.583 3.275
H 35.553 7.641 -5.638
H -1.478 9.92 4.106
H -1.744 9.999 -4.799
H -4.047 9.925 4.184
H -6.619 9.931 4.259
H -4.306 10.006 -4.721
H -6.865 10.015 -4.646
H -2.767 7.641 4.124
H -5.338 7.646 4.2
H -3.027 7.719 -4.78
H -5.588 7.727 -4.705
H -9.192 9.938 4.33
H -11.767 9.946 4.395
H -9.423 10.024 -4.576
H -11.979 10.034 -4.511
H -7.91 7.652 4.272
H -10.484 7.66 4.34
H -8.147 7.736 -4.633
H -10.704 7.745 -4.566
H -14.342 9.955 4.454
H -16.916 9.964 4.507
H -14.535 10.044 -4.453
H -17.089 10.054 -4.401
H -13.059 7.668 4.402
H -15.633 7.677 4.457
H -13.26 7.755 -4.505
H -15.815 7.765 -4.45
H -19.489 9.973 4.553
H -19.644 10.064 -4.355
H -18.207 7.686 4.506
H -18.37 7.775 -4.401
H 20.096 7.68 -5.43
H 5.953 9.981 -5.038
H 7.235 7.695 -5.095
H 18.812 9.965 -5.389
H 17.522 7.683 -5.373
H 4.667 7.7 -5.017
H 16.237 9.968 -5.328
H 14.948 7.686 -5.31
H 3.385 9.986 -4.959
H 2.1 7.705 -4.937
H 13.664 9.971 -5.262
H 0.82 9.992 -4.878
H 12.376 7.689 -5.242
H -0.465 7.711 -4.858
H 11.092 9.974 -5.191
H 9.805 7.692 -5.17
H 21.387 9.961 -5.443
H 22.671 7.677 -5.481
H 8.522 9.977 -5.116
H 13.896 9.91 3.645
H 11.339 9.911 3.715
H 22.833 7.627 3.428
H -0.199 7.637 4.046
H 8.78 9.911 3.789
H 20.279 7.63 3.478
H 10.055 7.631 3.736
H 7.494 7.632 3.811
H 3.655 9.914 3.946
H 4.932 7.633 3.888
H 19.006 9.908 3.519
H 16.452 9.909 3.579
H 1.09 9.916 4.026
H 15.17 7.631 3.597
H 12.613 7.632 3.664
H 21.56 9.905 3.466
H 6.219 9.912 3.867
H 17.725 7.631 3.534
H 2.368 7.634 3.967
C 36.858 9.877 -1.956
C 36.865 9.865 -0.39
C 36.877 9.846 2.195
C 36.847 9.896 -4.539
C 38.143 7.598 -1.978
C 38.148 7.587 -0.413
C 36.869 8.353 0.118
C 36.857 8.371 -2.486
C 38.157 7.57 2.173
C 36.877 8.343 1.684
C 38.135 7.616 -4.561
C 36.85 8.381 -4.053
C 38.142 10.631 -2.474
C 38.151 10.611 0.13
C 38.156 10.6 1.697
C 38.137 10.643 -4.04
C 39.429 8.352 -2.495
C 39.434 8.334 0.109
C 40.715 10.588 0.125
C 39.427 9.856 -1.964
C 39.43 9.844 -0.399
C 40.713 10.608 -2.479
C 39.438 8.323 1.675
C 39.436 9.825 2.187
C 40.717 10.576 1.692
C 39.426 8.363 -4.062
C 40.712 10.62 -4.046
C 39.422 9.876 -4.548
C 40.714 7.579 -1.984
C 40.716 7.568 -0.419
C 40.718 7.55 2.167
C 40.713 7.596 -4.567
H 36.884 9.841 3.285
H 36.844 9.908 -5.628
H 38.163 7.565 3.263
H 38.132 7.626 -5.651
H 39.44 9.819 3.277
H 39.422 9.888 -5.637
H 40.721 7.545 3.257
H 40.713 7.607 -5.657
C 41.997 9.832 -1.967
C 41.997 9.82 -0.402
C 41.996 9.801 2.184
C 41.998 9.852 -4.551
C 43.288 7.555 -1.984
C 43.284 7.545 -0.418
C 42.001 8.311 0.106
C 42.002 8.329 -2.498
C 43.279 7.527 2.168
C 42 8.3 1.673
C 43.293 7.573 -4.567
C 42.004 8.339 -4.065
C 43.284 10.58 -2.479
C 43.28 10.561 0.125
C 43.278 10.55 1.692
C 43.287 10.592 -4.046
C 44.578 8.302 -2.494
C 44.569 8.285 0.11
C 45.846 10.531 0.132
C 44.568 9.804 -1.963
C 44.564 9.793 -0.398
C 45.857 10.549 -2.472
C 44.563 8.275 1.677
C 44.556 9.774 2.188
C 45.838 10.52 1.699
C 44.583 8.312 -4.061
C 45.863 10.559 -4.038
C 44.576 9.822 -4.547
C 45.863 7.528 -1.975
C 45.855 7.518 -0.41
C 45.841 7.502 2.176
C 45.876 7.544 -4.558
H 41.998 9.795 3.274
H 42.001 9.863 -5.64
H 43.28 7.522 3.258
H 43.297 7.583 -5.657
H 44.555 9.768 3.278
H 44.581 9.833 -5.637
H 45.838 7.496 3.266
H 45.884 7.553 -5.648
C 47.14 9.772 -1.952
C 47.132 9.762 -0.387
C 47.115 9.745 2.199
C 47.154 9.787 -4.536
C 48.44 7.498 -1.957
C 48.427 7.489 -0.392
C 47.137 8.256 0.122
C 47.154 8.271 -2.481
C 48.402 7.475 2.194
C 47.126 8.247 1.689
C 48.461 7.51 -4.54
C 47.165 8.279 -4.048
C 48.429 10.514 -2.457
C 48.412 10.499 0.146
C 48.398 10.489 1.712
C 48.438 10.521 -4.024
C 49.732 8.238 -2.459
C 49.707 8.226 0.144
C 50.979 10.467 0.17
C 49.713 9.739 -1.932
C 49.701 9.731 -0.368
C 51.002 10.479 -2.438
C 49.687 8.218 1.71
C 49.672 9.715 2.218
C 50.957 10.457 1.736
C 49.746 8.243 -4.025
C 51.011 10.481 -4.004
C 49.73 9.748 -4.516
C 51.018 7.467 -1.928
C 51 7.46 -0.364
C 50.961 7.447 2.222
C 51.046 7.473 -4.511
H 47.112 9.74 3.289
H 47.163 9.797 -5.625
H 48.396 7.47 3.284
H 48.474 7.518 -5.63
H 49.663 9.71 3.308
H 49.741 9.755 -5.606
H 50.948 7.443 3.312
H 51.061 7.477 -5.601
C 52.288 9.708 -1.91
C 52.272 9.701 -0.335
C 52.225 9.683 2.255
C 52.301 9.706 -4.498
C 53.598 7.441 -1.892
C 53.575 7.436 -0.317
C 52.276 8.198 0.179
C 52.31 8.207 -2.429
C 53.514 7.42 2.272
C 52.247 8.19 1.745
C 53.625 7.435 -4.48
C 52.326 8.206 -3.995
C 53.576 10.447 -2.429
C 53.547 10.438 0.221
C 53.52 10.428 1.804
C 53.587 10.448 -4.013
C 54.887 8.184 -2.406
C 54.845 8.178 0.245
C 54.83 9.665 -1.864
C 54.812 9.66 -0.307
C 54.809 8.168 1.827
C 54.752 9.638 2.387
C 54.906 8.182 -3.989
C 54.843 9.657 -4.558
C 56.143 7.41 -1.83
C 56.116 7.405 -0.272
C 56.04 7.385 2.421
C 56.172 7.399 -4.523
H 52.194 9.67 3.345
H 52.296 9.699 -5.588
H 53.477 7.409 3.361
H 53.626 7.425 -5.57
H 54.677 9.606 3.473
H 54.797 9.619 -5.646
H 55.957 7.354 3.506
H 56.133 7.356 -5.611
C -54.135 15.251 -0.488
C -54.071 15.216 2.118
C -54.032 15.195 3.684
C -54.172 15.272 -2.054
C -50.286 14.527 -0.08
C -50.247 14.508 1.485
C -52.857 13.008 -0.551
C -52.795 12.973 2.055
C -51.514 15.246 2.049
C -52.842 14.502 -0.011
C -52.804 14.481 1.553
C -51.579 15.278 -0.558
C -50.182 14.478 4.071
C -52.758 12.952 3.622
C -52.738 14.448 4.14
C -51.475 15.228 3.615
C -50.35 14.558 -2.667
C -52.893 13.03 -2.117
C -51.617 15.297 -2.124
C -52.905 14.536 -2.599
C -49.008 12.275 -0.14
C -48.972 12.256 1.425
C -50.238 12.998 1.988
C -51.565 12.255 -0.073
C -51.528 12.235 1.492
C -50.3 13.03 -0.618
C -48.909 12.226 4.011
C -51.465 12.201 4.078
C -50.2 12.979 3.554
C -49.071 12.306 -2.726
C -50.338 13.049 -2.184
C -51.626 12.289 -2.66
C -49.023 15.303 -0.627
C -48.958 15.274 1.979
C -48.92 15.257 3.546
C -49.061 15.321 -2.193
C -45.173 14.569 -0.213
C -45.137 14.552 1.352
C -47.744 13.05 -0.685
C -47.682 13.02 1.921
C -46.404 15.297 1.912
C -47.73 14.55 -0.148
C -47.692 14.532 1.417
C -46.466 15.326 -0.693
C -45.076 14.525 3.938
C -47.645 13.002 3.487
C -47.628 14.504 4.003
C -46.366 15.281 3.478
C -45.234 14.597 -2.798
C -47.781 13.068 -2.251
C -46.503 15.342 -2.26
C -47.793 14.579 -2.734
C -43.895 12.307 -0.267
C -43.861 12.29 1.298
C -45.127 13.038 1.856
C -46.452 12.292 -0.205
C -46.416 12.274 1.36
C -45.187 13.067 -0.749
C -43.803 12.263 3.883
C -46.355 12.246 3.946
C -45.091 13.022 3.423
C -43.953 12.335 -2.852
C -45.222 13.084 -2.315
C -46.513 12.322 -2.791
C -43.909 15.344 -0.756
C -43.85 15.317 1.849
C -43.814 15.302 3.415
C -43.944 15.361 -2.322
C -40.059 14.597 -0.328
C -40.028 14.581 1.237
C -42.629 13.081 -0.808
C -42.573 13.053 1.796
C -41.296 15.333 1.791
C -42.617 14.585 -0.273
C -42.583 14.568 1.292
C -41.35 15.359 -0.813
C -39.976 14.556 3.822
C -42.539 13.038 3.363
C -42.526 14.543 3.877
C -41.263 15.318 3.357
C -40.111 14.624 -2.912
C -42.662 13.097 -2.375
C -41.383 15.375 -2.38
C -42.673 14.612 -2.858
C -38.781 12.327 -0.376
C -38.751 12.31 1.189
C -40.019 13.065 1.742
C -41.338 12.318 -0.324
C -41.306 12.302 1.241
C -40.07 13.092 -0.863
C -38.702 12.285 3.774
C -41.252 12.276 3.826
C -39.987 13.05 3.308
C -38.83 12.353 -2.96
C -40.101 13.107 -2.429
C -41.392 12.345 -2.909
C -38.792 15.371 -0.865
C -38.742 15.344 1.739
C -38.712 15.33 3.306
C -38.821 15.386 -2.431
C -34.943 14.611 -0.42
C -34.917 14.595 1.145
C -37.511 13.099 -0.911
C -37.464 13.073 1.693
C -36.187 15.352 1.693
C -37.502 14.606 -0.377
C -37.473 14.59 1.188
C -36.232 15.378 -0.91
C -34.874 14.57 3.73
C -37.435 13.058 3.259
C -37.426 14.565 3.773
C -36.159 15.338 3.26
C -34.986 14.638 -3.003
C -37.54 13.115 -2.478
C -36.259 15.394 -2.477
C -37.548 14.632 -2.961
C -33.664 12.334 -0.462
C -33.638 12.318 1.103
C -34.908 13.077 1.65
C -36.222 12.332 -0.422
C -36.195 12.316 1.143
C -34.952 13.103 -0.954
C -33.597 12.293 3.687
C -36.15 12.29 3.728
C -34.882 13.062 3.216
C -33.704 12.36 -3.045
C -34.977 13.119 -2.52
C -36.267 12.358 -3.005
C -33.672 15.382 -0.951
C -33.631 15.356 1.653
C -33.606 15.342 3.219
C -33.697 15.398 -2.517
C -29.825 14.612 -0.492
C -29.801 14.596 1.073
C -32.392 13.104 -0.992
C -32.351 13.078 1.611
C -31.073 15.357 1.617
C -32.384 14.613 -0.458
C -32.36 14.597 1.107
C -31.112 15.383 -0.987
C -29.764 14.571 3.656
C -32.327 13.063 3.178
C -32.32 14.572 3.691
C -31.05 15.342 3.183
C -29.861 14.638 -3.075
C -32.415 13.12 -2.558
C -31.136 15.399 -2.553
C -32.423 14.639 -3.041
C -28.544 12.33 -0.532
C -28.521 12.315 1.033
C -29.793 13.077 1.576
C -31.104 12.333 -0.498
C -31.08 12.318 1.067
C -29.831 13.103 -1.026
C -28.484 12.289 3.616
C -31.042 12.292 3.65
C -29.77 13.061 3.143
C -28.581 12.357 -3.115
C -29.854 13.119 -2.593
C -31.142 12.36 -3.081
C -28.552 15.381 -1.02
C -28.514 15.355 1.583
C -28.491 15.34 3.149
C -28.575 15.397 -2.587
C -24.703 14.602 -0.559
C -24.679 14.587 1.006
C -27.271 13.099 -1.06
C -27.233 13.073 1.543
C -25.953 15.35 1.55
C -27.264 14.608 -0.525
C -27.241 14.593 1.04
C -25.991 15.376 -1.053
C -24.641 14.561 3.589
C -27.21 13.057 3.11
C -27.204 14.567 3.623
C -25.93 15.335 3.116
C -24.741 14.629 -3.142
C -27.293 13.115 -2.626
C -26.014 15.392 -2.619
C -27.301 14.635 -3.108
C -23.422 12.318 -0.6
C -23.398 12.302 0.965
C -24.671 13.066 1.509
C -25.984 12.325 -0.565
C -25.96 12.309 1
C -24.71 13.092 -1.093
C -23.358 12.276 3.547
C -25.922 12.284 3.582
C -24.647 13.051 3.076
C -23.462 12.344 -3.183
C -24.733 13.109 -2.66
C -26.021 12.351 -3.148
C -23.431 15.369 -1.087
C -23.39 15.343 1.515
C -23.366 15.328 3.081
C -23.455 15.385 -2.654
C -22.149 13.085 -1.129
C -22.107 13.059 1.473
C -20.826 15.335 1.477
C -22.142 14.595 -0.595
C -22.116 14.579 0.97
C -20.87 15.361 -1.125
C -22.082 13.043 3.039
C -22.075 14.554 3.552
C -20.799 15.319 3.043
C -22.174 13.101 -2.696
C -20.896 15.377 -2.692
C -22.183 14.621 -3.178
C -20.861 12.309 -0.638
C -20.834 12.294 0.927
C -20.791 12.268 3.508
C -20.904 12.336 -3.221
C -59.251 15.194 -0.361
C -59.192 15.149 2.25
C -59.15 15.119 3.815
C -59.278 15.218 -1.926
C -55.398 14.476 0.056
C -55.361 14.452 1.62
C -57.97 12.962 -0.426
C -57.915 12.916 2.18
C -56.63 15.183 2.184
C -57.957 14.449 0.12
C -57.921 14.422 1.684
C -56.692 15.222 -0.421
C -55.297 14.414 4.207
C -57.881 12.887 3.746
C -57.856 14.377 4.271
C -56.59 15.158 3.75
C -55.459 14.513 -2.532
C -57.998 12.988 -1.991
C -56.725 15.245 -1.987
C -58.009 14.489 -2.469
C -54.121 12.234 -0.007
C -54.086 12.211 1.557
C -55.354 12.945 2.12
C -56.679 12.212 0.054
C -56.645 12.186 1.618
C -55.413 12.985 -0.486
C -54.025 12.174 4.144
C -56.588 12.142 4.205
C -55.318 12.921 3.686
C -54.18 12.272 -2.596
C -55.446 13.009 -2.052
C -56.731 12.254 -2.535
C -60.52 14.423 0.173
C -60.486 14.394 1.748
C -63.09 12.922 -0.352
C -63.045 12.863 2.302
C -61.756 15.117 2.329
C -63.054 14.382 0.232
C -63.022 14.35 1.789
C -61.814 15.168 -0.324
C -60.414 14.335 4.338
C -63.011 12.823 3.885
C -62.944 14.28 4.485
C -61.715 15.082 3.912
C -60.556 14.463 -2.42
C -63.106 12.951 -1.934
C -61.837 15.193 -1.907
C -63.082 14.426 -2.464
C -59.238 12.191 0.109
C -59.208 12.161 1.673
C -60.479 12.888 2.236
C -61.801 12.172 0.15
C -61.773 12.138 1.724
C -60.528 12.94 -0.375
C -59.153 12.108 4.26
C -61.714 12.071 4.315
C -60.444 12.852 3.801
C -59.28 12.237 -2.48
C -60.548 12.968 -1.94
C -61.825 12.22 -2.444
C -64.336 12.139 0.193
C -64.311 12.103 1.751
C -64.248 12.025 4.447
C -64.349 12.19 -2.503
H -34.857 14.563 4.82
H -37.406 14.558 4.863
H -35.003 14.653 -4.093
H -37.568 14.648 -4.05
H -33.581 12.286 4.777
H -36.132 12.283 4.818
H -33.72 12.375 -4.135
H -36.285 12.373 -4.095
H -29.749 14.564 4.746
H -32.305 14.565 4.781
H -29.875 14.653 -4.165
H -32.438 14.655 -4.131
H -28.469 12.281 4.706
H -31.027 12.285 4.74
H -28.595 12.372 -4.205
H -31.157 12.375 -4.171
H -24.626 14.554 4.679
H -27.189 14.56 4.713
H -24.756 14.644 -4.232
H -27.314 14.65 -4.198
H -23.342 12.269 4.637
H -25.908 12.276 4.672
H -23.477 12.359 -4.272
H -26.035 12.366 -4.238
H -22.058 14.546 4.642
H -22.198 14.636 -4.268
H -20.773 12.26 4.598
H -20.92 12.351 -4.311
H -62.857 14.219 5.57
H -63.046 14.419 -3.553
H -64.167 11.957 5.532
H -64.306 12.189 -3.592
H -41.415 12.361 -3.998
H -55.488 14.531 -3.622
H -54.209 12.29 -3.685
H -42.698 14.627 -3.948
H -43.979 12.35 -3.942
H -56.758 12.274 -3.624
H -45.261 14.612 -3.888
H -46.541 12.337 -3.88
H -58.035 14.507 -3.559
H -59.301 12.259 -3.57
H -47.822 14.594 -3.824
H -60.561 14.475 -3.511
H -49.1 12.322 -3.816
H -61.824 12.235 -3.534
H -50.38 14.574 -3.757
H -51.656 12.306 -3.75
H -40.133 14.639 -4.002
H -38.851 12.368 -4.049
H -52.936 14.553 -3.689
H -47.6 14.496 5.093
H -50.153 14.469 5.161
H -38.681 12.278 4.864
H -61.675 12.036 5.404
H -52.71 14.438 5.23
H -41.229 12.268 4.916
H -51.438 12.191 5.168
H -53.999 12.161 5.234
H -57.829 14.361 5.361
H -56.564 12.127 5.295
H -42.502 14.536 4.967
H -45.05 14.518 5.028
H -60.37 14.305 5.427
H -46.328 12.238 5.035
H -48.881 12.216 5.101
H -39.954 14.549 4.912
H -55.269 14.402 5.297
H -43.778 12.255 4.973
H -59.129 12.088 5.35
C 7.33 15.279 -1.882
C 7.407 15.257 0.719
C 7.454 15.244 2.285
C 7.284 15.292 -3.448
C 11.194 14.506 -1.486
C 11.237 14.493 0.078
C 8.614 12.997 -1.941
C 8.689 12.977 0.661
C 9.97 15.255 0.641
C 8.628 14.508 -1.41
C 8.673 14.496 0.154
C 9.896 15.276 -1.961
C 11.31 14.473 2.661
C 8.735 12.965 2.226
C 8.75 14.475 2.737
C 10.015 15.242 2.207
C 11.122 14.526 -4.067
C 8.569 13.01 -3.507
C 9.851 15.288 -3.527
C 8.553 14.53 -3.991
C 12.477 12.225 -1.541
C 12.519 12.213 0.024
C 11.252 12.975 0.585
C 9.911 12.227 -1.467
C 9.955 12.215 0.098
C 11.18 12.995 -2.017
C 12.589 12.194 2.606
C 10.029 12.195 2.68
C 11.296 12.963 2.151
C 12.408 12.244 -4.121
C 11.137 13.007 -3.583
C 9.838 12.247 -4.048
C 12.462 15.273 -2.035
C 12.533 15.253 0.566
C 12.575 15.241 2.132
C 12.42 15.285 -3.601
C 16.325 14.501 -1.626
C 16.363 14.489 -0.061
C 13.747 12.992 -2.088
C 13.814 12.973 0.513
C 15.094 15.25 0.497
C 13.759 14.503 -1.559
C 13.8 14.491 0.006
C 15.029 15.271 -2.105
C 16.426 14.47 2.522
C 13.855 12.962 2.079
C 13.869 14.472 2.589
C 15.134 15.239 2.063
C 16.263 14.52 -4.207
C 13.706 13.004 -3.655
C 14.99 15.282 -3.671
C 13.692 14.523 -4.14
C 17.609 12.22 -1.674
C 17.644 12.209 -0.109
C 16.376 12.971 0.446
C 15.043 12.223 -1.61
C 15.082 12.211 -0.045
C 16.313 12.99 -2.155
C 17.704 12.191 2.474
C 15.147 12.193 2.538
C 16.414 12.96 2.013
C 17.55 12.238 -4.255
C 16.276 13.001 -3.721
C 14.978 12.241 -4.191
C 17.596 15.267 -2.17
C 17.656 15.247 0.432
C 17.692 15.236 1.999
C 17.56 15.279 -3.736
C 21.457 14.493 -1.741
C 21.487 14.481 -0.176
C 18.881 12.986 -2.216
C 18.937 12.968 0.386
C 20.216 15.243 0.375
C 18.891 14.497 -1.687
C 18.925 14.485 -0.122
C 20.163 15.263 -2.228
C 21.537 14.462 2.408
C 18.972 12.957 1.952
C 18.982 14.466 2.461
C 20.249 15.232 1.941
C 21.407 14.512 -4.323
C 18.847 12.997 -3.783
C 20.131 15.275 -3.794
C 18.835 14.517 -4.268
C 22.74 12.212 -1.782
C 22.768 12.201 -0.217
C 21.498 12.964 0.332
C 20.174 12.216 -1.731
C 20.206 12.205 -0.166
C 21.448 12.982 -2.271
C 22.816 12.183 2.367
C 20.26 12.188 2.417
C 21.529 12.953 1.898
C 22.694 12.23 -4.364
C 21.418 12.993 -3.837
C 20.122 12.234 -4.313
C 22.73 15.258 -2.279
C 22.777 15.238 0.324
C 22.805 15.227 1.89
C 22.702 15.269 -3.845
C 26.588 14.479 -1.828
C 26.61 14.466 -0.263
C 24.015 12.977 -2.318
C 24.059 12.958 0.285
C 25.337 15.23 0.281
C 24.022 14.487 -1.788
C 24.048 14.475 -0.223
C 25.298 15.251 -2.322
C 26.647 14.447 2.321
C 24.085 12.948 1.851
C 24.092 14.456 2.361
C 25.362 15.219 1.847
C 26.553 14.499 -4.41
C 23.989 12.988 -3.885
C 25.274 15.262 -3.889
C 23.98 14.506 -4.37
C 27.873 12.198 -1.862
C 27.893 12.186 -0.297
C 26.619 12.95 0.245
C 25.306 12.206 -1.826
C 25.33 12.194 -0.261
C 26.583 12.969 -2.358
C 27.926 12.168 2.287
C 25.371 12.177 2.323
C 26.642 12.94 1.811
C 27.84 12.216 -4.444
C 26.561 12.98 -3.925
C 25.267 12.224 -4.408
C 27.865 15.241 -2.358
C 27.898 15.22 0.245
C 27.918 15.209 1.812
C 27.846 15.253 -3.924
C 31.72 14.455 -1.885
C 31.734 14.442 -0.32
C 29.151 12.96 -2.391
C 29.18 12.94 0.212
C 30.458 15.207 0.217
C 29.154 14.468 -1.86
C 29.172 14.456 -0.295
C 30.433 15.229 -2.386
C 31.757 14.421 2.265
C 29.199 12.929 1.779
C 29.202 14.436 2.29
C 30.474 15.195 1.784
C 31.698 14.477 -4.468
C 29.133 12.971 -3.957
C 30.417 15.242 -3.953
C 29.126 14.489 -4.443
C 33.006 12.174 -1.914
C 33.018 12.161 -0.349
C 31.742 12.927 0.187
C 30.439 12.187 -1.892
C 30.455 12.175 -0.327
C 31.719 12.947 -2.417
C 33.038 12.142 2.236
C 30.482 12.157 2.258
C 31.756 12.916 1.753
C 32.986 12.194 -4.497
C 31.705 12.959 -3.983
C 30.413 12.207 -4.474
C 33 15.213 -2.408
C 33.02 15.191 0.196
C 33.032 15.179 1.763
C 32.989 15.227 -3.974
C 34.287 12.932 -2.436
C 34.304 12.911 0.168
C 35.581 15.171 0.181
C 34.287 14.438 -1.904
C 34.296 14.425 -0.339
C 35.568 15.194 -2.423
C 34.314 12.899 1.734
C 34.313 14.403 2.247
C 35.59 15.158 1.748
C 34.277 12.944 -4.003
C 35.56 15.208 -3.99
C 34.271 14.461 -4.487
C 35.573 12.157 -1.931
C 35.581 12.144 -0.366
C 35.596 12.124 2.22
C 35.559 12.178 -4.514
C 2.198 15.286 -1.72
C 2.278 15.263 0.881
C 2.326 15.25 2.447
C 2.151 15.3 -3.286
C 6.062 14.511 -1.331
C 6.109 14.498 0.234
C 3.482 13.004 -1.781
C 3.561 12.982 0.82
C 4.843 15.26 0.799
C 3.497 14.515 -1.249
C 3.544 14.502 0.315
C 4.764 15.282 -1.802
C 6.188 14.477 2.816
C 3.608 12.969 2.386
C 3.624 14.479 2.896
C 4.89 15.247 2.365
C 5.985 14.533 -3.912
C 3.435 13.018 -3.347
C 4.717 15.295 -3.368
C 3.418 14.537 -3.83
C 7.346 12.23 -1.39
C 7.391 12.217 0.175
C 6.125 12.979 0.739
C 4.78 12.233 -1.31
C 4.827 12.22 0.255
C 6.048 13.001 -1.862
C 7.468 12.197 2.757
C 4.905 12.199 2.836
C 6.172 12.967 2.305
C 7.27 12.25 -3.97
C 6.001 13.013 -3.428
C 4.702 12.254 -3.891
C -2.932 15.297 -1.557
C -2.855 15.274 1.044
C -2.808 15.259 2.61
C -2.978 15.312 -3.123
C 0.931 14.519 -1.167
C 0.979 14.506 0.397
C -1.648 13.015 -1.619
C -1.571 12.991 0.982
C -0.288 15.268 0.963
C -1.634 14.525 -1.086
C -1.587 14.511 0.478
C -0.367 15.291 -1.638
C 1.058 14.483 2.978
C -1.524 12.977 2.548
C -1.509 14.487 3.059
C -0.24 15.254 2.529
C 0.853 14.543 -3.749
C -1.695 13.029 -3.184
C -0.414 15.306 -3.204
C -1.711 14.549 -3.667
C 2.214 12.237 -1.229
C 2.261 12.224 0.336
C 0.995 12.986 0.901
C -0.351 12.242 -1.148
C -0.304 12.228 0.417
C 0.917 13.009 -1.699
C 2.341 12.202 2.917
C -0.226 12.205 2.998
C 1.043 12.972 2.467
C 2.136 12.259 -3.81
C 0.869 13.023 -3.265
C -0.429 12.265 -3.729
C -8.059 15.313 -1.405
C -7.989 15.288 1.196
C -7.947 15.273 2.762
C -8.101 15.329 -2.971
C -4.199 14.531 -1.007
C -4.154 14.517 0.558
C -6.777 13.029 -1.464
C -6.705 13.004 1.137
C -5.422 15.28 1.122
C -6.763 14.539 -0.931
C -6.72 14.525 0.634
C -5.496 15.305 -1.479
C -4.078 14.493 3.139
C -6.662 12.989 2.703
C -6.648 14.5 3.215
C -5.377 15.265 2.688
C -4.274 14.556 -3.588
C -6.82 13.044 -3.03
C -5.54 15.32 -3.045
C -6.835 14.564 -3.512
C -2.916 12.248 -1.068
C -2.87 12.234 0.497
C -4.138 12.997 1.061
C -5.481 12.255 -0.99
C -5.437 12.241 0.574
C -4.213 13.021 -1.54
C -2.794 12.21 3.077
C -5.363 12.216 3.155
C -4.092 12.982 2.627
C -2.992 12.272 -3.649
C -4.258 13.036 -3.105
C -5.554 12.279 -3.572
C -13.185 15.332 -1.274
C -13.125 15.306 1.328
C -13.089 15.29 2.894
C -13.22 15.348 -2.84
C -9.328 14.547 -0.859
C -9.287 14.533 0.705
C -11.903 13.047 -1.327
C -11.841 13.021 1.274
C -10.557 15.297 1.265
C -11.892 14.557 -0.793
C -11.854 14.542 0.771
C -10.622 15.322 -1.336
C -9.22 14.508 3.286
C -11.803 13.005 2.84
C -11.792 14.516 3.352
C -10.518 15.281 2.831
C -9.395 14.573 -3.441
C -11.94 13.063 -2.893
C -10.661 15.338 -2.902
C -11.953 14.583 -3.376
C -8.045 12.263 -0.917
C -8.004 12.248 0.648
C -9.273 13.012 1.208
C -10.609 12.271 -0.849
C -10.571 12.257 0.716
C -9.34 13.037 -1.393
C -7.934 12.223 3.228
C -10.506 12.231 3.297
C -9.232 12.997 2.774
C -8.114 12.288 -3.499
C -9.38 13.053 -2.959
C -10.673 12.297 -3.431
C -18.308 15.351 -1.169
C -18.26 15.326 1.433
C -18.23 15.31 3
C -18.337 15.368 -2.735
C -14.455 14.566 -0.734
C -14.421 14.551 0.831
C -17.027 13.066 -1.216
C -16.975 13.04 1.386
C -15.693 15.316 1.384
C -17.018 14.576 -0.681
C -16.987 14.561 0.883
C -15.747 15.342 -1.218
C -14.364 14.526 3.412
C -16.945 13.024 2.952
C -16.936 14.535 3.465
C -15.66 15.3 2.95
C -14.511 14.593 -3.317
C -17.057 13.083 -2.782
C -15.779 15.358 -2.784
C -17.068 14.603 -3.264
C -13.173 12.281 -0.786
C -13.137 12.266 0.778
C -14.408 13.031 1.333
C -15.736 12.29 -0.73
C -15.704 12.276 0.834
C -14.465 13.056 -1.268
C -13.078 12.24 3.359
C -15.65 12.249 3.415
C -14.374 13.015 2.9
C -13.232 12.307 -3.368
C -14.499 13.073 -2.834
C -15.789 12.317 -3.313
C -19.58 14.586 -0.635
C -19.552 14.571 0.93
C -19.507 14.545 3.511
C -19.625 14.612 -3.218
C -18.299 12.3 -0.681
C -18.269 12.285 0.884
C -19.542 13.05 1.432
C -19.588 13.076 -1.17
C -18.221 12.259 3.465
C -19.514 13.034 2.999
C -18.346 12.327 -3.264
C -19.616 13.092 -2.736
H 26.663 14.442 3.411
H 24.112 14.451 3.451
H 26.539 14.511 -5.5
H 23.963 14.518 -5.46
H 27.942 12.163 3.377
H 25.389 12.172 3.413
H 27.828 12.228 -5.534
H 25.252 12.235 -5.497
H 31.768 14.416 3.355
H 29.215 14.43 3.379
H 31.691 14.489 -5.558
H 29.115 14.501 -5.533
H 33.048 12.137 3.326
H 30.495 12.152 3.348
H 32.98 12.206 -5.587
H 30.404 12.218 -5.564
H 34.321 14.397 3.337
H 34.266 14.474 -5.577
H 35.603 12.118 3.31
H 35.556 12.191 -5.604
H -1.474 14.48 4.149
H -1.744 14.562 -4.757
H -4.044 14.485 4.228
H -6.616 14.492 4.304
H -4.306 14.569 -4.678
H -6.865 14.578 -4.602
H -2.759 12.203 4.167
H -5.33 12.208 4.244
H -3.024 12.285 -4.738
H -5.585 12.293 -4.661
H -9.189 14.5 4.376
H -11.764 14.509 4.442
H -9.423 14.587 -4.531
H -11.979 14.597 -4.465
H -7.903 12.215 4.318
H -10.477 12.223 4.386
H -8.143 12.301 -4.588
H -10.7 12.311 -4.52
H -14.34 14.518 4.501
H -16.914 14.528 4.554
H -14.534 14.607 -4.406
H -17.088 14.617 -4.354
H -13.052 12.232 4.449
H -15.627 12.241 4.505
H -13.256 12.321 -4.458
H -15.81 12.331 -4.402
H -19.488 14.537 4.601
H -19.643 14.627 -4.308
H -18.201 12.251 4.555
H -18.365 12.341 -4.353
H 20.1 12.245 -5.402
H 5.952 14.545 -5.001
H 7.238 12.262 -5.06
H 18.811 14.528 -5.358
H 17.525 12.249 -5.344
H 4.669 12.266 -4.98
H 16.237 14.532 -5.296
H 14.951 12.252 -5.28
H 3.385 14.55 -4.92
H 2.103 12.271 -4.899
H 13.664 14.535 -5.229
H 0.819 14.555 -4.838
H 12.379 12.255 -5.211
H -0.462 12.277 -4.818
H 11.092 14.538 -5.157
H 9.807 12.258 -5.137
H 21.387 14.524 -5.412
H 22.675 12.241 -5.453
H 8.521 14.541 -5.08
H 13.899 14.466 3.678
H 11.343 14.467 3.75
H 22.837 12.179 3.456
H -0.19 12.198 4.087
H 8.784 14.469 3.826
H 20.285 12.183 3.507
H 10.063 12.19 3.769
H 7.503 12.191 3.846
H 3.66 14.472 3.986
H 4.94 12.192 3.925
H 19.008 14.461 3.551
H 16.454 14.464 3.612
H 1.094 14.476 4.067
H 15.177 12.188 3.627
H 12.621 12.189 3.696
H 21.56 14.457 3.497
H 6.223 14.47 3.905
H 17.731 12.186 3.564
H 2.376 12.195 4.006
C 36.853 14.418 -1.916
C 36.859 14.404 -0.351
C 36.87 14.382 2.235
C 36.843 14.441 -4.5
C 38.14 12.136 -1.942
C 38.145 12.123 -0.376
C 36.866 12.891 0.155
C 36.855 12.912 -2.449
C 38.154 12.103 2.209
C 36.873 12.878 1.721
C 38.132 12.158 -4.525
C 36.849 12.925 -4.016
C 38.136 15.171 -2.433
C 38.143 15.148 0.172
C 38.148 15.134 1.738
C 38.131 15.185 -3.999
C 39.424 12.889 -2.457
C 39.429 12.867 0.147
C 40.706 15.12 0.167
C 39.42 14.393 -1.923
C 39.423 14.379 -0.358
C 40.703 15.143 -2.437
C 39.433 12.854 1.714
C 39.428 14.357 2.228
C 40.708 15.106 1.734
C 39.421 12.902 -4.024
C 40.702 15.158 -4.004
C 39.415 14.417 -4.507
C 40.708 12.112 -1.947
C 40.71 12.099 -0.381
C 40.712 12.078 2.205
C 40.706 12.134 -4.53
H 36.876 14.375 3.325
H 36.841 14.455 -5.59
H 38.159 12.096 3.299
H 38.131 12.171 -5.615
H 39.432 14.349 3.318
H 39.415 14.431 -5.597
H 40.715 12.071 3.295
H 40.707 12.147 -5.62
C 41.986 14.364 -1.926
C 41.987 14.35 -0.361
C 41.987 14.328 2.225
C 41.986 14.387 -4.51
C 43.276 12.083 -1.946
C 43.275 12.07 -0.381
C 41.993 12.84 0.145
C 41.993 12.861 -2.46
C 43.271 12.05 2.205
C 41.993 12.827 1.711
C 43.28 12.104 -4.53
C 41.993 12.874 -4.026
C 43.271 15.111 -2.437
C 43.269 15.088 0.167
C 43.267 15.075 1.734
C 43.272 15.125 -4.003
C 44.563 12.829 -2.457
C 44.557 12.809 0.147
C 45.834 15.053 0.171
C 44.553 14.331 -1.923
C 44.551 14.318 -0.359
C 45.839 15.075 -2.432
C 44.553 12.796 1.714
C 44.545 14.295 2.227
C 45.827 15.039 1.737
C 44.566 12.841 -4.023
C 45.841 15.086 -3.998
C 44.557 14.353 -4.507
C 45.845 12.05 -1.94
C 45.84 12.039 -0.376
C 45.83 12.019 2.211
C 45.853 12.069 -4.524
H 41.989 14.32 3.315
H 41.989 14.402 -5.599
H 43.272 12.043 3.295
H 43.283 12.117 -5.62
H 44.546 14.288 3.318
H 44.561 14.366 -5.597
H 45.829 12.012 3.301
H 45.859 12.081 -5.614
C 47.122 14.294 -1.916
C 47.117 14.283 -0.352
C 47.102 14.26 2.234
C 47.125 14.312 -4.5
C 48.415 12.015 -1.928
C 48.407 12.005 -0.364
C 47.122 12.775 0.155
C 47.133 12.793 -2.448
C 48.387 11.986 2.222
C 47.112 12.763 1.721
C 48.425 12.028 -4.512
C 47.137 12.803 -4.014
C 48.408 15.035 -2.427
C 48.399 15.016 0.182
C 48.386 15.001 1.747
C 48.408 15.043 -3.992
C 49.703 12.755 -2.437
C 49.688 12.74 0.172
C 50.968 14.977 0.214
C 49.692 14.256 -1.91
C 49.686 14.246 -0.335
C 50.98 14.994 -2.436
C 49.671 12.727 1.737
C 49.656 14.22 2.254
C 50.951 14.962 1.798
C 49.706 12.76 -4.003
C 50.98 15 -4.019
C 49.689 14.264 -4.498
C 50.987 11.98 -1.915
C 50.977 11.972 -0.34
C 50.94 11.949 2.25
C 50.991 11.983 -4.503
H 47.1 14.252 3.324
H 47.13 14.323 -5.59
H 48.381 11.979 3.313
H 48.432 12.038 -5.602
H 49.633 14.203 3.344
H 49.676 14.263 -5.588
H 50.913 11.935 3.34
H 50.981 11.979 -5.593
C 52.233 14.2 -1.887
C 52.226 14.191 -0.329
C 52.186 14.162 2.364
C 52.226 14.202 -4.58
C 53.529 11.929 -1.882
C 53.517 11.922 -0.325
C 52.256 12.705 0.212
C 52.275 12.718 -2.439
C 53.468 11.898 2.369
C 52.235 12.692 1.795
C 53.53 11.926 -4.576
C 52.28 12.721 -4.022
H 52.121 14.125 3.451
H 52.171 14.173 -5.667
H 53.399 11.863 3.455
H 53.478 11.892 -5.663
C -54.148 19.756 -0.436
C -54.078 19.726 2.169
C -54.034 19.707 3.734
C -54.187 19.772 -2.002
C -50.293 19.048 -0.032
C -50.253 19.031 1.533
C -52.861 17.52 -0.497
C -52.794 17.489 2.109
C -51.521 19.765 2.097
C -52.85 19.014 0.04
C -52.809 18.996 1.604
C -51.59 19.793 -0.509
C -50.184 19.004 4.12
C -52.752 17.471 3.675
C -52.738 18.967 4.191
C -51.479 19.748 3.663
C -50.361 19.076 -2.619
C -52.9 17.539 -2.063
C -51.63 19.809 -2.075
C -52.917 19.043 -2.547
C -49.01 16.802 -0.09
C -48.971 16.784 1.475
C -50.238 17.522 2.038
C -51.566 16.774 -0.02
C -51.526 16.755 1.545
C -50.305 17.551 -0.568
C -48.904 16.757 4.061
C -51.458 16.726 4.132
C -50.198 17.505 3.604
C -49.075 16.83 -2.677
C -50.344 17.569 -2.134
C -51.632 16.804 -2.607
C -49.033 19.827 -0.58
C -48.966 19.8 2.026
C -48.926 19.784 3.592
C -49.073 19.843 -2.147
C -45.181 19.104 -0.168
C -45.144 19.088 1.397
C -47.748 17.579 -0.637
C -47.683 17.551 1.969
C -46.412 19.83 1.958
C -47.737 19.078 -0.102
C -47.698 19.061 1.463
C -46.476 19.856 -0.648
C -45.082 19.064 3.984
C -47.644 17.536 3.535
C -47.632 19.036 4.05
C -46.374 19.815 3.524
C -45.243 19.131 -2.753
C -47.787 17.596 -2.203
C -46.514 19.872 -2.215
C -47.802 19.105 -2.688
C -43.897 16.847 -0.221
C -43.862 16.831 1.344
C -45.13 17.576 1.903
C -46.454 16.826 -0.158
C -46.416 16.809 1.407
C -45.191 17.603 -0.702
C -43.803 16.805 3.93
C -46.353 16.783 3.994
C -45.092 17.561 3.469
C -43.957 16.874 -2.806
C -45.228 17.619 -2.269
C -46.517 16.854 -2.744
C -43.918 19.881 -0.711
C -43.859 19.856 1.894
C -43.822 19.841 3.46
C -43.954 19.897 -2.278
C -40.067 19.143 -0.283
C -40.036 19.127 1.282
C -42.633 17.623 -0.763
C -42.576 17.597 1.842
C -41.305 19.876 1.836
C -42.624 19.126 -0.228
C -42.59 19.11 1.337
C -41.36 19.902 -0.769
C -39.983 19.103 3.867
C -42.541 17.582 3.408
C -42.532 19.086 3.923
C -41.272 19.862 3.402
C -40.119 19.169 -2.868
C -42.667 17.639 -2.329
C -41.393 19.917 -2.336
C -42.681 19.152 -2.814
C -38.783 16.877 -0.331
C -38.753 16.861 1.234
C -40.022 17.612 1.787
C -41.341 16.864 -0.279
C -41.308 16.848 1.286
C -40.075 17.639 -0.818
C -38.703 16.836 3.82
C -41.253 16.823 3.872
C -39.99 17.598 3.353
C -38.833 16.903 -2.915
C -40.106 17.654 -2.384
C -41.395 16.89 -2.864
C -38.801 19.918 -0.821
C -38.751 19.892 1.784
C -38.721 19.878 3.35
C -38.831 19.933 -2.387
C -34.951 19.164 -0.375
C -34.925 19.148 1.19
C -37.515 17.65 -0.866
C -37.468 17.624 1.738
C -36.196 19.903 1.738
C -37.509 19.156 -0.332
C -37.481 19.14 1.233
C -36.242 19.929 -0.866
C -34.882 19.124 3.775
C -37.439 17.61 3.304
C -37.433 19.116 3.818
C -36.169 19.889 3.305
C -34.994 19.19 -2.959
C -37.544 17.665 -2.433
C -36.269 19.944 -2.433
C -37.556 19.182 -2.916
C -33.666 16.89 -0.416
C -33.641 16.874 1.149
C -34.912 17.631 1.695
C -36.225 16.885 -0.376
C -36.198 16.869 1.189
C -34.956 17.657 -0.909
C -33.6 16.85 3.733
C -36.153 16.845 3.774
C -34.886 17.617 3.261
C -33.707 16.916 -3
C -34.982 17.673 -2.475
C -36.27 16.911 -2.96
C -33.682 19.935 -0.906
C -33.64 19.909 1.698
C -33.615 19.895 3.264
C -33.707 19.951 -2.473
C -29.832 19.168 -0.447
C -29.809 19.153 1.118
C -32.396 17.661 -0.947
C -32.356 17.635 1.657
C -31.082 19.912 1.662
C -32.392 19.168 -0.413
C -32.367 19.152 1.153
C -31.122 19.937 -0.942
C -29.772 19.128 3.702
C -32.331 17.62 3.223
C -32.328 19.128 3.737
C -31.059 19.897 3.228
C -29.869 19.194 -3.031
C -32.42 17.676 -2.513
C -31.145 19.953 -2.508
C -32.431 19.194 -2.996
C -28.547 16.889 -0.486
C -28.524 16.874 1.079
C -29.797 17.635 1.622
C -31.107 16.891 -0.452
C -31.083 16.876 1.113
C -29.836 17.66 -0.981
C -28.487 16.849 3.663
C -31.045 16.851 3.697
C -29.774 17.62 3.189
C -28.584 16.916 -3.069
C -29.858 17.676 -2.547
C -31.145 16.918 -3.036
C -28.561 19.936 -0.975
C -28.523 19.911 1.628
C -28.5 19.896 3.195
C -28.584 19.952 -2.542
C -24.711 19.16 -0.513
C -24.687 19.145 1.052
C -27.275 17.657 -1.014
C -27.237 17.632 1.589
C -25.962 19.907 1.595
C -27.272 19.165 -0.48
C -27.249 19.15 1.085
C -26 19.932 -1.008
C -24.649 19.12 3.635
C -27.214 17.616 3.156
C -27.212 19.125 3.669
C -25.939 19.892 3.162
C -24.749 19.186 -3.097
C -27.298 17.673 -2.58
C -26.023 19.948 -2.574
C -27.309 19.192 -3.063
C -23.426 16.878 -0.553
C -23.401 16.863 1.012
C -24.675 17.626 1.556
C -25.987 16.885 -0.519
C -25.963 16.87 1.046
C -24.714 17.652 -1.047
C -23.361 16.838 3.594
C -25.926 16.844 3.629
C -24.651 17.611 3.122
C -23.465 16.905 -3.137
C -24.738 17.668 -2.614
C -26.024 16.911 -3.102
C -23.44 19.926 -1.042
C -23.399 19.9 1.561
C -23.375 19.885 3.127
C -23.464 19.942 -2.609
C -22.153 17.644 -1.083
C -22.111 17.619 1.52
C -20.834 19.892 1.523
C -22.15 19.152 -0.549
C -22.124 19.137 1.016
C -20.878 19.917 -1.08
C -22.086 17.603 3.086
C -22.083 19.113 3.599
C -20.808 19.877 3.089
C -22.179 17.66 -2.649
C -20.905 19.933 -2.646
C -22.191 19.179 -3.133
C -20.864 16.87 -0.591
C -20.837 16.855 0.974
C -20.794 16.829 3.556
C -20.907 16.896 -3.175
C -59.271 19.678 -0.315
C -59.201 19.641 2.337
C -59.151 19.615 3.92
C -59.304 19.695 -1.898
C -55.409 18.978 0.113
C -55.368 18.958 1.677
C -57.978 17.453 -0.359
C -57.912 17.415 2.252
C -56.638 19.684 2.244
C -57.971 18.941 0.179
C -57.93 18.919 1.753
C -56.708 19.717 -0.366
C -55.292 18.925 4.263
C -57.866 17.389 3.817
C -57.844 18.876 4.343
C -56.589 19.662 3.809
C -55.472 19.007 -2.476
C -58.009 17.473 -1.924
C -56.742 19.733 -1.932
C -58.022 18.967 -2.414
C -54.122 16.743 0.051
C -54.083 16.723 1.615
C -55.352 17.453 2.18
C -56.681 16.711 0.12
C -56.642 16.688 1.684
C -55.419 17.487 -0.426
C -54.014 16.69 4.202
C -56.57 16.649 4.271
C -55.309 17.432 3.745
C -54.187 16.776 -2.537
C -55.455 17.506 -1.991
C -56.74 16.745 -2.468
C -60.506 18.887 0.256
C -60.465 18.863 1.813
C -60.37 18.809 4.508
C -60.551 18.914 -2.44
C -59.243 16.68 0.182
C -59.205 16.654 1.756
C -60.476 17.377 2.339
C -61.778 16.632 0.252
C -61.74 16.604 1.809
C -60.541 17.42 -0.314
C -59.124 16.604 4.346
C -61.652 16.542 4.504
C -60.429 17.347 3.922
C -59.289 16.712 -2.411
C -60.57 17.441 -1.897
C -61.817 16.667 -2.445
H -34.865 19.118 4.865
H -37.414 19.11 4.908
H -35.011 19.205 -4.049
H -37.576 19.197 -4.006
H -33.584 16.843 4.823
H -36.134 16.838 4.863
H -33.723 16.931 -4.09
H -36.288 16.927 -4.05
H -29.757 19.122 4.792
H -32.313 19.122 4.827
H -29.883 19.209 -4.12
H -32.446 19.209 -4.086
H -28.473 16.842 4.752
H -31.03 16.844 4.786
H -28.597 16.931 -4.159
H -31.159 16.933 -4.126
H -24.634 19.113 4.725
H -27.197 19.119 4.759
H -24.763 19.201 -4.187
H -27.322 19.206 -4.153
H -23.345 16.831 4.684
H -25.911 16.838 4.719
H -23.479 16.919 -4.226
H -26.037 16.926 -4.192
H -22.066 19.106 4.688
H -22.206 19.193 -4.222
H -20.776 16.822 4.646
H -20.923 16.911 -4.264
H -41.419 16.906 -3.953
H -55.502 19.021 -3.565
H -54.219 16.792 -3.627
H -42.707 19.167 -3.903
H -43.983 16.889 -3.896
H -56.769 16.761 -3.558
H -45.27 19.146 -3.843
H -46.545 16.869 -3.833
H -58.033 18.972 -3.504
H -59.298 16.72 -3.502
H -47.832 19.12 -3.778
H -60.522 18.898 -3.529
H -49.106 16.846 -3.766
H -61.785 16.655 -3.533
H -50.392 19.091 -3.709
H -51.664 16.82 -3.697
H -40.141 19.184 -3.958
H -38.853 16.918 -4.005
H -52.95 19.058 -3.637
H -47.604 19.03 5.14
H -50.155 18.997 5.209
H -38.683 16.83 4.91
H -61.561 16.487 5.589
H -52.708 18.959 5.281
H -41.23 16.816 4.962
H -51.429 16.717 5.221
H -53.985 16.68 5.292
H -57.794 18.853 5.432
H -56.54 16.637 5.361
H -42.508 19.08 5.012
H -45.055 19.057 5.074
H -60.277 18.759 5.592
H -46.325 16.776 5.083
H -48.876 16.749 5.151
H -39.961 19.097 4.957
H -55.26 18.915 5.353
H -43.777 16.799 5.02
H -59.076 16.578 5.435
C 7.322 19.834 -1.843
C 7.4 19.811 0.759
C 7.448 19.798 2.325
C 7.276 19.847 -3.409
C 11.187 19.062 -1.449
C 11.231 19.049 0.116
C 8.61 17.556 -1.903
C 8.686 17.534 0.699
C 9.964 19.809 0.68
C 8.622 19.065 -1.371
C 8.668 19.051 0.193
C 9.889 19.831 -1.922
C 11.305 19.027 2.699
C 8.733 17.521 2.265
C 8.745 19.029 2.776
C 10.009 19.796 2.246
C 11.115 19.084 -4.03
C 8.564 17.569 -3.469
C 9.844 19.844 -3.488
C 8.546 19.087 -3.953
C 12.474 16.783 -1.505
C 12.516 16.77 0.06
C 11.249 17.531 0.622
C 9.909 16.786 -1.43
C 9.953 16.773 0.135
C 11.176 17.553 -1.98
C 12.588 16.75 2.643
C 10.028 16.752 2.717
C 11.293 17.519 2.188
C 12.404 16.804 -4.086
C 11.133 17.566 -3.546
C 9.834 16.807 -4.011
C 12.455 19.829 -1.998
C 12.526 19.807 0.604
C 12.569 19.794 2.17
C 12.412 19.842 -3.564
C 16.318 19.056 -1.589
C 16.356 19.043 -0.025
C 13.743 17.55 -2.053
C 13.811 17.529 0.549
C 15.087 19.804 0.534
C 13.753 19.06 -1.522
C 13.794 19.046 0.043
C 15.022 19.826 -2.069
C 16.42 19.023 2.559
C 13.853 17.517 2.115
C 13.863 19.025 2.626
C 15.128 19.792 2.1
C 16.256 19.078 -4.171
C 13.702 17.563 -3.619
C 14.982 19.839 -3.635
C 13.685 19.081 -4.103
C 17.605 16.777 -1.639
C 17.641 16.765 -0.075
C 16.372 17.526 0.482
C 15.04 16.781 -1.575
C 15.079 16.768 -0.01
C 16.309 17.547 -2.12
C 17.702 16.745 2.509
C 15.145 16.748 2.573
C 16.411 17.514 2.048
C 17.546 16.798 -4.221
C 16.272 17.559 -3.687
C 14.975 16.801 -4.156
C 17.588 19.822 -2.133
C 17.648 19.801 0.469
C 17.685 19.788 2.035
C 17.552 19.835 -3.7
C 21.449 19.047 -1.705
C 21.479 19.033 -0.141
C 18.876 17.543 -2.182
C 18.933 17.522 0.421
C 20.208 19.796 0.411
C 18.884 19.052 -1.651
C 18.918 19.039 -0.086
C 20.155 19.817 -2.192
C 21.53 19.013 2.444
C 18.968 17.511 1.987
C 18.975 19.019 2.498
C 20.241 19.784 1.977
C 21.4 19.069 -4.287
C 18.842 17.556 -3.748
C 20.123 19.83 -3.758
C 18.828 19.074 -4.233
C 22.737 16.767 -1.748
C 22.764 16.754 -0.183
C 21.493 17.517 0.366
C 20.171 16.773 -1.698
C 20.203 16.76 -0.133
C 21.443 17.538 -2.236
C 22.812 16.735 2.401
C 20.257 16.741 2.451
C 21.524 17.505 1.933
C 22.691 16.788 -4.33
C 21.413 17.55 -3.803
C 20.118 16.794 -4.279
C 22.722 19.811 -2.242
C 22.768 19.789 0.361
C 22.797 19.777 1.927
C 22.694 19.824 -3.809
C 26.58 19.03 -1.791
C 26.601 19.016 -0.226
C 24.011 17.531 -2.283
C 24.053 17.51 0.32
C 25.328 19.78 0.318
C 24.015 19.04 -1.752
C 24.04 19.026 -0.187
C 25.289 19.802 -2.285
C 26.637 18.995 2.359
C 24.08 17.498 1.886
C 24.083 19.005 2.398
C 25.352 19.767 1.885
C 26.546 19.052 -4.373
C 23.985 17.544 -3.85
C 25.266 19.815 -3.851
C 23.973 19.062 -4.334
C 27.868 16.749 -1.827
C 27.887 16.736 -0.262
C 26.614 17.5 0.281
C 25.302 16.76 -1.791
C 25.326 16.746 -0.226
C 26.578 17.522 -2.323
C 27.92 16.715 2.323
C 25.366 16.726 2.358
C 26.635 17.488 1.847
C 27.836 16.771 -4.409
C 26.557 17.535 -3.889
C 25.264 16.781 -4.374
C 27.856 19.791 -2.319
C 27.888 19.768 0.284
C 27.907 19.755 1.851
C 27.837 19.805 -3.886
C 31.711 19.001 -1.845
C 31.724 18.987 -0.279
C 29.145 17.51 -2.354
C 29.174 17.488 0.25
C 30.448 19.753 0.258
C 29.146 19.017 -1.822
C 29.163 19.003 -0.256
C 30.423 19.776 -2.346
C 31.745 18.964 2.306
C 29.191 17.475 1.816
C 29.191 18.981 2.329
C 30.463 19.739 1.824
C 31.69 19.025 -4.428
C 29.128 17.523 -3.92
C 30.409 19.791 -3.913
C 29.118 19.041 -4.404
C 32.999 16.72 -1.875
C 33.011 16.706 -0.31
C 31.734 17.472 0.226
C 30.434 16.736 -1.854
C 30.449 16.722 -0.289
C 31.712 17.495 -2.378
C 33.03 16.683 2.276
C 30.474 16.701 2.296
C 31.748 17.459 1.793
C 32.981 16.743 -4.458
C 31.699 17.509 -3.944
C 30.409 16.759 -4.437
C 32.99 19.758 -2.366
C 33.008 19.734 0.239
C 33.019 19.72 1.805
C 32.98 19.773 -3.932
C 34.28 17.476 -2.395
C 34.295 17.453 0.209
C 35.569 19.711 0.226
C 34.276 18.981 -1.861
C 34.286 18.966 -0.296
C 35.557 19.736 -2.379
C 34.305 17.439 1.776
C 34.301 18.943 2.29
C 35.577 19.697 1.793
C 34.27 17.491 -3.962
C 35.55 19.751 -3.945
C 34.262 19.007 -4.445
C 35.565 16.7 -1.889
C 35.573 16.685 -0.324
C 35.586 16.662 2.262
C 35.553 16.724 -4.473
C 2.191 19.841 -1.679
C 2.271 19.818 0.923
C 2.32 19.804 2.489
C 2.143 19.855 -3.244
C 6.056 19.068 -1.291
C 6.103 19.054 0.274
C 3.478 17.562 -1.741
C 3.558 17.539 0.861
C 4.836 19.814 0.84
C 3.491 19.071 -1.208
C 3.539 19.057 0.356
C 4.757 19.837 -1.761
C 6.183 19.032 2.856
C 3.606 17.526 2.427
C 3.619 19.034 2.938
C 4.885 19.8 2.406
C 5.978 19.09 -3.872
C 3.43 17.576 -3.306
C 4.709 19.851 -3.327
C 3.411 19.094 -3.79
C 7.343 16.789 -1.351
C 7.389 16.775 0.213
C 6.123 17.536 0.779
C 4.777 16.792 -1.27
C 4.825 16.778 0.294
C 6.044 17.559 -1.823
C 7.467 16.754 2.795
C 4.905 16.756 2.876
C 6.17 17.523 2.345
C 7.266 16.811 -3.932
C 5.997 17.572 -3.388
C 4.699 16.815 -3.851
C -2.939 19.852 -1.514
C -2.861 19.828 1.087
C -2.814 19.813 2.653
C -2.986 19.867 -3.08
C 0.925 19.076 -1.125
C 0.973 19.061 0.439
C -1.652 17.573 -1.576
C -1.574 17.549 1.025
C -0.295 19.822 1.006
C -1.64 19.081 -1.043
C -1.593 19.067 0.521
C -0.374 19.846 -1.596
C 1.054 19.038 3.021
C -1.526 17.534 2.591
C -1.514 19.043 3.103
C -0.246 19.808 2.572
C 0.845 19.099 -3.707
C -1.699 17.587 -3.142
C -0.422 19.861 -3.162
C -1.719 19.105 -3.625
C 2.212 16.796 -1.188
C 2.26 16.782 0.377
C 0.993 17.543 0.943
C -0.353 16.801 -1.105
C -0.306 16.787 0.459
C 0.913 17.567 -1.658
C 2.34 16.759 2.958
C -0.226 16.763 3.04
C 1.041 17.529 2.509
C 2.132 16.819 -3.769
C 0.865 17.581 -3.224
C -0.432 16.825 -3.687
C -8.067 19.868 -1.361
C -7.997 19.843 1.241
C -7.954 19.828 2.807
C -8.11 19.883 -2.927
C -4.205 19.088 -0.963
C -4.16 19.073 0.602
C -6.781 17.587 -1.419
C -6.708 17.562 1.182
C -5.429 19.835 1.166
C -6.77 19.095 -0.886
C -6.727 19.081 0.678
C -5.503 19.86 -1.435
C -4.083 19.049 3.183
C -6.664 17.547 2.748
C -6.654 19.056 3.26
C -5.384 19.82 2.732
C -4.281 19.112 -3.545
C -6.824 17.602 -2.985
C -5.548 19.875 -3.001
C -6.843 19.12 -3.469
C -2.919 16.807 -1.024
C -2.872 16.793 0.54
C -4.141 17.555 1.105
C -5.483 16.814 -0.946
C -5.439 16.8 0.619
C -4.217 17.579 -1.496
C -2.795 16.769 3.121
C -5.364 16.775 3.2
C -4.094 17.54 2.671
C -2.996 16.831 -3.606
C -4.262 17.594 -3.062
C -5.558 16.839 -3.528
C -13.193 19.887 -1.229
C -13.133 19.862 1.374
C -13.097 19.847 2.94
C -13.229 19.903 -2.795
C -9.335 19.104 -0.814
C -9.294 19.089 0.751
C -11.907 17.605 -1.282
C -11.844 17.58 1.32
C -10.565 19.852 1.31
C -11.899 19.114 -0.748
C -11.861 19.099 0.817
C -10.63 19.877 -1.292
C -9.226 19.065 3.332
C -11.806 17.565 2.886
C -11.798 19.074 3.398
C -10.525 19.837 2.877
C -9.402 19.129 -3.397
C -11.944 17.621 -2.848
C -10.67 19.893 -2.858
C -11.961 19.139 -3.331
C -8.048 16.822 -0.872
C -8.006 16.808 0.693
C -9.276 17.571 1.254
C -10.612 16.831 -0.803
C -10.573 16.817 0.762
C -9.344 17.596 -1.348
C -7.936 16.783 3.274
C -10.508 16.791 3.343
C -9.235 17.555 2.82
C -8.118 16.847 -3.454
C -9.385 17.612 -2.914
C -10.677 16.857 -3.385
C -18.317 19.908 -1.123
C -18.268 19.882 1.479
C -18.239 19.867 3.046
C -18.346 19.924 -2.689
C -14.462 19.124 -0.688
C -14.428 19.109 0.877
C -17.031 17.625 -1.169
C -16.979 17.6 1.433
C -15.701 19.872 1.43
C -17.025 19.134 -0.636
C -16.994 19.119 0.929
C -15.755 19.898 -1.172
C -14.371 19.084 3.458
C -16.948 17.584 2.999
C -16.943 19.094 3.511
C -15.668 19.857 2.996
C -14.519 19.149 -3.271
C -17.062 17.642 -2.736
C -15.788 19.914 -2.739
C -17.076 19.16 -3.219
C -13.176 16.841 -0.74
C -13.14 16.826 0.825
C -14.412 17.59 1.38
C -15.739 16.851 -0.684
C -15.707 16.836 0.881
C -14.469 17.615 -1.222
C -13.08 16.801 3.406
C -15.653 16.81 3.463
C -14.378 17.574 2.946
C -13.235 16.867 -3.323
C -14.503 17.631 -2.788
C -15.792 16.877 -3.267
C -19.588 19.144 -0.589
C -19.56 19.129 0.976
C -19.514 19.104 3.558
C -19.633 19.17 -3.173
C -18.302 16.861 -0.634
C -18.272 16.846 0.93
C -19.546 17.61 1.479
C -19.592 17.635 -1.123
C -18.224 16.82 3.512
C -19.518 17.594 3.045
C -18.35 16.887 -3.218
C -19.62 17.651 -2.69
H 26.653 18.989 3.449
H 24.103 19 3.487
H 26.533 19.066 -5.463
H 23.956 19.075 -5.424
H 27.935 16.71 3.413
H 25.384 16.721 3.448
H 27.825 16.784 -5.499
H 25.249 16.793 -5.463
H 31.755 18.957 3.396
H 29.204 18.975 3.419
H 31.684 19.04 -5.518
H 29.109 19.054 -5.494
H 33.039 16.677 3.365
H 30.486 16.695 3.386
H 32.976 16.757 -5.548
H 30.401 16.772 -5.527
H 34.308 18.936 3.38
H 34.259 19.021 -5.534
H 35.593 16.655 3.351
H 35.55 16.738 -5.563
H -1.478 19.036 4.192
H -1.752 19.118 -4.714
H -4.048 19.042 4.272
H -6.621 19.049 4.349
H -4.314 19.126 -4.634
H -6.873 19.134 -4.558
H -2.76 16.761 4.211
H -5.331 16.768 4.289
H -3.028 16.844 -4.695
H -5.589 16.852 -4.617
H -9.195 19.058 4.421
H -11.77 19.067 4.488
H -9.431 19.143 -4.486
H -11.987 19.153 -4.42
H -7.904 16.775 4.363
H -10.479 16.784 4.433
H -8.147 16.861 -4.543
H -10.704 16.871 -4.475
H -14.346 19.077 4.548
H -16.921 19.087 4.601
H -14.541 19.163 -4.361
H -17.096 19.174 -4.309
H -13.054 16.793 4.496
H -15.629 16.803 4.552
H -13.259 16.881 -4.412
H -15.814 16.891 -4.356
H -19.495 19.097 4.648
H -19.65 19.184 -4.263
H -18.204 16.813 4.602
H -18.368 16.901 -4.307
H 20.096 16.806 -5.369
H 5.944 19.103 -4.962
H 7.233 16.823 -5.022
H 18.804 19.086 -5.322
H 17.521 16.81 -5.31
H 4.665 16.827 -4.941
H 16.23 19.09 -5.261
H 14.947 16.813 -5.246
H 3.377 19.107 -4.879
H 2.099 16.832 -4.858
H 13.656 19.094 -5.193
H 0.811 19.112 -4.797
H 12.374 16.817 -5.175
H -0.466 16.838 -4.776
H 11.084 19.097 -5.119
H 9.803 16.82 -5.1
H 21.38 19.081 -5.377
H 22.672 16.8 -5.42
H 8.513 19.1 -5.042
H 13.894 19.019 3.716
H 11.338 19.021 3.788
H 22.833 16.729 3.491
H -0.191 16.756 4.13
H 8.779 19.023 3.865
H 20.281 16.735 3.541
H 10.062 16.746 3.807
H 7.502 16.747 3.885
H 3.656 19.028 4.027
H 4.94 16.749 3.965
H 19.001 19.013 3.587
H 16.449 19.017 3.648
H 1.09 19.031 4.11
H 15.175 16.742 3.662
H 12.62 16.744 3.732
H 21.552 19.007 3.534
H 6.219 19.025 3.945
H 17.729 16.739 3.598
H 2.376 16.752 4.047
C 36.842 18.958 -1.871
C 36.848 18.942 -0.306
C 36.857 18.918 2.28
C 36.833 18.984 -4.455
C 38.131 16.675 -1.898
C 38.136 16.661 -0.333
C 36.857 17.429 0.198
C 36.847 17.454 -2.406
C 38.143 16.637 2.253
C 36.863 17.415 1.765
C 38.124 16.7 -4.482
C 36.841 17.469 -3.973
C 38.124 19.709 -2.386
C 38.131 19.684 0.218
C 38.135 19.669 1.785
C 38.119 19.725 -3.953
C 39.414 17.426 -2.412
C 39.419 17.402 0.192
C 40.694 19.652 0.215
C 39.407 18.929 -1.877
C 39.411 18.914 -0.312
C 40.69 19.678 -2.389
C 39.422 17.387 1.759
C 39.415 18.889 2.274
C 40.695 19.637 1.781
C 39.411 17.442 -3.979
C 40.688 19.693 -3.955
C 39.402 18.956 -4.461
C 40.697 16.646 -1.902
C 40.699 16.632 -0.337
C 40.701 16.608 2.249
C 40.694 16.672 -4.486
H 36.863 18.911 3.37
H 36.832 18.999 -5.545
H 38.148 16.629 3.343
H 38.124 16.715 -5.572
H 39.419 18.881 3.364
H 39.404 18.971 -5.551
H 40.705 16.6 3.339
H 40.696 16.687 -5.576
C 41.973 18.896 -1.878
C 41.974 18.881 -0.314
C 41.974 18.855 2.272
C 41.971 18.922 -4.462
C 43.263 16.613 -1.902
C 43.263 16.599 -0.337
C 41.982 17.37 0.19
C 41.981 17.394 -2.414
C 43.26 16.574 2.248
C 41.982 17.355 1.756
C 43.263 16.637 -4.486
C 41.979 17.409 -3.98
C 43.258 19.642 -2.389
C 43.258 19.616 0.214
C 43.255 19.6 1.78
C 43.255 19.656 -3.955
C 44.548 17.358 -2.412
C 44.546 17.334 0.191
C 45.823 19.576 0.219
C 44.54 18.859 -1.877
C 44.54 18.844 -0.312
C 45.826 19.601 -2.389
C 44.541 17.319 1.757
C 44.532 18.817 2.273
C 45.815 19.558 1.785
C 44.547 17.371 -3.978
C 45.821 19.613 -3.955
C 44.537 18.882 -4.461
C 45.831 16.576 -1.898
C 45.828 16.563 -0.334
C 45.818 16.537 2.252
C 45.83 16.597 -4.483
H 41.976 18.847 3.362
H 41.974 18.938 -5.552
H 43.262 16.567 3.338
H 43.267 16.652 -5.576
H 44.532 18.808 3.363
H 44.539 18.896 -5.551
H 45.817 16.528 3.342
H 45.833 16.61 -5.572
C 47.11 18.818 -1.879
C 47.108 18.804 -0.304
C 47.087 18.772 2.285
C 47.098 18.834 -4.466
C 48.401 16.536 -1.897
C 48.397 16.524 -0.322
C 47.111 17.295 0.198
C 47.117 17.317 -2.41
C 48.372 16.494 2.267
C 47.101 17.278 1.764
C 48.392 16.549 -4.485
C 47.114 17.327 -3.976
C 48.397 19.556 -2.406
C 48.393 19.532 0.243
C 48.382 19.514 1.827
C 48.392 19.567 -3.989
C 49.688 17.274 -2.424
C 49.681 17.253 0.226
C 49.651 18.756 -1.865
C 49.649 18.743 -0.308
C 49.667 17.236 1.809
C 49.619 18.707 2.385
C 49.685 17.282 -4.007
C 49.634 18.767 -4.557
C 50.942 16.476 -1.88
C 50.937 16.465 -0.323
C 50.904 16.432 2.37
C 50.928 16.483 -4.572
H 47.068 18.753 3.375
H 47.082 18.837 -5.556
H 48.352 16.476 3.357
H 48.377 16.55 -5.575
H 49.558 18.665 3.471
H 49.576 18.745 -5.644
H 50.841 16.392 3.457
H 50.872 16.458 -5.66
C -54.175 24.256 -0.396
C -54.103 24.231 2.214
C -54.053 24.213 3.779
C -54.211 24.268 -1.961
C -50.314 23.564 0.011
C -50.273 23.548 1.575
C -52.88 22.028 -0.45
C -52.81 22.001 2.155
C -51.544 24.278 2.138
C -52.873 23.522 0.084
C -52.831 23.506 1.648
C -51.614 24.302 -0.466
C -50.202 23.524 4.162
C -52.764 21.984 3.72
C -52.754 23.479 4.234
C -51.499 24.263 3.704
C -50.381 23.588 -2.576
C -52.919 22.043 -2.016
C -51.653 24.316 -2.032
C -52.938 23.544 -2.504
C -49.024 21.324 -0.045
C -48.984 21.308 1.519
C -50.253 22.042 2.082
C -51.581 21.288 0.026
C -51.54 21.271 1.59
C -50.322 22.068 -0.523
C -48.915 21.284 4.106
C -51.467 21.245 4.177
C -50.21 22.027 3.648
C -49.091 21.35 -2.632
C -50.362 22.083 -2.089
C -51.649 21.314 -2.561
C -49.055 24.344 -0.538
C -48.988 24.32 2.068
C -48.946 24.306 3.634
C -49.095 24.359 -2.104
C -45.2 23.635 -0.124
C -45.163 23.619 1.44
C -47.764 22.104 -0.593
C -47.698 22.078 2.013
C -46.433 24.357 2
C -47.756 23.602 -0.059
C -47.717 23.586 1.506
C -46.497 24.382 -0.606
C -45.1 23.596 4.027
C -47.658 22.064 3.579
C -47.65 23.563 4.093
C -46.394 24.344 3.566
C -45.261 23.66 -2.711
C -47.803 22.119 -2.159
C -46.535 24.396 -2.172
C -47.822 23.627 -2.645
C -43.911 21.383 -0.177
C -43.875 21.367 1.388
C -45.144 22.109 1.947
C -46.467 21.356 -0.113
C -46.429 21.34 1.451
C -45.206 22.135 -0.659
C -43.815 21.344 3.975
C -46.365 21.316 4.038
C -45.106 22.095 3.513
C -43.97 21.409 -2.763
C -45.243 22.15 -2.225
C -46.531 21.382 -2.7
C -43.938 24.413 -0.669
C -43.879 24.389 1.937
C -43.842 24.375 3.503
C -43.974 24.428 -2.235
C -40.085 23.684 -0.24
C -40.054 23.668 1.325
C -42.648 22.16 -0.719
C -42.59 22.135 1.886
C -41.325 24.414 1.88
C -42.643 23.662 -0.185
C -42.608 23.647 1.38
C -41.38 24.439 -0.726
C -40.001 23.645 3.912
C -42.556 22.121 3.452
C -42.551 23.624 3.967
C -41.291 24.401 3.446
C -40.137 23.71 -2.825
C -42.682 22.176 -2.286
C -41.413 24.454 -2.292
C -42.7 23.688 -2.771
C -38.796 21.422 -0.286
C -38.766 21.406 1.279
C -40.037 22.155 1.831
C -41.354 21.405 -0.235
C -41.321 21.389 1.33
C -40.089 22.181 -0.774
C -38.716 21.383 3.864
C -41.266 21.366 3.916
C -40.005 22.142 3.397
C -38.846 21.448 -2.871
C -40.121 22.196 -2.34
C -41.408 21.431 -2.82
C -38.82 24.459 -0.777
C -38.77 24.434 1.828
C -38.74 24.42 3.394
C -38.85 24.474 -2.344
C -34.969 23.711 -0.331
C -34.942 23.696 1.234
C -37.53 22.196 -0.822
C -37.482 22.171 1.782
C -36.215 24.448 1.782
C -37.527 23.7 -0.288
C -37.499 23.685 1.277
C -36.261 24.473 -0.822
C -34.9 23.672 3.82
C -37.453 22.157 3.349
C -37.451 23.661 3.863
C -36.188 24.434 3.349
C -35.011 23.737 -2.915
C -37.558 22.211 -2.389
C -36.288 24.489 -2.389
C -37.574 23.726 -2.873
C -33.679 21.441 -0.372
C -33.654 21.426 1.193
C -34.927 22.181 1.74
C -36.238 21.434 -0.332
C -36.21 21.418 1.233
C -34.97 22.206 -0.865
C -33.613 21.402 3.778
C -36.166 21.395 3.819
C -34.901 22.167 3.306
C -33.72 21.467 -2.956
C -34.996 22.221 -2.431
C -36.283 21.46 -2.916
C -33.701 24.482 -0.862
C -33.659 24.457 1.742
C -33.634 24.443 3.309
C -33.726 24.498 -2.429
C -29.85 23.719 -0.403
C -29.826 23.703 1.162
C -32.41 22.211 -0.902
C -32.37 22.186 1.702
C -31.101 24.461 1.706
C -32.41 23.717 -0.368
C -32.385 23.702 1.197
C -31.14 24.486 -0.898
C -29.789 23.679 3.747
C -32.346 22.172 3.268
C -32.346 23.678 3.782
C -31.078 24.446 3.273
C -29.887 23.745 -2.987
C -32.434 22.227 -2.469
C -31.164 24.502 -2.465
C -32.449 23.743 -2.953
C -28.56 21.443 -0.441
C -28.537 21.428 1.124
C -29.811 22.187 1.667
C -31.12 21.444 -0.408
C -31.096 21.429 1.157
C -29.85 22.213 -0.937
C -28.5 21.404 3.708
C -31.058 21.405 3.742
C -29.788 22.173 3.234
C -28.596 21.47 -3.025
C -29.872 22.228 -2.503
C -31.158 21.47 -2.992
C -28.58 24.486 -0.931
C -28.542 24.46 1.673
C -28.519 24.446 3.239
C -28.602 24.502 -2.498
C -24.728 23.711 -0.469
C -24.704 23.696 1.096
C -27.289 22.21 -0.969
C -27.251 22.185 1.634
C -25.98 24.457 1.64
C -27.289 23.717 -0.435
C -27.266 23.701 1.13
C -26.019 24.482 -0.964
C -24.666 23.672 3.68
C -27.228 22.17 3.201
C -27.229 23.677 3.714
C -25.957 24.442 3.206
C -24.766 23.737 -3.053
C -27.311 22.226 -2.536
C -26.041 24.498 -2.53
C -27.326 23.743 -3.02
C -23.438 21.433 -0.508
C -23.413 21.418 1.057
C -24.689 22.18 1.601
C -25.999 21.44 -0.474
C -25.976 21.424 1.091
C -24.728 22.205 -1.003
C -23.374 21.393 3.64
C -25.938 21.4 3.675
C -24.665 22.165 3.167
C -23.477 21.459 -3.092
C -24.751 22.221 -2.569
C -26.036 21.466 -3.058
C -23.457 24.475 -0.998
C -23.417 24.45 1.605
C -23.393 24.435 3.172
C -23.481 24.491 -2.565
C -22.167 22.197 -1.039
C -22.125 22.172 1.565
C -20.852 24.442 1.567
C -22.167 23.704 -0.505
C -22.141 23.689 1.06
C -20.896 24.467 -1.036
C -22.099 22.157 3.131
C -22.1 23.664 3.644
C -20.825 24.426 3.134
C -22.192 22.213 -2.605
C -20.922 24.483 -2.603
C -22.207 23.73 -3.089
C -20.876 21.425 -0.546
C -20.849 21.41 1.019
C -20.806 21.385 3.602
C -20.919 21.451 -3.13
C -55.436 23.477 0.153
C -55.393 23.46 1.727
C -58.004 21.94 -0.326
C -57.931 21.909 2.326
C -56.666 24.18 2.31
C -57.971 23.412 0.235
C -57.928 23.394 1.792
C -56.74 24.207 -0.342
C -55.303 23.426 4.317
C -57.88 21.886 3.909
C -57.828 23.352 4.486
C -56.613 24.16 3.892
C -55.491 23.494 -2.439
C -58.039 21.955 -1.909
C -56.775 24.22 -1.925
C -58.023 23.429 -2.46
C -54.14 21.248 0.1
C -54.098 21.231 1.664
C -55.369 21.956 2.231
C -56.702 21.207 0.168
C -56.66 21.188 1.743
C -55.44 21.985 -0.379
C -54.02 21.201 4.25
C -56.571 21.15 4.332
C -55.319 21.936 3.796
C -54.205 21.273 -2.488
C -55.476 21.998 -1.945
C -56.757 21.228 -2.424
C -59.237 21.147 0.249
C -59.194 21.126 1.806
C -59.096 21.08 4.5
C -59.287 21.169 -2.446
H -34.883 23.666 4.91
H -37.432 23.655 4.953
H -35.028 23.752 -4.005
H -37.594 23.741 -3.963
H -33.597 21.396 4.868
H -36.147 21.389 4.908
H -33.736 21.483 -4.046
H -36.301 21.475 -4.006
H -29.775 23.673 4.837
H -32.33 23.672 4.872
H -29.9 23.76 -4.077
H -32.464 23.758 -4.043
H -28.485 21.398 4.798
H -31.043 21.399 4.832
H -28.61 21.484 -4.115
H -31.172 21.485 -4.082
H -24.651 23.666 4.77
H -27.215 23.671 4.804
H -24.78 23.752 -4.143
H -27.339 23.758 -4.11
H -23.358 21.387 4.73
H -25.924 21.394 4.765
H -23.492 21.474 -4.182
H -26.05 21.48 -4.148
H -22.083 23.658 4.734
H -22.223 23.744 -4.179
H -20.788 21.379 4.691
H -20.935 21.465 -4.22
H -41.432 21.446 -3.91
H -55.504 23.496 -3.529
H -54.235 21.286 -3.578
H -42.725 23.703 -3.86
H -43.997 21.424 -3.852
H -56.769 21.231 -3.514
H -45.289 23.675 -3.8
H -46.56 21.397 -3.789
H -57.995 23.408 -3.549
H -59.259 21.149 -3.535
H -47.852 23.641 -3.735
H -49.122 21.365 -3.722
H -50.413 23.602 -3.665
H -51.681 21.328 -3.65
H -40.159 23.725 -3.915
H -38.866 21.463 -3.961
H -52.969 23.556 -3.593
H -47.623 23.558 5.183
H -50.173 23.519 5.252
H -38.696 21.377 4.954
H -52.722 23.472 5.324
H -41.243 21.36 5.006
H -51.438 21.239 5.267
H -53.988 21.193 5.34
H -57.734 23.31 5.57
H -56.52 21.13 5.422
H -42.527 23.618 5.056
H -45.074 23.591 5.117
H -46.337 21.311 5.128
H -48.886 21.278 5.196
H -39.98 23.64 5.002
H -55.252 23.408 5.406
H -43.789 21.338 5.064
H -59.002 21.034 5.585
C 7.309 24.382 -1.803
C 7.388 24.359 0.799
C 7.435 24.345 2.365
C 7.262 24.396 -3.369
C 11.175 23.612 -1.409
C 11.219 23.598 0.155
C 8.6 22.108 -1.863
C 8.676 22.085 0.739
C 9.951 24.357 0.72
C 8.609 23.615 -1.331
C 8.655 23.6 0.233
C 9.875 24.38 -1.883
C 11.293 23.576 2.739
C 8.723 22.072 2.305
C 8.733 23.578 2.816
C 9.997 24.344 2.286
C 11.102 23.635 -3.991
C 8.553 22.121 -3.429
C 9.83 24.394 -3.449
C 8.532 23.638 -3.913
C 12.465 21.337 -1.466
C 12.507 21.323 0.098
C 11.239 22.083 0.661
C 9.899 21.339 -1.391
C 9.944 21.326 0.174
C 11.166 22.105 -1.941
C 12.579 21.302 2.682
C 10.02 21.304 2.757
C 11.284 22.07 2.227
C 12.394 21.359 -4.048
C 11.122 22.119 -3.507
C 9.824 21.362 -3.972
C 12.442 24.378 -1.959
C 12.513 24.355 0.644
C 12.556 24.342 2.21
C 12.399 24.391 -3.525
C 16.306 23.607 -1.551
C 16.343 23.593 0.014
C 13.732 22.103 -2.015
C 13.801 22.08 0.588
C 15.074 24.352 0.573
C 13.74 23.61 -1.483
C 13.781 23.596 0.082
C 15.008 24.375 -2.03
C 16.407 23.571 2.598
C 13.843 22.068 2.154
C 13.851 23.574 2.666
C 15.114 24.339 2.139
C 16.243 23.63 -4.133
C 13.691 22.116 -3.581
C 14.968 24.389 -3.596
C 13.672 23.633 -4.065
C 17.595 21.331 -1.602
C 17.631 21.317 -0.037
C 16.362 22.077 0.52
C 15.03 21.334 -1.537
C 15.069 21.32 0.027
C 16.299 22.1 -2.083
C 17.692 21.296 2.547
C 15.136 21.299 2.611
C 16.4 22.065 2.086
C 17.536 21.353 -4.184
C 16.261 22.113 -3.649
C 14.964 21.356 -4.119
C 17.575 24.372 -2.095
C 17.635 24.349 0.508
C 17.671 24.336 2.074
C 17.539 24.385 -3.662
C 21.436 23.597 -1.667
C 21.465 23.582 -0.102
C 18.865 22.095 -2.145
C 18.922 22.073 0.458
C 20.194 24.343 0.45
C 18.871 23.603 -1.613
C 18.905 23.588 -0.048
C 20.141 24.367 -2.153
C 21.515 23.56 2.483
C 18.957 22.06 2.025
C 18.962 23.567 2.537
C 20.227 24.33 2.016
C 21.387 23.62 -4.25
C 18.831 22.109 -3.711
C 20.109 24.38 -3.72
C 18.814 23.626 -4.195
C 22.726 21.319 -1.711
C 22.753 21.305 -0.146
C 21.482 22.067 0.404
C 20.161 21.326 -1.66
C 20.192 21.312 -0.095
C 21.432 22.09 -2.199
C 22.8 21.283 2.439
C 20.246 21.29 2.489
C 21.512 22.054 1.971
C 22.68 21.341 -4.293
C 21.402 22.103 -3.765
C 20.108 21.348 -4.242
C 22.708 24.359 -2.203
C 22.753 24.336 0.4
C 22.781 24.323 1.967
C 22.68 24.373 -3.77
C 26.566 23.577 -1.75
C 26.586 23.562 -0.185
C 23.999 22.081 -2.245
C 24.041 22.058 0.358
C 25.313 24.325 0.359
C 24.001 23.588 -1.713
C 24.026 23.573 -0.148
C 25.275 24.349 -2.245
C 26.621 23.539 2.4
C 24.067 22.046 1.925
C 24.068 23.551 2.437
C 25.336 24.312 1.925
C 26.532 23.601 -4.334
C 23.974 22.095 -3.812
C 25.252 24.364 -3.812
C 23.959 23.612 -4.296
C 27.856 21.297 -1.787
C 27.875 21.283 -0.222
C 26.601 22.047 0.321
C 25.291 21.31 -1.753
C 25.314 21.295 -0.188
C 26.566 22.071 -2.283
C 27.906 21.26 2.364
C 25.353 21.273 2.397
C 26.622 22.034 1.887
C 27.826 21.321 -4.37
C 26.545 22.085 -3.85
C 25.253 21.333 -4.336
C 27.841 24.336 -2.278
C 27.872 24.311 0.326
C 27.89 24.298 1.892
C 27.823 24.351 -3.845
C 31.696 23.544 -1.801
C 31.708 23.528 -0.236
C 29.133 22.057 -2.313
C 29.16 22.032 0.291
C 30.431 24.294 0.301
C 29.131 23.562 -1.78
C 29.147 23.547 -0.214
C 30.408 24.319 -2.303
C 31.728 23.504 2.35
C 29.177 22.019 1.858
C 29.174 23.523 2.371
C 30.446 24.28 1.868
C 31.676 23.569 -4.385
C 29.116 22.071 -3.88
C 30.394 24.335 -3.87
C 29.104 23.587 -4.363
C 32.987 21.263 -1.831
C 32.997 21.248 -0.266
C 31.72 22.014 0.269
C 30.421 21.282 -1.813
C 30.436 21.267 -0.248
C 31.7 22.039 -2.335
C 33.015 21.224 2.32
C 30.46 21.244 2.338
C 31.733 22 1.836
C 32.97 21.289 -4.415
C 31.687 22.054 -3.902
C 30.398 21.307 -4.396
C 32.975 24.299 -2.321
C 32.991 24.273 0.284
C 33.002 24.258 1.85
C 32.964 24.314 -3.887
C 34.266 22.018 -2.35
C 34.281 21.992 0.254
C 35.553 24.247 0.273
C 34.261 23.521 -1.815
C 34.269 23.505 -0.25
C 35.541 24.273 -2.332
C 34.29 21.978 1.821
C 34.283 23.48 2.336
C 35.559 24.232 1.839
C 34.258 22.033 -3.917
C 35.534 24.289 -3.898
C 34.247 23.548 -4.399
C 35.552 21.24 -1.844
C 35.559 21.224 -0.278
C 35.571 21.199 2.307
C 35.541 21.266 -4.428
C 2.177 24.388 -1.637
C 2.258 24.365 0.965
C 2.307 24.351 2.531
C 2.128 24.403 -3.203
C 6.044 23.617 -1.25
C 6.091 23.603 0.314
C 3.468 22.114 -1.7
C 3.548 22.09 0.902
C 4.823 24.361 0.882
C 3.478 23.62 -1.167
C 3.526 23.606 0.397
C 4.743 24.385 -1.721
C 6.171 23.58 2.897
C 3.597 22.077 2.468
C 3.607 23.583 2.98
C 4.872 24.348 2.447
C 5.964 23.64 -3.832
C 3.419 22.128 -3.265
C 4.695 24.399 -3.287
C 3.397 23.644 -3.749
C 7.334 21.342 -1.311
C 7.38 21.328 0.253
C 6.113 22.087 0.82
C 4.768 21.345 -1.229
C 4.816 21.331 0.335
C 6.033 22.11 -1.782
C 7.459 21.306 2.836
C 4.896 21.308 2.918
C 6.161 22.074 2.386
C 7.255 21.365 -3.893
C 5.986 22.124 -3.348
C 4.688 21.368 -3.811
C -2.954 24.399 -1.472
C -2.875 24.375 1.131
C -2.828 24.36 2.697
C -3.001 24.414 -3.038
C 0.912 23.624 -1.083
C 0.96 23.61 0.481
C -1.663 22.124 -1.533
C -1.584 22.1 1.068
C -0.308 24.369 1.049
C -1.654 23.63 -1
C -1.606 23.615 0.564
C -0.388 24.393 -1.554
C 1.042 23.587 3.063
C -1.536 22.085 2.634
C -1.526 23.592 3.146
C -0.26 24.355 2.615
C 0.831 23.648 -3.666
C -1.711 22.138 -3.099
C -0.437 24.408 -3.12
C -1.733 23.654 -3.583
C 2.202 21.349 -1.146
C 2.25 21.335 0.418
C 0.983 22.094 0.986
C -0.363 21.354 -1.063
C -0.316 21.339 0.502
C 0.902 22.118 -1.616
C 2.332 21.312 3.001
C -0.235 21.316 3.083
C 1.031 22.08 2.552
C 2.122 21.372 -3.728
C 0.854 22.133 -3.182
C -0.443 21.378 -3.645
C -8.082 24.415 -1.318
C -8.012 24.39 1.285
C -7.969 24.375 2.851
C -8.125 24.431 -2.884
C -4.219 23.636 -0.92
C -4.173 23.622 0.645
C -6.792 22.138 -1.376
C -6.719 22.114 1.226
C -5.443 24.382 1.21
C -6.784 23.644 -0.843
C -6.741 23.63 0.722
C -5.518 24.406 -1.392
C -4.096 23.598 3.227
C -6.675 22.099 2.792
C -6.667 23.606 3.304
C -5.398 24.367 2.776
C -4.296 23.661 -3.503
C -6.836 22.154 -2.942
C -5.563 24.422 -2.958
C -6.857 23.669 -3.426
C -2.929 21.36 -0.981
C -2.882 21.345 0.583
C -4.151 22.106 1.149
C -5.494 21.367 -0.902
C -5.449 21.352 0.662
C -4.228 22.13 -1.453
C -2.804 21.321 3.165
C -5.374 21.328 3.244
C -4.105 22.091 2.715
C -3.007 21.384 -3.564
C -4.274 22.145 -3.019
C -5.569 21.392 -3.485
C -13.209 24.435 -1.185
C -13.149 24.41 1.418
C -13.113 24.395 2.984
C -13.245 24.451 -2.751
C -9.349 23.653 -0.77
C -9.308 23.639 0.794
C -11.919 22.157 -1.237
C -11.856 22.132 1.365
C -10.58 24.4 1.355
C -11.914 23.663 -0.704
C -11.876 23.649 0.861
C -10.646 24.425 -1.248
C -9.24 23.614 3.377
C -11.818 22.117 2.931
C -11.813 23.624 3.443
C -10.541 24.385 2.921
C -9.417 23.678 -3.354
C -11.957 22.173 -2.803
C -10.686 24.44 -2.814
C -11.976 23.688 -3.288
C -8.059 21.375 -0.827
C -8.016 21.361 0.737
C -9.287 22.123 1.299
C -10.623 21.384 -0.758
C -10.584 21.37 0.807
C -9.356 22.147 -1.304
C -7.946 21.336 3.319
C -10.518 21.345 3.388
C -9.246 22.107 2.865
C -8.129 21.4 -3.41
C -9.397 22.163 -2.87
C -10.688 21.41 -3.341
C -18.334 24.457 -1.079
C -18.285 24.432 1.524
C -18.256 24.416 3.09
C -18.363 24.473 -2.646
C -14.478 23.673 -0.644
C -14.443 23.659 0.921
C -17.044 22.178 -1.125
C -16.992 22.153 1.478
C -15.717 24.421 1.474
C -17.041 23.684 -0.591
C -17.01 23.67 0.974
C -15.772 24.446 -1.129
C -14.386 23.635 3.503
C -16.961 22.138 3.044
C -16.959 23.645 3.556
C -15.685 24.406 3.041
C -14.534 23.699 -3.228
C -17.074 22.194 -2.691
C -15.804 24.462 -2.695
C -17.092 23.71 -3.175
C -13.187 21.394 -0.695
C -13.151 21.38 0.87
C -14.424 22.143 1.425
C -15.751 21.405 -0.639
C -15.718 21.39 0.926
C -14.481 22.167 -1.178
C -13.091 21.355 3.452
C -15.664 21.365 3.508
C -14.39 22.127 2.991
C -13.247 21.42 -3.278
C -14.516 22.183 -2.744
C -15.804 21.431 -3.222
C -19.604 23.694 -0.545
C -19.576 23.68 1.02
C -19.53 23.655 3.603
C -19.649 23.72 -3.129
C -18.314 21.415 -0.589
C -18.284 21.4 0.976
C -19.559 22.163 1.524
C -19.605 22.188 -1.079
C -18.236 21.376 3.558
C -19.531 22.148 3.091
C -18.362 21.441 -3.173
C -19.633 22.204 -2.645
H 26.636 23.533 3.49
H 24.087 23.545 3.527
H 26.52 23.615 -5.423
H 23.943 23.626 -5.385
H 27.92 21.254 3.454
H 25.371 21.268 3.487
H 27.815 21.335 -5.46
H 25.239 21.346 -5.425
H 31.737 23.497 3.44
H 29.186 23.517 3.461
H 31.671 23.585 -5.474
H 29.096 23.602 -5.453
H 33.023 21.217 3.41
H 30.471 21.238 3.428
H 32.966 21.304 -5.505
H 30.391 21.321 -5.486
H 34.29 23.473 3.426
H 34.245 23.563 -5.489
H 35.577 21.192 3.397
H 35.539 21.282 -5.517
H -1.49 23.585 4.236
H -1.766 23.667 -4.673
H -4.061 23.591 4.316
H -6.634 23.599 4.394
H -4.328 23.674 -4.592
H -6.888 23.683 -4.515
H -2.768 21.314 4.254
H -5.34 21.321 4.333
H -3.04 21.397 -4.653
H -5.6 21.405 -4.574
H -9.209 23.608 4.466
H -11.785 23.617 4.533
H -9.446 23.692 -4.443
H -12.002 23.702 -4.377
H -7.914 21.329 4.408
H -10.489 21.338 4.478
H -8.159 21.414 -4.5
H -10.715 21.423 -4.431
H -14.361 23.628 4.593
H -16.937 23.639 4.646
H -14.557 23.713 -4.318
H -17.112 23.724 -4.265
H -13.065 21.348 4.541
H -15.641 21.359 4.598
H -13.271 21.434 -4.368
H -15.826 21.445 -4.312
H -19.511 23.649 4.693
H -19.667 23.735 -4.219
H -18.215 21.369 4.648
H -18.38 21.455 -4.263
H 20.086 21.361 -5.332
H 5.93 23.653 -4.922
H 7.222 21.378 -4.982
H 18.791 23.639 -5.285
H 17.511 21.366 -5.274
H 4.654 21.381 -4.9
H 16.216 23.643 -5.223
H 14.937 21.369 -5.209
H 3.363 23.657 -4.839
H 2.088 21.385 -4.817
H 13.643 23.646 -5.155
H 0.797 23.662 -4.755
H 12.364 21.372 -5.138
H -0.477 21.391 -4.734
H 11.07 23.648 -5.081
H 9.792 21.375 -5.062
H 21.367 23.633 -5.339
H 22.662 21.355 -5.383
H 8.5 23.651 -5.003
H 13.882 23.568 3.755
H 11.326 23.57 3.828
H 22.821 21.278 3.529
H -0.199 21.309 4.173
H 8.768 23.572 3.906
H 20.271 21.285 3.579
H 10.054 21.298 3.846
H 7.494 21.299 3.925
H 3.644 23.577 4.069
H 4.932 21.302 4.007
H 18.987 23.561 3.626
H 16.436 23.565 3.687
H 1.078 23.58 4.153
H 15.166 21.293 3.701
H 12.611 21.296 3.771
H 21.538 23.554 3.573
H 6.207 23.574 3.987
H 17.719 21.29 3.636
H 2.368 21.305 4.09
C 36.826 23.494 -1.824
C 36.832 23.478 -0.259
C 36.84 23.453 2.327
C 36.817 23.521 -4.408
C 38.117 21.212 -1.85
C 38.122 21.196 -0.286
C 36.842 21.966 0.245
C 36.833 21.992 -2.359
C 38.128 21.171 2.3
C 36.848 21.951 1.812
C 38.11 21.239 -4.435
C 36.827 22.008 -3.926
C 38.108 24.243 -2.338
C 38.115 24.217 0.266
C 38.118 24.201 1.833
C 38.103 24.259 -3.904
C 39.4 21.961 -2.363
C 39.405 21.935 0.24
C 40.678 24.182 0.264
C 39.392 23.462 -1.828
C 39.395 23.446 -0.263
C 40.675 24.209 -2.339
C 39.407 21.919 1.807
C 39.398 23.42 2.322
C 40.678 24.165 1.83
C 39.396 21.977 -3.93
C 40.67 24.224 -3.905
C 39.386 23.489 -4.412
C 40.683 21.18 -1.853
C 40.685 21.164 -0.289
C 40.686 21.137 2.297
C 40.679 21.206 -4.437
H 36.845 23.445 3.417
H 36.817 23.537 -5.498
H 38.132 21.163 3.39
H 38.111 21.255 -5.525
H 39.401 23.412 3.413
H 39.387 23.505 -5.502
H 40.689 21.13 3.387
H 40.681 21.222 -5.527
C 41.959 23.426 -1.829
C 41.96 23.41 -0.264
C 41.956 23.381 2.321
C 41.952 23.451 -4.413
C 43.25 21.143 -1.853
C 43.25 21.127 -0.289
C 41.969 21.899 0.239
C 41.967 21.925 -2.364
C 43.245 21.099 2.296
C 41.967 21.882 1.805
C 43.244 21.167 -4.437
C 41.963 21.94 -3.93
C 43.243 24.169 -2.342
C 43.244 24.142 0.266
C 43.238 24.123 1.832
C 43.236 24.182 -3.907
C 44.535 21.885 -2.366
C 44.535 21.859 0.242
C 45.814 24.098 0.288
C 44.529 23.386 -1.833
C 44.529 23.37 -0.258
C 45.815 24.125 -2.361
C 44.527 21.84 1.808
C 44.512 23.335 2.33
C 45.806 24.078 1.871
C 44.529 21.898 -3.931
C 45.807 24.137 -3.944
C 44.513 23.405 -4.421
C 45.82 21.102 -1.857
C 45.819 21.087 -0.282
C 45.801 21.052 2.307
C 45.805 21.12 -4.444
H 41.957 23.372 3.411
H 41.953 23.466 -5.503
H 43.245 21.089 3.387
H 43.246 21.182 -5.527
H 44.494 23.315 3.42
H 44.496 23.409 -5.511
H 45.782 21.033 3.397
H 45.789 21.124 -5.534
C 47.07 23.323 -1.823
C 47.07 23.307 -0.266
C 47.045 23.268 2.426
C 47.049 23.339 -4.514
C 48.361 21.039 -1.845
C 48.36 21.024 -0.288
C 47.104 21.814 0.265
C 47.106 21.84 -2.385
C 48.333 20.986 2.404
C 47.095 21.795 1.848
C 48.341 21.053 -4.537
C 47.099 21.852 -3.968
H 46.984 23.224 3.513
H 46.991 23.319 -5.601
H 48.273 20.943 3.491
H 48.283 21.032 -5.624
C -54.214 28.752 -0.38
C -54.143 28.729 2.271
C -54.091 28.712 3.854
C -54.249 28.762 -1.963
C -50.346 28.074 0.05
C -50.306 28.06 1.614
C -52.911 26.53 -0.414
C -52.84 26.507 2.196
C -51.58 28.784 2.179
C -52.91 28.024 0.116
C -52.868 28.01 1.691
C -51.649 28.807 -0.431
C -50.231 28.036 4.201
C -52.791 26.49 3.761
C -52.78 27.981 4.281
C -51.531 28.769 3.744
C -50.408 28.094 -2.536
C -52.947 26.541 -1.979
C -51.683 28.817 -1.997
C -52.963 28.038 -2.475
C -49.049 25.841 -0.004
C -49.009 25.826 1.56
C -50.281 26.556 2.122
C -51.609 25.797 0.067
C -51.567 25.782 1.631
C -50.35 26.579 -0.483
C -48.94 25.804 4.147
C -51.491 25.757 4.218
C -50.237 26.541 3.688
C -49.115 25.864 -2.591
C -50.388 26.592 -2.048
C -51.673 25.818 -2.52
C -49.087 28.857 -0.498
C -49.021 28.834 2.107
C -48.977 28.821 3.672
C -49.124 28.869 -2.064
C -45.228 28.159 -0.083
C -45.191 28.145 1.482
C -47.79 26.622 -0.552
C -47.725 26.599 2.054
C -46.464 28.878 2.041
C -47.786 28.119 -0.018
C -47.747 28.105 1.546
C -46.527 28.901 -0.564
C -45.129 28.123 4.069
C -47.684 26.586 3.62
C -47.68 28.083 4.133
C -46.425 28.865 3.607
C -45.288 28.183 -2.669
C -47.829 26.636 -2.118
C -46.564 28.915 -2.131
C -47.849 28.142 -2.604
C -43.934 25.914 -0.134
C -43.899 25.899 1.431
C -45.17 26.636 1.989
C -46.491 25.88 -0.071
C -46.453 25.865 1.493
C -45.231 26.66 -0.617
C -43.839 25.876 4.018
C -46.389 25.843 4.08
C -45.132 26.623 3.555
C -43.993 25.939 -2.72
C -45.268 26.675 -2.183
C -46.555 25.905 -2.658
C -43.967 28.939 -0.626
C -43.909 28.916 1.98
C -43.873 28.903 3.546
C -44.003 28.953 -2.193
C -40.112 28.219 -0.196
C -40.081 28.204 1.369
C -42.672 26.692 -0.677
C -42.615 26.668 1.929
C -41.354 28.946 1.923
C -42.67 28.192 -0.142
C -42.636 28.177 1.423
C -41.408 28.97 -0.683
C -40.029 28.181 3.956
C -42.581 26.655 3.495
C -42.579 28.155 4.01
C -41.321 28.933 3.489
C -40.164 28.244 -2.782
C -42.707 26.707 -2.243
C -41.441 28.985 -2.249
C -42.726 28.217 -2.728
C -38.819 25.962 -0.243
C -38.789 25.946 1.322
C -40.061 26.692 1.875
C -41.377 25.941 -0.191
C -41.344 25.926 1.374
C -40.113 26.717 -0.731
C -38.739 25.923 3.909
C -41.289 25.903 3.96
C -40.029 26.679 3.441
C -38.868 25.988 -2.828
C -40.145 26.732 -2.297
C -41.431 25.966 -2.777
C -38.848 28.994 -0.733
C -38.799 28.969 1.872
C -38.769 28.956 3.439
C -38.878 29.009 -2.3
C -34.995 28.252 -0.286
C -34.969 28.236 1.279
C -37.554 26.736 -0.779
C -37.506 26.711 1.827
C -36.243 28.986 1.827
C -37.554 28.238 -0.244
C -37.525 28.223 1.321
C -36.288 29.011 -0.778
C -34.927 28.213 3.865
C -37.478 26.697 3.393
C -37.479 28.2 3.908
C -36.216 28.973 3.393
C -35.037 28.278 -2.872
C -37.582 26.751 -2.345
C -36.315 29.027 -2.345
C -37.601 28.264 -2.829
C -33.702 25.986 -0.328
C -33.676 25.971 1.237
C -34.95 26.724 1.784
C -36.26 25.977 -0.288
C -36.233 25.961 1.277
C -34.994 26.749 -0.821
C -33.636 25.947 3.823
C -36.188 25.938 3.863
C -34.924 26.71 3.35
C -33.742 26.013 -2.913
C -35.019 26.764 -2.388
C -36.305 26.003 -2.873
C -33.728 29.022 -0.818
C -33.687 28.997 1.787
C -33.662 28.983 3.354
C -33.753 29.038 -2.385
C -29.876 28.262 -0.358
C -29.852 28.247 1.207
C -32.433 26.756 -0.859
C -32.393 26.731 1.746
C -31.128 29.002 1.751
C -32.436 28.26 -0.324
C -32.411 28.244 1.241
C -31.167 29.027 -0.854
C -29.815 28.223 3.792
C -32.369 26.716 3.313
C -32.373 28.22 3.827
C -31.105 28.988 3.318
C -29.913 28.288 -2.943
C -32.457 26.772 -2.425
C -31.19 29.043 -2.42
C -32.475 28.286 -2.909
C -28.582 25.991 -0.397
C -28.558 25.976 1.168
C -29.834 26.733 1.712
C -31.142 25.991 -0.364
C -31.118 25.975 1.201
C -29.872 26.758 -0.893
C -28.522 25.952 3.753
C -31.08 25.952 3.787
C -29.811 26.718 3.278
C -28.618 26.017 -2.982
C -29.895 26.774 -2.459
C -31.18 26.017 -2.948
C -28.606 29.028 -0.887
C -28.568 29.002 1.718
C -28.546 28.987 3.284
C -28.629 29.044 -2.454
C -24.753 28.255 -0.425
C -24.729 28.239 1.14
C -27.311 26.756 -0.926
C -27.273 26.731 1.679
C -26.006 28.998 1.685
C -27.315 28.26 -0.391
C -27.291 28.245 1.174
C -26.044 29.024 -0.92
C -24.691 28.215 3.725
C -27.251 26.716 3.245
C -27.255 28.221 3.759
C -25.983 28.983 3.251
C -24.791 28.281 -3.01
C -27.334 26.772 -2.492
C -26.067 29.04 -2.487
C -27.351 28.286 -2.976
C -23.459 25.98 -0.464
C -23.434 25.965 1.101
C -24.711 26.725 1.645
C -26.021 25.987 -0.43
C -25.997 25.972 1.135
C -24.75 26.751 -0.959
C -23.395 25.941 3.685
C -25.96 25.948 3.72
C -24.687 26.711 3.212
C -23.498 26.007 -3.049
C -24.773 26.767 -2.525
C -26.058 26.013 -3.015
C -23.483 29.016 -0.955
C -23.442 28.991 1.65
C -23.418 28.976 3.216
C -23.507 29.033 -2.521
C -22.188 26.743 -0.995
C -22.146 26.718 1.609
C -20.876 28.982 1.612
C -22.191 28.246 -0.461
C -22.165 28.231 1.104
C -20.92 29.007 -0.993
C -22.121 26.703 3.176
C -22.124 28.207 3.689
C -20.85 28.967 3.178
C -22.213 26.759 -2.561
C -20.947 29.023 -2.559
C -22.232 28.273 -3.046
C -20.897 25.972 -0.502
C -20.87 25.957 1.063
C -20.826 25.933 3.646
C -20.94 25.998 -3.087
C -55.445 27.953 0.197
C -55.403 27.938 1.754
C -55.305 27.903 4.447
C -55.496 27.965 -2.497
C -54.172 25.749 0.135
C -54.129 25.734 1.709
C -55.403 26.454 2.291
C -56.707 25.681 0.217
C -56.664 25.665 1.774
C -55.476 26.478 -0.361
C -54.04 25.703 4.299
C -56.565 25.627 4.467
C -55.351 26.435 3.873
C -54.227 25.765 -2.456
C -55.512 26.489 -1.944
C -56.759 25.695 -2.478
H -34.91 28.207 4.955
H -37.46 28.194 4.998
H -35.054 28.294 -3.961
H -37.62 28.28 -3.919
H -33.619 25.942 4.913
H -36.17 25.932 4.953
H -33.758 26.028 -4.003
H -36.323 26.019 -3.963
H -29.801 28.217 4.882
H -32.357 28.215 4.917
H -29.926 28.304 -4.033
H -32.49 28.302 -3.999
H -28.507 25.946 4.843
H -31.065 25.946 4.877
H -28.632 26.032 -4.072
H -31.194 26.032 -4.038
H -24.675 28.209 4.815
H -27.24 28.215 4.849
H -24.805 28.296 -4.1
H -27.365 28.302 -4.066
H -23.378 25.935 4.775
H -25.945 25.942 4.809
H -23.513 26.021 -4.139
H -26.071 26.028 -4.104
H -22.107 28.201 4.778
H -22.247 28.287 -4.136
H -20.808 25.926 4.736
H -20.956 26.012 -4.177
H -41.455 25.982 -3.867
H -55.467 27.943 -3.586
H -54.24 25.766 -3.547
H -42.751 28.232 -3.818
H -44.02 25.954 -3.81
H -56.731 25.673 -3.566
H -45.316 28.198 -3.759
H -46.584 25.919 -3.747
H -47.879 28.157 -3.694
H -49.146 25.878 -3.68
H -50.438 28.107 -3.626
H -51.703 25.83 -3.61
H -40.186 28.26 -3.871
H -38.889 26.003 -3.918
H -52.975 28.04 -3.565
H -47.653 28.079 5.223
H -50.201 28.031 5.291
H -38.719 25.918 4.999
H -52.731 27.965 5.37
H -41.266 25.897 5.05
H -51.46 25.751 5.307
H -53.99 25.686 5.388
H -56.472 25.587 5.552
H -42.556 28.15 5.1
H -45.104 28.118 5.159
H -46.362 25.838 5.17
H -48.911 25.799 5.237
H -40.008 28.175 5.046
H -55.213 27.864 5.532
H -43.814 25.871 5.108
C 7.291 28.922 -1.763
C 7.37 28.898 0.84
C 7.418 28.884 2.406
C 7.244 28.936 -3.329
C 11.158 28.155 -1.37
C 11.202 28.14 0.195
C 8.584 26.652 -1.824
C 8.661 26.629 0.779
C 9.934 28.897 0.76
C 8.593 28.156 -1.291
C 8.639 28.142 0.273
C 9.858 28.921 -1.843
C 11.276 28.118 2.779
C 8.708 26.615 2.345
C 8.717 28.119 2.858
C 9.98 28.883 2.326
C 11.085 28.179 -3.953
C 8.537 26.666 -3.389
C 9.812 28.935 -3.409
C 8.515 28.18 -3.874
C 12.45 25.884 -1.427
C 12.492 25.869 0.138
C 11.224 26.627 0.701
C 9.884 25.886 -1.351
C 9.929 25.871 0.214
C 11.15 26.651 -1.902
C 12.564 25.847 2.722
C 10.006 25.849 2.798
C 11.269 26.614 2.267
C 12.378 25.907 -4.01
C 11.106 26.665 -3.468
C 9.809 25.909 -3.933
C 12.425 28.92 -1.92
C 12.496 28.895 0.684
C 12.539 28.882 2.25
C 12.382 28.934 -3.486
C 16.289 28.151 -1.512
C 16.326 28.136 0.053
C 13.717 26.649 -1.976
C 13.786 26.625 0.627
C 15.057 28.893 0.612
C 13.724 28.154 -1.444
C 13.765 28.139 0.121
C 14.991 28.918 -1.991
C 16.39 28.113 2.638
C 13.827 26.612 2.193
C 13.834 28.116 2.706
C 15.097 28.88 2.179
C 16.226 28.175 -4.095
C 13.675 26.663 -3.542
C 14.951 28.932 -3.557
C 13.655 28.177 -4.027
C 17.58 25.878 -1.563
C 17.616 25.863 0.001
C 16.346 26.622 0.559
C 15.015 25.881 -1.498
C 15.054 25.867 0.066
C 16.283 26.646 -2.044
C 17.676 25.841 2.586
C 15.121 25.845 2.651
C 16.384 26.609 2.125
C 17.52 25.901 -4.146
C 16.245 26.66 -3.61
C 14.949 25.905 -4.081
C 17.558 28.915 -2.056
C 17.617 28.89 0.548
C 17.653 28.876 2.114
C 17.522 28.93 -3.622
C 21.418 28.141 -1.627
C 21.447 28.125 -0.062
C 18.85 26.642 -2.106
C 18.906 26.618 0.498
C 20.176 28.885 0.49
C 18.854 28.147 -1.573
C 18.887 28.131 -0.009
C 20.124 28.91 -2.114
C 21.496 28.101 2.524
C 18.94 26.605 2.064
C 18.944 28.109 2.577
C 20.208 28.871 2.057
C 21.37 28.166 -4.21
C 18.816 26.656 -3.672
C 20.092 28.925 -3.68
C 18.798 28.171 -4.156
C 22.71 25.865 -1.671
C 22.737 25.85 -0.106
C 21.465 26.611 0.444
C 20.145 25.873 -1.621
C 20.177 25.858 -0.056
C 21.416 26.636 -2.16
C 22.782 25.827 2.48
C 20.23 25.835 2.529
C 21.495 26.598 2.011
C 22.665 25.889 -4.254
C 21.386 26.65 -3.726
C 20.092 25.897 -4.204
C 22.69 28.902 -2.163
C 22.735 28.876 0.441
C 22.762 28.862 2.008
C 22.663 28.918 -3.729
C 26.547 28.118 -1.708
C 26.567 28.102 -0.143
C 23.982 26.627 -2.205
C 24.024 26.602 0.399
C 25.293 28.865 0.401
C 23.983 28.131 -1.672
C 24.007 28.115 -0.107
C 25.256 28.891 -2.204
C 26.6 28.078 2.443
C 24.049 26.588 1.965
C 24.048 28.091 2.479
C 25.316 28.85 1.967
C 26.514 28.145 -4.292
C 23.957 26.641 -3.772
C 25.234 28.907 -3.77
C 23.942 28.157 -4.256
C 27.839 25.841 -1.745
C 27.857 25.825 -0.18
C 26.583 26.589 0.362
C 25.274 25.855 -1.712
C 25.297 25.839 -0.147
C 26.549 26.614 -2.242
C 27.887 25.801 2.406
C 25.335 25.816 2.439
C 26.603 26.575 1.929
C 27.81 25.866 -4.328
C 26.529 26.629 -3.808
C 25.237 25.88 -4.296
C 27.822 28.876 -2.236
C 27.852 28.849 0.369
C 27.87 28.834 1.936
C 27.804 28.892 -3.802
C 31.676 28.081 -1.756
C 31.688 28.064 -0.191
C 29.115 26.598 -2.27
C 29.142 26.572 0.334
C 30.411 28.83 0.346
C 29.111 28.102 -1.736
C 29.127 28.085 -0.171
C 30.388 28.857 -2.259
C 31.707 28.039 2.396
C 29.158 26.558 1.901
C 29.153 28.06 2.416
C 30.424 28.815 1.912
C 31.657 28.108 -4.34
C 29.099 26.614 -3.837
C 30.375 28.873 -3.826
C 29.086 28.129 -4.32
C 32.969 25.801 -1.786
C 32.979 25.785 -0.221
C 31.701 26.552 0.314
C 30.404 25.823 -1.769
C 30.418 25.807 -0.204
C 31.682 26.578 -2.291
C 32.995 25.76 2.365
C 30.44 25.783 2.382
C 31.713 26.537 1.881
C 32.953 25.828 -4.37
C 31.67 26.594 -3.857
C 30.381 25.849 -4.353
C 32.954 28.833 -2.275
C 32.971 28.806 0.329
C 32.981 28.79 1.896
C 32.944 28.85 -3.842
C 34.248 26.554 -2.304
C 34.262 26.527 0.301
C 35.532 28.777 0.319
C 34.241 28.055 -1.769
C 34.249 28.038 -0.204
C 35.521 28.805 -2.285
C 34.27 26.512 1.867
C 34.262 28.013 2.382
C 35.538 28.762 1.886
C 34.24 26.57 -3.87
C 35.513 28.821 -3.851
C 34.227 28.083 -4.354
C 35.534 25.775 -1.797
C 35.541 25.759 -0.232
C 35.551 25.733 2.355
C 35.523 25.802 -4.381
C 2.159 28.926 -1.596
C 2.24 28.902 1.007
C 2.289 28.888 2.573
C 2.11 28.941 -3.162
C 6.026 28.158 -1.209
C 6.074 28.144 0.355
C 3.451 26.657 -1.659
C 3.532 26.633 0.944
C 4.806 28.899 0.923
C 3.46 28.16 -1.126
C 3.509 28.146 0.439
C 4.725 28.923 -1.68
C 6.155 28.121 2.939
C 3.581 26.619 2.51
C 3.59 28.123 3.022
C 4.855 28.886 2.489
C 5.946 28.182 -3.792
C 3.402 26.671 -3.224
C 4.676 28.938 -3.246
C 3.379 28.185 -3.709
C 7.318 25.888 -1.271
C 7.365 25.873 0.294
C 6.097 26.631 0.861
C 4.753 25.89 -1.188
C 4.801 25.876 0.376
C 6.017 26.654 -1.742
C 7.445 25.851 2.877
C 4.882 25.853 2.959
C 6.146 26.617 2.427
C 7.24 25.911 -3.853
C 5.969 26.668 -3.308
C 4.672 25.914 -3.771
C -2.973 28.936 -1.43
C -2.895 28.912 1.174
C -2.847 28.897 2.74
C -3.021 28.951 -2.996
C 0.894 28.164 -1.042
C 0.942 28.15 0.523
C -1.68 26.666 -1.491
C -1.601 26.642 1.111
C -0.327 28.906 1.091
C -1.672 28.169 -0.958
C -1.625 28.155 0.606
C -0.408 28.93 -1.512
C 1.024 28.126 3.106
C -1.552 26.627 2.677
C -1.544 28.131 3.19
C -0.278 28.892 2.657
C 0.813 28.188 -3.625
C -1.728 26.681 -3.057
C -0.456 28.946 -3.078
C -1.752 28.194 -3.542
C 2.187 25.893 -1.104
C 2.235 25.879 0.46
C 0.966 26.637 1.028
C -0.379 25.898 -1.021
C -0.331 25.884 0.544
C 0.885 26.661 -1.575
C 2.317 25.856 3.043
C -0.251 25.86 3.127
C 1.015 26.623 2.594
C 2.105 25.917 -3.687
C 0.837 26.675 -3.14
C -0.46 25.922 -3.604
C -8.103 28.952 -1.275
C -8.032 28.927 1.329
C -7.989 28.912 2.895
C -8.146 28.968 -2.841
C -4.238 28.175 -0.877
C -4.192 28.161 0.687
C -6.81 26.68 -1.333
C -6.737 26.656 1.27
C -5.463 28.919 1.253
C -6.804 28.183 -0.8
C -6.76 28.169 0.765
C -5.539 28.943 -1.35
C -4.115 28.137 3.271
C -6.693 26.641 2.836
C -6.687 28.145 3.348
C -5.417 28.904 2.819
C -4.316 28.2 -3.461
C -6.854 26.696 -2.899
C -5.584 28.959 -2.916
C -6.878 28.209 -3.384
C -2.945 25.904 -0.938
C -2.898 25.889 0.626
C -4.168 26.648 1.192
C -5.511 25.911 -0.859
C -5.466 25.897 0.705
C -4.245 26.672 -1.41
C -2.82 25.866 3.209
C -5.39 25.873 3.288
C -4.122 26.633 2.758
C -3.024 25.928 -3.522
C -4.292 26.688 -2.976
C -5.586 25.936 -3.443
C -13.231 28.973 -1.142
C -13.171 28.948 1.462
C -13.135 28.933 3.028
C -13.268 28.989 -2.708
C -9.37 28.193 -0.727
C -9.329 28.178 0.838
C -11.938 26.7 -1.194
C -11.875 26.675 1.409
C -10.602 28.937 1.398
C -11.935 28.203 -0.66
C -11.897 28.188 0.904
C -10.668 28.962 -1.205
C -9.26 28.154 3.421
C -11.837 26.66 2.975
C -11.834 28.164 3.488
C -10.562 28.922 2.965
C -9.438 28.218 -3.311
C -11.976 26.716 -2.76
C -10.707 28.978 -2.771
C -11.998 28.229 -3.245
C -8.076 25.919 -0.784
C -8.034 25.905 0.781
C -9.306 26.665 1.342
C -10.641 25.929 -0.714
C -10.602 25.915 0.85
C -9.374 26.69 -1.261
C -7.963 25.881 3.363
C -10.536 25.891 3.433
C -9.264 26.65 2.909
C -8.147 25.945 -3.368
C -9.416 26.705 -2.827
C -10.707 25.955 -3.299
C -18.358 28.996 -1.036
C -18.309 28.971 1.568
C -18.279 28.956 3.135
C -18.387 29.013 -2.602
C -14.5 28.214 -0.6
C -14.465 28.2 0.964
C -17.064 26.722 -1.082
C -17.012 26.697 1.522
C -15.74 28.96 1.518
C -17.064 28.225 -0.547
C -17.033 28.211 1.017
C -15.795 28.985 -1.085
C -14.408 28.175 3.548
C -16.981 26.682 3.088
C -16.982 28.186 3.601
C -15.708 28.944 3.085
C -14.557 28.24 -3.185
C -17.095 26.738 -2.648
C -15.828 29.001 -2.652
C -17.115 28.252 -3.133
C -13.206 25.94 -0.651
C -13.17 25.925 0.914
C -14.444 26.686 1.469
C -15.77 25.951 -0.595
C -15.737 25.936 0.97
C -14.501 26.711 -1.134
C -13.11 25.901 3.496
C -15.683 25.912 3.553
C -14.409 26.671 3.035
C -13.266 25.965 -3.236
C -14.536 26.727 -2.701
C -15.824 25.976 -3.179
C -19.628 28.236 -0.501
C -19.599 28.222 1.064
C -19.554 28.197 3.648
C -19.673 28.263 -3.086
C -18.334 25.961 -0.545
C -18.304 25.947 1.02
C -19.58 26.708 1.568
C -19.626 26.733 -1.035
C -18.256 25.922 3.603
C -19.552 26.693 3.135
C -18.382 25.987 -3.13
C -19.654 26.749 -2.602
H 26.615 28.071 3.533
H 24.067 28.085 3.569
H 26.502 28.159 -5.382
H 23.926 28.171 -5.345
H 27.901 25.795 3.496
H 25.352 25.81 3.529
H 27.799 25.881 -5.418
H 25.223 25.894 -5.385
H 31.715 28.032 3.486
H 29.164 28.054 3.505
H 31.652 28.123 -5.43
H 29.077 28.144 -5.41
H 33.002 25.754 3.455
H 30.451 25.776 3.472
H 32.949 25.844 -5.46
H 30.375 25.864 -5.443
H 34.268 28.006 3.472
H 34.225 28.098 -5.443
H 35.556 25.727 3.445
H 35.522 25.818 -5.471
H -1.509 28.124 4.279
H -1.786 28.207 -4.631
H -4.08 28.13 4.36
H -6.654 28.138 4.438
H -4.348 28.214 -4.55
H -6.908 28.222 -4.473
H -2.784 25.859 4.298
H -5.357 25.866 4.377
H -3.057 25.942 -4.611
H -5.618 25.949 -4.532
H -9.229 28.147 4.51
H -11.806 28.158 4.577
H -9.467 28.232 -4.401
H -12.024 28.242 -4.335
H -7.931 25.874 4.453
H -10.507 25.884 4.522
H -8.177 25.958 -4.457
H -10.734 25.968 -4.388
H -14.383 28.169 4.638
H -16.96 28.18 4.691
H -14.579 28.254 -4.275
H -17.135 28.266 -4.222
H -13.083 25.894 4.586
H -15.66 25.905 4.643
H -13.29 25.979 -4.325
H -15.845 25.99 -4.269
H -19.534 28.191 4.738
H -19.69 28.277 -4.176
H -18.235 25.916 4.693
H -18.4 26.002 -4.22
H 20.071 25.91 -5.294
H 5.912 28.195 -4.882
H 7.206 25.924 -4.943
H 18.774 28.185 -5.246
H 17.495 25.915 -5.235
H 4.638 25.927 -4.86
H 16.199 28.189 -5.184
H 14.921 25.918 -5.17
H 3.344 28.198 -4.798
H 2.071 25.931 -4.777
H 13.626 28.191 -5.116
H 0.778 28.202 -4.714
H 12.348 25.92 -5.099
H -0.494 25.935 -4.693
H 11.053 28.192 -5.042
H 9.776 25.922 -5.023
H 21.35 28.18 -5.3
H 22.647 25.903 -5.344
H 8.482 28.193 -4.963
H 13.865 28.11 3.795
H 11.31 28.112 3.869
H 22.803 25.821 3.569
H -0.214 25.853 4.216
H 8.751 28.113 3.947
H 20.254 25.83 3.619
H 10.04 25.843 3.887
H 7.48 25.845 3.967
H 3.627 28.117 4.112
H 4.918 25.847 4.049
H 18.969 28.103 3.667
H 16.418 28.108 3.728
H 1.06 28.12 4.196
H 15.151 25.839 3.741
H 12.597 25.841 3.811
H 21.518 28.096 3.614
H 6.191 28.114 4.028
H 17.703 25.835 3.676
H 2.353 25.849 4.132
C 36.806 28.025 -1.776
C 36.812 28.009 -0.212
C 36.819 27.982 2.374
C 36.796 28.052 -4.361
C 38.099 25.744 -1.802
C 38.104 25.728 -0.238
C 36.824 26.498 0.293
C 36.815 26.525 -2.311
C 38.108 25.702 2.348
C 36.828 26.482 1.859
C 38.092 25.771 -4.386
C 36.809 26.541 -3.878
C 38.088 28.772 -2.29
C 38.096 28.745 0.313
C 38.097 28.728 1.879
C 38.081 28.787 -3.856
C 39.382 26.491 -2.315
C 39.387 26.464 0.289
C 40.661 28.707 0.314
C 39.373 27.991 -1.78
C 39.377 27.974 -0.215
C 40.657 28.734 -2.295
C 39.388 26.447 1.855
C 39.376 27.946 2.37
C 40.657 28.688 1.879
C 39.376 26.506 -3.88
C 40.648 28.747 -3.86
C 39.363 28.016 -4.364
C 40.667 25.709 -1.804
C 40.669 25.693 -0.24
C 40.666 25.664 2.346
C 40.658 25.734 -4.388
H 36.823 27.976 3.464
H 36.797 28.068 -5.451
H 38.112 25.695 3.438
H 38.093 25.787 -5.476
H 39.377 27.938 3.46
H 39.363 28.03 -5.454
H 40.667 25.656 3.436
H 40.659 25.749 -5.478
C 41.944 27.953 -1.786
C 41.946 27.936 -0.211
C 41.932 27.902 2.377
C 41.925 27.971 -4.373
C 43.237 25.67 -1.809
C 43.238 25.653 -0.234
C 41.953 26.425 0.29
C 41.951 26.452 -2.318
C 43.222 25.618 2.354
C 41.948 26.406 1.856
C 43.219 25.689 -4.397
C 41.942 26.465 -3.883
C 43.228 28.693 -2.315
C 43.231 28.665 0.334
C 43.224 28.645 1.917
C 43.219 28.706 -3.898
C 44.522 26.409 -2.338
C 44.523 26.382 0.311
C 44.485 27.892 -1.777
C 44.487 27.875 -0.22
C 44.516 26.361 1.895
C 44.464 27.836 2.473
C 44.513 26.422 -3.921
C 44.461 27.909 -4.468
C 45.778 25.608 -1.8
C 45.779 25.591 -0.243
C 45.755 25.551 2.45
C 45.755 25.624 -4.49
H 41.913 27.883 3.467
H 41.907 27.976 -5.463
H 43.204 25.599 3.444
H 43.202 25.693 -5.487
H 44.403 27.793 3.559
H 44.403 27.889 -5.555
H 45.694 25.508 3.536
H 45.698 25.605 -5.578
C -50.388 32.58 0.081
C -50.349 32.567 1.656
C -52.953 31.028 -0.399
C -52.884 31.006 2.252
C -51.626 33.285 2.233
C -52.924 32.505 0.157
C -52.884 32.492 1.714
C -51.693 33.306 -0.418
C -50.266 32.539 4.246
C -52.834 30.99 3.834
C -52.791 32.459 4.407
C -51.577 33.269 3.816
C -50.437 32.592 -2.509
C -52.987 31.038 -1.982
C -51.725 33.316 -2.001
C -52.971 32.515 -2.536
C -49.085 30.352 0.035
C -49.046 30.339 1.599
C -50.321 31.063 2.162
C -51.649 30.301 0.098
C -51.608 30.288 1.673
C -50.387 31.084 -0.448
C -48.974 30.316 4.186
C -51.522 30.259 4.263
C -50.273 31.048 3.727
C -49.145 30.372 -2.552
C -50.421 31.094 -2.014
C -51.7 30.315 -2.492
C -49.126 33.363 -0.464
C -49.062 33.342 2.146
C -49.017 33.328 3.711
C -49.158 33.373 -2.029
C -45.263 32.677 -0.042
C -45.228 32.663 1.523
C -47.825 31.135 -0.512
C -47.761 31.114 2.093
C -46.503 33.393 2.08
C -47.824 32.631 0.021
C -47.787 32.618 1.585
C -46.564 33.414 -0.525
C -45.167 32.643 4.11
C -47.72 31.1 3.658
C -47.717 32.596 4.172
C -46.463 33.38 3.646
C -45.321 32.699 -2.628
C -47.861 31.147 -2.078
C -46.598 33.426 -2.091
C -47.881 32.651 -2.566
C -43.965 30.438 -0.092
C -43.931 30.423 1.473
C -45.204 31.157 2.03
C -46.524 30.398 -0.031
C -46.487 30.384 1.534
C -45.264 31.18 -0.575
C -43.872 30.402 4.06
C -46.423 30.363 4.121
C -45.167 31.145 3.596
C -44.023 30.462 -2.678
C -45.3 31.193 -2.142
C -46.585 30.421 -2.617
C -44.003 33.458 -0.585
C -43.946 33.436 2.021
C -43.91 33.424 3.587
C -44.036 33.472 -2.151
C -40.146 32.747 -0.152
C -40.116 32.732 1.413
C -42.704 31.217 -0.634
C -42.649 31.194 1.972
C -41.39 33.472 1.966
C -42.704 32.716 -0.1
C -42.671 32.702 1.465
C -41.443 33.495 -0.64
C -40.065 32.71 4
C -42.615 31.181 3.538
C -42.616 32.681 4.053
C -41.358 33.459 3.532
C -40.196 32.772 -2.739
C -42.738 31.232 -2.2
C -41.474 33.509 -2.206
C -42.759 32.74 -2.686
C -38.849 30.495 -0.199
C -38.82 30.48 1.366
C -40.094 31.223 1.919
C -41.407 30.47 -0.148
C -41.375 30.455 1.417
C -40.145 31.247 -0.687
C -38.771 30.458 3.953
C -41.322 30.433 4.004
C -40.063 31.21 3.485
C -38.898 30.521 -2.785
C -40.176 31.262 -2.254
C -41.461 30.495 -2.734
C -38.883 33.523 -0.69
C -38.834 33.499 1.917
C -38.805 33.486 3.483
C -38.912 33.538 -2.256
C -35.028 32.786 -0.241
C -35.003 32.77 1.324
C -37.585 31.27 -0.734
C -37.538 31.245 1.871
C -36.278 33.518 1.872
C -37.587 32.77 -0.199
C -37.559 32.755 1.366
C -36.322 33.543 -0.734
C -34.961 32.747 3.911
C -37.51 31.232 3.438
C -37.514 32.732 3.953
C -36.252 33.505 3.439
C -35.07 32.812 -2.827
C -37.613 31.285 -2.301
C -36.349 33.558 -2.3
C -37.633 32.796 -2.785
C -33.731 30.525 -0.283
C -33.706 30.509 1.282
C -34.982 31.259 1.829
C -36.291 30.513 -0.243
C -36.264 30.498 1.322
C -35.024 31.285 -0.776
C -33.666 30.486 3.868
C -36.22 30.475 3.908
C -34.956 31.246 3.396
C -33.772 30.551 -2.869
C -35.05 31.3 -2.343
C -36.335 30.539 -2.829
C -33.761 33.555 -0.773
C -33.721 33.53 1.833
C -33.696 33.516 3.399
C -33.786 33.571 -2.34
C -29.908 32.797 -0.313
C -29.885 32.781 1.252
C -32.464 31.293 -0.814
C -32.424 31.268 1.792
C -31.162 33.535 1.797
C -32.468 32.794 -0.279
C -32.444 32.779 1.287
C -31.2 33.561 -0.809
C -29.848 32.757 3.838
C -32.4 31.253 3.358
C -32.406 32.755 3.873
C -31.139 33.521 3.364
C -29.945 32.824 -2.899
C -32.487 31.309 -2.38
C -31.223 33.577 -2.375
C -32.507 32.821 -2.865
C -28.611 30.53 -0.352
C -28.587 30.515 1.213
C -29.864 31.27 1.757
C -31.171 30.53 -0.319
C -31.148 30.514 1.246
C -29.902 31.296 -0.848
C -28.551 30.49 3.798
C -31.11 30.491 3.832
C -29.842 31.256 3.324
C -28.647 30.557 -2.938
C -29.925 31.312 -2.415
C -31.209 30.557 -2.904
C -28.638 33.56 -0.842
C -28.601 33.534 1.764
C -28.578 33.52 3.33
C -28.661 33.577 -2.408
C -24.783 32.788 -0.38
C -24.759 32.773 1.186
C -27.341 31.293 -0.881
C -27.303 31.268 1.724
C -26.037 33.529 1.73
C -27.346 32.794 -0.346
C -27.323 32.779 1.219
C -26.076 33.555 -0.875
C -24.721 32.748 3.771
C -27.28 31.253 3.29
C -27.287 32.754 3.805
C -26.015 33.514 3.297
C -24.822 32.815 -2.966
C -27.363 31.31 -2.448
C -26.099 33.572 -2.442
C -27.383 32.822 -2.932
C -23.486 30.519 -0.42
C -23.461 30.503 1.145
C -24.739 31.262 1.69
C -26.049 30.526 -0.385
C -26.025 30.511 1.18
C -24.778 31.287 -0.915
C -23.422 30.479 3.73
C -25.988 30.486 3.765
C -24.716 31.247 3.257
C -23.526 30.545 -3.006
C -24.802 31.304 -2.481
C -26.086 30.553 -2.971
C -23.513 33.547 -0.91
C -23.472 33.521 1.696
C -23.448 33.506 3.262
C -23.537 33.564 -2.476
C -22.216 31.278 -0.951
C -22.174 31.253 1.654
C -20.905 33.51 1.657
C -22.22 32.779 -0.416
C -22.194 32.764 1.149
C -20.949 33.537 -0.948
C -22.148 31.238 3.22
C -22.153 32.739 3.735
C -20.879 33.495 3.224
C -22.241 31.295 -2.517
C -20.976 33.554 -2.515
C -22.261 32.806 -3.002
C -20.923 30.509 -0.458
C -20.896 30.494 1.107
C -20.853 30.469 3.692
C -20.966 30.536 -3.044
C -54.184 30.228 0.177
C -54.143 30.214 1.734
C -54.047 30.18 4.427
C -54.233 30.239 -2.517
H -34.944 32.741 5.001
H -37.495 32.727 5.043
H -35.087 32.828 -3.917
H -37.653 32.812 -3.875
H -33.65 30.48 4.958
H -36.202 30.469 4.998
H -33.788 30.567 -3.958
H -36.353 30.555 -3.919
H -29.833 32.751 4.928
H -32.391 32.749 4.963
H -29.958 32.84 -3.989
H -32.522 32.837 -3.954
H -28.536 30.484 4.888
H -31.095 30.485 4.922
H -28.661 30.572 -4.028
H -31.223 30.572 -3.994
H -24.706 32.742 4.861
H -27.272 32.748 4.895
H -24.836 32.831 -4.055
H -27.396 32.837 -4.022
H -23.406 30.473 4.82
H -25.973 30.48 4.855
H -23.54 30.56 -4.095
H -26.1 30.568 -4.061
H -22.136 32.732 4.824
H -22.277 32.821 -4.092
H -20.835 30.463 4.781
H -20.983 30.55 -4.133
H -41.484 30.511 -3.824
H -54.204 30.217 -3.606
H -42.784 32.755 -3.776
H -44.05 30.477 -3.768
H -45.348 32.714 -3.718
H -46.613 30.435 -3.707
H -47.908 32.663 -3.656
H -49.173 30.385 -3.641
H -50.447 32.594 -3.599
H -51.711 30.316 -3.583
H -40.218 32.788 -3.828
H -38.919 30.537 -3.874
H -52.941 32.493 -3.625
H -47.69 32.591 5.261
H -50.219 32.524 5.335
H -38.751 30.452 5.043
H -52.701 32.421 5.492
H -41.299 30.428 5.094
H -51.474 30.244 5.352
H -53.956 30.142 5.511
H -42.593 32.676 5.142
H -45.142 32.638 5.2
H -46.397 30.359 5.211
H -48.945 30.311 5.275
H -40.044 32.705 5.09
H -43.848 30.397 5.15
C 7.272 33.451 -1.723
C 7.351 33.426 0.881
C 7.399 33.411 2.447
C 7.225 33.466 -3.289
C 11.14 32.689 -1.33
C 11.184 32.673 0.235
C 8.565 31.187 -1.784
C 8.643 31.163 0.82
C 9.915 33.426 0.801
C 8.574 32.689 -1.251
C 8.62 32.673 0.314
C 9.84 33.452 -1.803
C 11.258 32.649 2.821
C 8.69 31.149 2.386
C 8.698 32.649 2.899
C 9.961 33.411 2.367
C 11.067 32.714 -3.913
C 8.519 31.202 -3.35
C 9.794 33.467 -3.369
C 8.496 32.714 -3.835
C 12.432 30.423 -1.387
C 12.475 30.407 0.177
C 11.206 31.162 0.741
C 9.866 30.424 -1.311
C 9.911 30.408 0.254
C 11.132 31.187 -1.862
C 12.546 30.384 2.762
C 9.988 30.385 2.839
C 11.25 31.148 2.307
C 12.361 30.447 -3.971
C 11.088 31.202 -3.428
C 9.79 30.448 -3.894
C 12.407 33.453 -1.88
C 12.478 33.426 0.724
C 12.52 33.411 2.291
C 12.364 33.468 -3.446
C 16.272 32.688 -1.471
C 16.308 32.671 0.093
C 13.699 31.187 -1.936
C 13.768 31.162 0.667
C 15.039 33.426 0.654
C 13.706 32.689 -1.404
C 13.747 32.673 0.161
C 14.974 33.453 -1.951
C 16.371 32.646 2.68
C 13.809 31.148 2.234
C 13.815 32.648 2.747
C 15.078 33.41 2.22
C 16.209 32.715 -4.055
C 13.658 31.202 -3.503
C 14.935 33.469 -3.517
C 13.638 32.715 -3.987
C 17.562 30.419 -1.524
C 17.598 30.403 0.041
C 16.328 31.16 0.599
C 14.998 30.422 -1.459
C 15.037 30.406 0.106
C 16.266 31.186 -2.005
C 17.657 30.379 2.627
C 15.103 30.383 2.692
C 16.366 31.145 2.166
C 17.503 30.444 -4.107
C 16.228 31.201 -3.571
C 14.932 30.447 -4.042
C 17.54 33.452 -2.015
C 17.599 33.423 0.589
C 17.634 33.408 2.156
C 17.505 33.468 -3.581
C 21.4 32.679 -1.585
C 21.428 32.661 -0.02
C 18.832 31.182 -2.066
C 18.887 31.155 0.539
C 20.157 33.418 0.533
C 18.836 32.685 -1.532
C 18.869 32.667 0.033
C 20.106 33.448 -2.072
C 21.476 32.634 2.567
C 18.921 31.141 2.105
C 18.924 32.642 2.619
C 20.188 33.402 2.099
C 21.352 32.707 -4.168
C 18.798 31.198 -3.632
C 20.075 33.465 -3.638
C 18.781 32.713 -4.116
C 22.691 30.406 -1.63
C 22.717 30.389 -0.065
C 21.446 31.149 0.486
C 20.127 30.414 -1.581
C 20.158 30.397 -0.016
C 21.398 31.176 -2.119
C 22.762 30.364 2.522
C 20.21 30.373 2.57
C 21.475 31.134 2.052
C 22.647 30.433 -4.213
C 21.369 31.192 -3.685
C 20.075 30.44 -4.164
C 22.672 33.44 -2.12
C 22.715 33.41 0.485
C 22.742 33.393 2.052
C 22.645 33.458 -3.686
C 26.527 32.655 -1.664
C 26.546 32.636 -0.099
C 23.964 31.167 -2.163
C 24.004 31.138 0.442
C 25.273 33.397 0.446
C 23.964 32.669 -1.629
C 23.987 32.65 -0.064
C 25.237 33.428 -2.159
C 26.578 32.608 2.489
C 24.028 31.123 2.008
C 24.027 32.623 2.524
C 25.295 33.38 2.013
C 26.495 32.685 -4.248
C 23.939 31.183 -3.73
C 25.215 33.447 -3.726
C 23.924 32.698 -4.213
C 27.819 30.379 -1.701
C 27.837 30.361 -0.136
C 26.562 31.124 0.406
C 25.255 30.394 -1.67
C 25.277 30.377 -0.105
C 26.529 31.153 -2.199
C 27.865 30.335 2.451
C 25.313 30.352 2.482
C 26.582 31.108 1.973
C 27.79 30.407 -4.286
C 26.509 31.17 -3.765
C 25.218 30.422 -4.254
C 27.802 33.411 -2.19
C 27.831 33.38 0.415
C 27.848 33.362 1.982
C 27.784 33.431 -3.756
C 31.654 32.612 -1.71
C 31.666 32.593 -0.145
C 29.095 31.135 -2.226
C 29.121 31.106 0.379
C 30.39 33.358 0.393
C 29.09 32.636 -1.691
C 29.106 32.617 -0.126
C 30.367 33.389 -2.213
C 31.685 32.565 2.442
C 29.136 31.09 1.946
C 29.131 32.588 2.462
C 30.403 33.34 1.959
C 31.635 32.642 -4.295
C 29.079 31.152 -3.793
C 30.353 33.408 -3.779
C 29.065 32.666 -4.275
C 32.947 30.334 -1.74
C 32.958 30.317 -0.176
C 31.68 31.083 0.36
C 30.383 30.359 -1.725
C 30.397 30.341 -0.159
C 31.661 31.112 -2.245
C 32.973 30.29 2.411
C 30.418 30.315 2.428
C 31.691 31.067 1.926
C 32.931 30.362 -4.325
C 31.649 31.129 -3.812
C 30.361 30.387 -4.309
C 32.933 33.362 -2.229
C 32.95 33.331 0.376
C 32.959 33.313 1.943
C 32.921 33.381 -3.795
C 34.227 31.084 -2.258
C 34.241 31.055 0.347
C 35.512 33.301 0.365
C 34.219 32.583 -1.722
C 34.228 32.565 -0.158
C 35.499 33.33 -2.239
C 34.248 31.039 1.913
C 34.24 32.537 2.429
C 35.517 33.282 1.931
C 34.217 31.101 -3.824
C 35.489 33.347 -3.805
C 34.203 32.612 -4.307
C 35.512 30.305 -1.75
C 35.52 30.288 -0.186
C 35.529 30.261 2.401
C 35.5 30.332 -4.335
C 2.138 33.453 -1.555
C 2.219 33.428 1.049
C 2.269 33.413 2.615
C 2.088 33.468 -3.121
C 6.007 32.689 -1.169
C 6.055 32.673 0.396
C 3.432 31.19 -1.618
C 3.513 31.165 0.986
C 4.786 33.426 0.965
C 3.44 32.69 -1.084
C 3.489 32.675 0.48
C 4.705 33.451 -1.639
C 6.135 32.65 2.981
C 3.562 31.151 2.552
C 3.57 32.651 3.065
C 4.835 33.412 2.531
C 5.927 32.714 -3.753
C 3.383 31.205 -3.184
C 4.656 33.467 -3.205
C 3.358 32.715 -3.669
C 7.3 30.424 -1.23
C 7.347 30.409 0.334
C 6.079 31.164 0.902
C 4.734 30.426 -1.147
C 4.782 30.411 0.417
C 5.998 31.188 -1.702
C 7.426 30.386 2.919
C 4.863 30.388 3.002
C 6.127 31.15 2.468
C 7.221 30.449 -3.814
C 5.95 31.203 -3.268
C 4.653 30.45 -3.731
C -2.996 33.461 -1.387
C -2.917 33.436 1.217
C -2.869 33.421 2.783
C -3.043 33.477 -2.953
C 0.873 32.693 -1
C 0.922 32.678 0.565
C -1.701 31.197 -1.45
C -1.621 31.173 1.154
C -0.348 33.431 1.134
C -1.694 32.697 -0.916
C -1.646 32.682 0.649
C -0.429 33.456 -1.47
C 1.003 32.654 3.149
C -1.573 31.158 2.72
C -1.566 32.658 3.233
C -0.299 33.416 2.7
C 0.791 32.718 -3.584
C -1.75 31.213 -3.016
C -0.478 33.472 -3.036
C -1.775 32.722 -3.501
C 2.167 30.428 -1.063
C 2.216 30.413 0.502
C 0.946 31.168 1.07
C -0.4 30.432 -0.979
C -0.351 30.417 0.586
C 0.865 31.193 -1.533
C 2.298 30.39 3.086
C -0.27 30.394 3.17
C 0.996 31.154 2.636
C 2.085 30.453 -3.647
C 0.816 31.208 -3.099
C -0.481 30.457 -3.563
C -8.127 33.477 -1.232
C -8.056 33.452 1.373
C -8.013 33.436 2.939
C -8.171 33.494 -2.798
C -4.261 32.703 -0.834
C -4.215 32.688 0.73
C -6.833 31.212 -1.291
C -6.759 31.187 1.313
C -5.486 33.443 1.297
C -6.828 32.711 -0.756
C -6.784 32.696 0.808
C -5.562 33.468 -1.307
C -4.137 32.664 3.315
C -6.715 31.172 2.879
C -6.71 32.672 3.393
C -5.44 33.428 2.863
C -4.339 32.729 -3.419
C -6.877 31.228 -2.857
C -5.608 33.485 -2.873
C -6.902 32.737 -3.342
C -2.966 30.437 -0.896
C -2.919 30.423 0.669
C -4.19 31.179 1.236
C -5.533 30.445 -0.816
C -5.487 30.43 0.748
C -4.267 31.204 -1.368
C -2.84 30.399 3.252
C -5.412 30.406 3.332
C -4.143 31.164 2.802
C -3.045 30.463 -3.48
C -4.314 31.219 -2.934
C -5.608 30.47 -3.401
C -13.257 33.499 -1.098
C -13.197 33.474 1.507
C -13.161 33.458 3.073
C -13.294 33.516 -2.664
C -9.394 32.721 -0.683
C -9.353 32.706 0.881
C -11.962 31.232 -1.151
C -11.899 31.207 1.453
C -10.626 33.462 1.443
C -11.96 32.731 -0.616
C -11.922 32.717 0.948
C -10.693 33.488 -1.162
C -9.284 32.681 3.466
C -11.861 31.192 3.019
C -11.859 32.692 3.533
C -10.587 33.447 3.009
C -9.463 32.747 -3.269
C -12 31.249 -2.717
C -10.733 33.504 -2.728
C -12.023 32.758 -3.202
C -8.099 30.453 -0.741
C -8.056 30.439 0.824
C -9.329 31.196 1.386
C -10.664 30.463 -0.671
C -10.625 30.449 0.894
C -9.398 31.221 -1.218
C -7.985 30.414 3.407
C -10.559 30.424 3.477
C -9.287 31.181 2.952
C -8.17 30.479 -3.326
C -9.439 31.237 -2.784
C -10.73 30.489 -3.256
C -18.386 33.524 -0.992
C -18.337 33.499 1.613
C -18.307 33.483 3.18
C -18.415 33.541 -2.558
C -14.526 32.743 -0.556
C -14.491 32.728 1.009
C -17.09 31.256 -1.038
C -17.038 31.23 1.567
C -15.767 33.486 1.563
C -17.091 32.756 -0.503
C -17.06 32.741 1.062
C -15.822 33.512 -1.041
C -14.434 32.704 3.593
C -17.007 31.215 3.133
C -17.009 32.716 3.647
C -15.734 33.47 3.13
C -14.583 32.77 -3.142
C -17.121 31.273 -2.604
C -15.855 33.529 -2.608
C -17.142 32.783 -3.089
C -13.23 30.474 -0.608
C -13.194 30.46 0.957
C -14.469 31.218 1.513
C -15.795 30.486 -0.551
C -15.762 30.471 1.014
C -14.526 31.244 -1.091
C -13.134 30.435 3.541
C -15.708 30.447 3.598
C -14.434 31.203 3.08
C -13.29 30.501 -3.193
C -14.561 31.26 -2.657
C -15.849 30.512 -3.137
C -19.656 32.768 -0.457
C -19.628 32.753 1.108
C -19.582 32.728 3.693
C -19.702 32.795 -3.043
C -18.359 30.498 -0.501
C -18.33 30.483 1.064
C -19.606 31.242 1.613
C -19.653 31.268 -0.992
C -18.281 30.458 3.648
C -19.579 31.227 3.18
C -18.408 30.524 -3.087
C -19.681 31.284 -2.558
H 26.593 32.601 3.579
H 24.045 32.616 3.613
H 26.483 32.701 -5.338
H 23.908 32.714 -5.302
H 27.878 30.329 3.541
H 25.33 30.345 3.572
H 27.78 30.422 -5.375
H 25.204 30.437 -5.343
H 31.693 32.558 3.533
H 29.142 32.581 3.552
H 31.63 32.659 -5.384
H 29.057 32.683 -5.365
H 32.98 30.284 3.501
H 30.428 30.308 3.518
H 32.928 30.378 -5.415
H 30.354 30.403 -5.399
H 34.246 32.53 3.519
H 34.201 32.629 -5.397
H 35.534 30.254 3.491
H 35.499 30.348 -5.424
H -1.53 32.651 4.323
H -1.809 32.736 -4.59
H -4.102 32.657 4.404
H -6.677 32.665 4.482
H -4.372 32.742 -4.509
H -6.933 32.751 -4.431
H -2.805 30.392 4.342
H -5.378 30.399 4.421
H -3.079 30.476 -4.57
H -5.64 30.484 -4.49
H -9.254 32.674 4.555
H -11.831 32.685 4.622
H -9.492 32.761 -4.359
H -12.05 32.772 -4.292
H -7.953 30.408 4.497
H -10.53 30.418 4.567
H -8.2 30.493 -4.415
H -10.758 30.503 -4.346
H -14.409 32.697 4.683
H -16.987 32.709 4.736
H -14.606 32.784 -4.232
H -17.163 32.797 -4.179
H -13.107 30.429 4.631
H -15.684 30.44 4.688
H -13.314 30.515 -4.283
H -15.87 30.527 -4.226
H -19.563 32.721 4.783
H -19.719 32.81 -4.132
H -18.261 30.452 4.738
H -18.426 30.539 -4.177
H 20.053 30.454 -5.254
H 5.892 32.727 -4.842
H 7.187 30.462 -4.903
H 18.757 32.727 -5.205
H 17.478 30.458 -5.196
H 4.618 30.463 -4.82
H 16.182 32.729 -5.144
H 14.904 30.46 -5.131
H 3.323 32.728 -4.758
H 2.05 30.466 -4.736
H 13.608 32.729 -5.077
H 0.756 32.731 -4.673
H 12.33 30.461 -5.06
H -0.515 30.47 -4.652
H 11.035 32.728 -5.003
H 9.758 30.461 -4.984
H 21.333 32.723 -5.258
H 22.629 30.448 -5.303
H 8.463 32.727 -4.924
H 13.846 32.642 3.837
H 11.291 32.643 3.91
H 22.782 30.358 3.612
H -0.234 30.387 4.259
H 8.732 32.643 3.989
H 20.233 30.367 3.66
H 10.021 30.379 3.928
H 7.462 30.38 4.008
H 3.607 32.645 4.154
H 4.899 30.381 4.091
H 18.948 32.635 3.709
H 16.398 32.64 3.769
H 1.04 32.647 4.239
H 15.132 30.377 3.781
H 12.578 30.379 3.852
H 21.497 32.628 3.657
H 6.171 32.644 4.07
H 17.684 30.373 3.717
H 2.334 30.384 4.175
C 36.785 32.551 -1.731
C 36.793 32.533 -0.166
C 36.796 32.503 2.42
C 36.77 32.577 -4.315
C 38.08 30.272 -1.756
C 38.085 30.255 -0.191
C 36.804 31.024 0.338
C 36.794 31.052 -2.265
C 38.086 30.226 2.395
C 36.807 31.007 1.904
C 38.067 30.296 -4.34
C 36.785 31.067 -3.831
C 38.067 33.295 -2.248
C 38.077 33.266 0.361
C 38.076 33.246 1.927
C 38.055 33.309 -3.813
C 39.362 31.015 -2.272
C 39.369 30.987 0.337
C 40.646 33.227 0.378
C 39.355 32.515 -1.74
C 39.361 32.498 -0.165
C 40.638 33.255 -2.272
C 39.366 30.968 1.903
C 39.35 32.462 2.424
C 40.642 33.206 1.961
C 39.352 31.028 -3.837
C 40.626 33.269 -3.855
C 39.332 32.534 -4.328
C 40.65 30.235 -1.763
C 40.654 30.218 -0.188
C 40.641 30.183 2.4
C 40.629 30.253 -4.351
H 36.799 32.496 3.51
H 36.767 32.591 -5.405
H 38.087 30.219 3.485
H 38.066 30.311 -5.43
H 39.333 32.445 3.514
H 39.312 32.538 -5.418
H 40.623 30.165 3.49
H 40.61 30.257 -5.441
C 41.897 32.457 -1.734
C 41.901 32.44 -0.177
C 41.882 32.4 2.516
C 41.868 32.474 -4.425
C 43.191 30.175 -1.755
C 43.194 30.159 -0.198
C 41.939 30.947 0.356
C 41.934 30.975 -2.294
C 43.173 30.119 2.495
C 41.933 30.927 1.939
C 43.165 30.192 -4.446
C 41.923 30.988 -3.877
H 41.822 32.359 3.603
H 41.808 32.453 -5.513
H 43.112 30.077 3.581
H 43.106 30.172 -5.533
C -50.405 37.062 0.121
C -50.368 37.05 1.678
C -50.281 37.019 4.37
C -50.446 37.072 -2.572
C -49.128 34.859 0.065
C -49.091 34.846 1.64
C -50.369 35.564 2.216
C -51.664 34.783 0.139
C -51.626 34.77 1.695
C -50.432 35.585 -0.435
C -49.011 34.819 4.23
C -51.536 34.738 4.388
C -50.322 35.549 3.798
C -49.175 34.871 -2.525
C -50.463 35.594 -2.018
C -51.708 34.793 -2.554
C -49.172 37.865 -0.452
C -49.111 37.845 2.199
C -49.067 37.83 3.782
C -49.201 37.873 -2.035
C -45.304 37.19 -0.004
C -45.27 37.177 1.561
C -47.866 35.642 -0.478
C -47.805 35.622 2.132
C -46.548 37.902 2.118
C -47.868 37.138 0.05
C -47.833 37.126 1.625
C -46.605 37.922 -0.492
C -45.208 37.156 4.147
C -47.761 35.608 3.697
C -47.756 37.1 4.215
C -46.506 37.889 3.683
C -45.355 37.208 -2.59
C -47.896 35.651 -2.044
C -46.634 37.93 -2.057
C -47.912 37.15 -2.54
C -44.003 34.956 -0.051
C -43.969 34.942 1.513
C -45.245 35.672 2.069
C -46.564 34.91 0.008
C -46.528 34.898 1.572
C -45.303 35.693 -0.536
C -43.911 34.922 4.1
C -46.462 34.876 4.159
C -45.207 35.66 3.634
C -44.057 34.978 -2.637
C -45.335 35.705 -2.102
C -46.618 34.929 -2.579
C -44.042 37.972 -0.546
C -43.988 37.952 2.059
C -43.952 37.94 3.625
C -44.072 37.983 -2.112
C -40.184 37.269 -0.11
C -40.155 37.255 1.455
C -42.742 35.736 -0.593
C -42.688 35.714 2.013
C -41.431 37.992 2.007
C -42.743 37.233 -0.059
C -42.712 37.22 1.505
C -41.481 38.013 -0.599
C -40.106 37.235 4.043
C -42.654 35.703 3.579
C -42.657 37.201 4.093
C -41.399 37.98 3.573
C -40.232 37.292 -2.697
C -42.773 35.749 -2.159
C -41.511 38.026 -2.165
C -42.794 37.255 -2.646
C -38.885 35.022 -0.155
C -38.857 35.007 1.41
C -40.132 35.748 1.962
C -41.444 34.993 -0.105
C -41.413 34.979 1.459
C -40.181 35.771 -0.644
C -38.809 34.986 3.998
C -41.36 34.958 4.047
C -40.102 35.736 3.528
C -38.932 35.047 -2.741
C -40.211 35.785 -2.211
C -41.495 35.017 -2.692
C -38.92 38.045 -0.647
C -38.874 38.022 1.959
C -38.846 38.011 3.526
C -38.948 38.059 -2.213
C -35.065 37.312 -0.196
C -35.041 37.297 1.369
C -37.621 35.796 -0.69
C -37.576 35.772 1.916
C -36.317 38.043 1.917
C -37.625 37.295 -0.155
C -37.598 37.281 1.41
C -36.36 38.067 -0.69
C -35.001 37.275 3.956
C -37.548 35.76 3.482
C -37.554 37.259 3.997
C -36.292 38.031 3.483
C -35.106 37.338 -2.783
C -37.648 35.811 -2.257
C -36.385 38.082 -2.256
C -37.669 37.32 -2.742
C -33.767 35.055 -0.238
C -33.742 35.04 1.328
C -35.019 35.788 1.875
C -36.326 35.042 -0.198
C -36.3 35.028 1.367
C -35.06 35.813 -0.731
C -33.703 35.016 3.915
C -36.257 35.005 3.954
C -34.994 35.775 3.441
C -33.806 35.082 -2.824
C -35.085 35.829 -2.298
C -36.369 35.068 -2.785
C -33.799 38.08 -0.728
C -33.759 38.055 1.879
C -33.736 38.042 3.445
C -33.822 38.095 -2.294
C -29.943 37.322 -0.266
C -29.921 37.307 1.299
C -32.499 35.822 -0.768
C -32.46 35.797 1.838
C -31.199 38.059 1.844
C -32.505 37.321 -0.233
C -32.482 37.305 1.333
C -31.236 38.085 -0.763
C -29.885 37.283 3.886
C -32.437 35.783 3.404
C -32.445 37.282 3.92
C -31.177 38.045 3.41
C -29.98 37.35 -2.853
C -32.522 35.838 -2.335
C -31.259 38.101 -2.329
C -32.543 37.347 -2.819
C -28.644 35.06 -0.306
C -28.621 35.044 1.259
C -29.899 35.798 1.804
C -31.206 35.06 -0.273
C -31.183 35.045 1.292
C -29.937 35.824 -0.802
C -28.586 35.02 3.845
C -31.146 35.021 3.879
C -29.877 35.784 3.37
C -28.681 35.087 -2.893
C -29.959 35.841 -2.369
C -31.243 35.087 -2.859
C -28.673 38.083 -0.795
C -28.636 38.057 1.811
C -28.615 38.042 3.377
C -28.695 38.1 -2.362
C -24.816 37.31 -0.333
C -24.793 37.294 1.232
C -27.374 35.821 -0.835
C -27.337 35.794 1.771
C -26.072 38.049 1.778
C -27.38 37.318 -0.299
C -27.358 37.303 1.266
C -26.109 38.076 -0.828
C -24.755 37.269 3.819
C -27.314 35.779 3.337
C -27.322 37.278 3.853
C -26.049 38.034 3.344
C -24.854 37.338 -2.92
C -27.397 35.837 -2.402
C -26.132 38.093 -2.395
C -27.417 37.346 -2.886
C -23.518 35.046 -0.374
C -23.493 35.03 1.191
C -24.772 35.787 1.737
C -26.082 35.055 -0.339
C -26.058 35.039 1.226
C -24.811 35.813 -0.869
C -23.454 35.005 3.777
C -26.021 35.014 3.812
C -24.748 35.771 3.303
C -23.557 35.074 -2.961
C -24.834 35.83 -2.435
C -26.119 35.082 -2.926
C -23.545 38.065 -0.863
C -23.504 38.039 1.743
C -23.481 38.023 3.31
C -23.569 38.083 -2.43
C -22.247 35.802 -0.905
C -22.205 35.776 1.7
C -20.936 38.026 1.705
C -22.251 37.299 -0.369
C -22.226 37.283 1.196
C -20.98 38.053 -0.902
C -22.18 35.76 3.267
C -22.185 37.257 3.782
C -20.909 38.01 3.271
C -22.272 35.82 -2.472
C -21.006 38.071 -2.468
C -22.293 37.327 -2.956
C -20.953 35.035 -0.413
C -20.926 35.019 1.153
C -20.883 34.994 3.738
C -20.997 35.063 -2.999
H -34.984 37.269 5.046
H -37.536 37.254 5.087
H -35.123 37.354 -3.873
H -37.688 37.336 -3.832
H -33.687 35.011 5.004
H -36.24 35 5.044
H -33.822 35.098 -3.914
H -36.387 35.084 -3.875
H -29.871 37.276 4.976
H -32.43 37.276 5.01
H -29.993 37.366 -3.943
H -32.558 37.364 -3.909
H -28.571 35.014 4.935
H -31.131 35.015 4.969
H -28.694 35.103 -3.983
H -31.258 35.104 -3.949
H -24.74 37.262 4.909
H -27.308 37.271 4.943
H -24.869 37.354 -4.01
H -27.43 37.362 -3.976
H -23.438 34.999 4.867
H -26.007 35.008 4.902
H -23.572 35.089 -4.051
H -26.132 35.098 -4.016
H -22.168 37.25 4.872
H -22.308 37.343 -4.046
H -20.865 34.987 4.828
H -21.013 35.078 -4.089
H -41.519 35.032 -3.782
H -42.818 37.27 -3.735
H -44.083 34.992 -3.727
H -45.379 37.22 -3.68
H -46.644 34.942 -3.668
H -47.92 37.151 -3.63
H -49.184 34.873 -3.615
H -50.414 37.05 -3.66
H -51.678 34.771 -3.643
H -40.254 37.308 -3.786
H -38.953 35.063 -3.831
H -47.712 37.086 5.304
H -50.194 36.982 5.456
H -38.79 34.981 5.088
H -41.339 34.954 5.137
H -51.448 34.701 5.473
H -42.636 37.197 5.182
H -45.183 37.152 5.237
H -46.436 34.871 5.249
H -48.965 34.804 5.319
H -40.086 37.231 5.132
H -43.889 34.918 5.19
C 7.255 37.968 -1.681
C 7.332 37.94 0.925
C 7.38 37.924 2.491
C 7.207 37.985 -3.247
C 11.124 37.212 -1.287
C 11.167 37.194 0.278
C 8.547 35.712 -1.743
C 8.624 35.685 0.862
C 9.897 37.942 0.844
C 8.557 37.209 -1.209
C 8.602 37.192 0.356
C 9.823 37.971 -1.761
C 11.239 37.167 2.865
C 8.67 35.67 2.428
C 8.679 37.166 2.943
C 9.942 37.926 2.411
C 11.052 37.241 -3.871
C 8.501 35.728 -3.309
C 9.778 37.989 -3.327
C 8.479 37.237 -3.793
C 12.415 34.953 -1.346
C 12.457 34.935 0.218
C 11.188 35.686 0.783
C 9.849 34.951 -1.27
C 9.893 34.935 0.295
C 11.115 35.714 -1.821
C 12.527 34.91 2.805
C 9.969 34.91 2.881
C 11.232 35.671 2.349
C 12.344 34.98 -3.93
C 11.071 35.731 -3.387
C 9.773 34.978 -3.854
C 12.392 37.975 -1.836
C 12.461 37.945 0.769
C 12.502 37.928 2.335
C 12.35 37.994 -3.402
C 16.257 37.217 -1.426
C 16.292 37.197 0.139
C 13.683 35.716 -1.895
C 13.75 35.688 0.71
C 15.023 37.947 0.699
C 13.691 37.215 -1.36
C 13.73 37.196 0.205
C 14.96 37.979 -1.906
C 16.352 37.167 2.726
C 13.79 35.671 2.276
C 13.797 37.168 2.792
C 15.061 37.928 2.266
C 16.197 37.249 -4.01
C 13.642 35.734 -3.461
C 14.922 37.999 -3.472
C 13.624 37.245 -3.944
C 17.546 34.953 -1.481
C 17.58 34.934 0.084
C 16.31 35.687 0.643
C 14.981 34.954 -1.417
C 15.019 34.936 0.148
C 16.25 35.718 -1.962
C 17.638 34.906 2.671
C 15.084 34.909 2.735
C 16.347 35.67 2.209
C 17.488 34.982 -4.065
C 16.213 35.736 -3.528
C 14.916 34.982 -4.001
C 17.527 37.981 -1.968
C 17.583 37.946 0.637
C 17.616 37.927 2.204
C 17.493 38.003 -3.534
C 21.385 37.211 -1.535
C 21.412 37.189 0.03
C 18.816 35.716 -2.021
C 18.87 35.684 0.584
C 20.141 37.943 0.584
C 18.822 37.216 -1.485
C 18.853 37.195 0.08
C 20.093 37.98 -2.022
C 21.457 37.155 2.618
C 18.902 35.667 2.15
C 18.905 37.163 2.668
C 20.171 37.922 2.15
C 21.34 37.248 -4.12
C 18.783 35.736 -3.588
C 20.064 38.003 -3.588
C 18.769 37.25 -4.069
C 22.673 34.941 -1.584
C 22.699 34.921 -0.019
C 21.428 35.678 0.532
C 20.11 34.949 -1.537
C 20.14 34.929 0.028
C 21.382 35.712 -2.073
C 22.742 34.891 2.569
C 20.19 34.9 2.616
C 21.456 35.659 2.099
C 22.631 34.974 -4.168
C 21.353 35.732 -3.639
C 20.06 34.98 -4.121
C 22.658 37.974 -2.067
C 22.699 37.935 0.538
C 22.724 37.912 2.105
C 22.633 37.998 -3.634
C 26.509 37.186 -1.611
C 26.529 37.162 -0.046
C 23.946 35.702 -2.116
C 23.985 35.667 0.49
C 25.256 37.921 0.501
C 23.948 37.202 -1.577
C 23.97 37.178 -0.012
C 25.222 37.962 -2.105
C 26.559 37.126 2.543
C 24.008 35.648 2.056
C 24.008 37.143 2.576
C 25.276 37.897 2.068
C 26.478 37.225 -4.195
C 23.922 35.723 -3.682
C 25.2 37.987 -3.671
C 23.91 37.24 -4.162
C 27.799 34.911 -1.653
C 27.816 34.89 -0.088
C 26.543 35.651 0.456
C 25.236 34.929 -1.623
C 25.258 34.908 -0.058
C 26.511 35.687 -2.15
C 27.844 34.859 2.5
C 25.293 34.877 2.53
C 26.562 35.631 2.022
C 27.77 34.946 -4.238
C 26.491 35.709 -3.716
C 25.201 34.963 -4.207
C 27.785 37.943 -2.134
C 27.813 37.901 0.472
C 27.83 37.877 2.038
C 27.767 37.968 -3.7
C 31.634 37.137 -1.656
C 31.648 37.114 -0.092
C 29.075 35.666 -2.176
C 29.101 35.631 0.429
C 30.372 37.876 0.449
C 29.071 37.164 -1.637
C 29.087 37.141 -0.072
C 30.348 37.917 -2.157
C 31.666 37.077 2.496
C 29.116 35.61 1.996
C 29.112 37.104 2.516
C 30.385 37.852 2.015
C 31.612 37.175 -4.241
C 29.059 35.688 -3.743
C 30.333 37.942 -3.723
C 29.045 37.204 -4.222
C 32.926 34.861 -1.692
C 32.937 34.84 -0.127
C 31.66 35.605 0.41
C 30.362 34.889 -1.676
C 30.376 34.868 -0.111
C 31.639 35.64 -2.195
C 32.952 34.809 2.46
C 30.397 34.836 2.477
C 31.671 35.585 1.976
C 32.907 34.893 -4.277
C 31.626 35.661 -3.762
C 30.339 34.922 -4.261
C 32.913 37.886 -2.174
C 32.933 37.847 0.43
C 32.941 37.823 1.996
C 32.898 37.909 -3.74
C 34.205 35.608 -2.209
C 34.222 35.575 0.395
C 35.497 37.814 0.419
C 34.199 37.105 -1.671
C 34.211 37.083 -0.107
C 35.479 37.85 -2.19
C 34.228 35.554 1.961
C 34.221 37.046 2.48
C 35.499 37.789 1.984
C 34.193 35.628 -3.775
C 35.462 37.87 -3.756
C 34.176 37.139 -4.256
C 35.492 34.829 -1.703
C 35.501 34.809 -0.139
C 35.508 34.777 2.448
C 35.473 34.857 -4.288
C 2.117 37.966 -1.512
C 2.199 37.939 1.093
C 2.248 37.923 2.659
C 2.068 37.983 -3.078
C 5.988 37.207 -1.126
C 6.036 37.19 0.438
C 3.411 35.71 -1.576
C 3.493 35.685 1.028
C 4.766 37.939 1.008
C 3.42 37.206 -1.042
C 3.468 37.19 0.523
C 4.686 37.966 -1.597
C 6.116 37.165 3.025
C 3.542 35.67 2.594
C 3.55 37.165 3.109
C 4.815 37.923 2.574
C 5.908 37.234 -3.711
C 3.362 35.727 -3.142
C 4.637 37.983 -3.163
C 3.338 37.233 -3.627
C 7.281 34.95 -1.189
C 7.328 34.934 0.375
C 6.059 35.684 0.944
C 4.714 34.95 -1.106
C 4.762 34.934 0.459
C 5.979 35.71 -1.661
C 7.407 34.909 2.961
C 4.843 34.91 3.044
C 6.107 35.669 2.51
C 7.202 34.976 -3.774
C 5.931 35.727 -3.227
C 4.632 34.975 -3.69
C -3.018 37.973 -1.344
C -2.939 37.946 1.262
C -2.891 37.93 2.828
C -3.066 37.99 -2.91
C 0.852 37.208 -0.957
C 0.9 37.192 0.608
C -1.724 35.716 -1.407
C -1.643 35.69 1.198
C -0.37 37.941 1.178
C -1.716 37.211 -0.872
C -1.668 37.196 0.692
C -0.451 37.968 -1.427
C 0.982 37.167 3.194
C -1.595 35.675 2.764
C -1.588 37.17 3.278
C -0.321 37.926 2.744
C 0.77 37.235 -3.542
C -1.772 35.732 -2.973
C -0.5 37.985 -2.993
C -1.797 37.238 -3.458
C 2.146 34.951 -1.021
C 2.195 34.935 0.544
C 0.925 35.686 1.113
C -0.421 34.954 -0.936
C -0.373 34.938 0.628
C 0.844 35.712 -1.491
C 2.277 34.911 3.129
C -0.292 34.914 3.214
C 0.974 35.671 2.679
C 2.064 34.977 -3.606
C 0.794 35.728 -3.057
C -0.503 34.98 -3.521
C -8.152 37.989 -1.187
C -8.08 37.962 1.419
C -8.037 37.946 2.985
C -8.195 38.006 -2.753
C -4.284 37.217 -0.79
C -4.238 37.202 0.775
C -6.857 35.73 -1.247
C -6.783 35.704 1.358
C -5.509 37.953 1.342
C -6.852 37.225 -0.712
C -6.808 37.209 0.853
C -5.585 37.98 -1.263
C -4.16 37.176 3.36
C -6.739 35.688 2.924
C -6.734 37.184 3.439
C -5.464 37.937 2.909
C -4.362 37.244 -3.376
C -6.902 35.747 -2.813
C -5.631 37.997 -2.829
C -6.926 37.252 -3.298
C -2.989 34.959 -0.853
C -2.942 34.943 0.712
C -4.213 35.696 1.28
C -5.556 34.966 -0.773
C -5.511 34.95 0.792
C -4.291 35.722 -1.325
C -2.862 34.919 3.297
C -5.435 34.926 3.377
C -4.166 35.681 2.846
C -3.069 34.985 -3.438
C -4.338 35.739 -2.891
C -5.633 34.992 -3.359
C -13.284 38.012 -1.053
C -13.223 37.985 1.553
C -13.187 37.968 3.12
C -13.321 38.03 -2.619
C -9.419 37.235 -0.638
C -9.378 37.219 0.927
C -11.988 35.751 -1.107
C -11.925 35.725 1.499
C -10.651 37.973 1.489
C -11.986 37.246 -0.571
C -11.948 37.231 0.994
C -10.718 38 -1.117
C -9.309 37.194 3.512
C -11.886 35.709 3.065
C -11.885 37.205 3.58
C -10.612 37.956 3.055
C -9.489 37.263 -3.225
C -12.027 35.769 -2.673
C -10.758 38.017 -2.683
C -12.05 37.274 -3.158
C -8.123 34.974 -0.697
C -8.081 34.959 0.868
C -9.354 35.714 1.431
C -10.69 34.985 -0.627
C -10.65 34.97 0.938
C -9.423 35.74 -1.174
C -8.009 34.934 3.453
C -10.584 34.945 3.523
C -9.312 35.698 2.998
C -8.195 35.001 -3.283
C -9.465 35.757 -2.74
C -10.756 35.012 -3.213
C -18.415 38.039 -0.945
C -18.365 38.012 1.661
C -18.336 37.996 3.227
C -18.444 38.057 -2.512
C -14.553 37.259 -0.51
C -14.518 37.244 1.055
C -17.118 35.777 -0.993
C -17.066 35.751 1.613
C -15.794 37.998 1.61
C -17.119 37.273 -0.457
C -17.088 37.257 1.108
C -15.849 38.025 -0.996
C -14.461 37.218 3.64
C -17.035 35.735 3.179
C -17.037 37.231 3.694
C -15.762 37.982 3.177
C -14.611 37.287 -3.098
C -17.149 35.795 -2.559
C -15.882 38.043 -2.562
C -17.171 37.301 -3.044
C -13.256 34.997 -0.563
C -13.22 34.982 1.002
C -14.496 35.738 1.559
C -15.822 35.009 -0.506
C -15.789 34.994 1.059
C -14.553 35.764 -1.046
C -13.16 34.956 3.587
C -15.735 34.969 3.644
C -14.461 35.722 3.125
C -13.317 35.024 -3.149
C -14.588 35.781 -2.613
C -15.877 35.037 -3.093
C -19.686 37.286 -0.41
C -19.657 37.27 1.155
C -19.612 37.244 3.741
C -19.732 37.315 -2.997
C -18.388 35.022 -0.456
C -18.358 35.007 1.109
C -19.636 35.764 1.659
C -19.683 35.79 -0.946
C -18.31 34.982 3.694
C -19.608 35.748 3.226
C -18.437 35.05 -3.043
C -19.711 35.808 -2.513
H 26.572 37.116 3.633
H 24.024 37.133 3.666
H 26.466 37.245 -5.285
H 23.894 37.259 -5.251
H 27.856 34.851 3.59
H 25.308 34.869 3.62
H 27.76 34.963 -5.327
H 25.187 34.98 -5.297
H 31.674 37.068 3.586
H 29.122 37.094 3.606
H 31.606 37.194 -5.331
H 29.037 37.223 -5.311
H 32.959 34.801 3.55
H 30.407 34.828 3.567
H 32.903 34.91 -5.366
H 30.332 34.94 -5.35
H 34.226 37.037 3.57
H 34.17 37.156 -5.346
H 35.511 34.769 3.538
H 35.469 34.873 -5.378
H -1.552 37.163 4.368
H -1.832 37.252 -4.548
H -4.125 37.169 4.45
H -6.701 37.176 4.528
H -4.396 37.258 -4.466
H -6.958 37.267 -4.388
H -2.827 34.912 4.386
H -5.401 34.919 4.466
H -3.103 34.999 -4.528
H -5.665 35.006 -4.448
H -9.278 37.186 4.602
H -11.857 37.198 4.669
H -9.518 37.277 -4.315
H -12.076 37.289 -4.248
H -7.977 34.927 4.542
H -10.555 34.938 4.613
H -8.225 35.015 -4.373
H -10.784 35.026 -4.303
H -14.436 37.21 4.73
H -17.015 37.224 4.784
H -14.634 37.302 -4.187
H -17.192 37.316 -4.134
H -13.134 34.949 4.677
H -15.712 34.962 4.734
H -13.342 35.039 -4.239
H -15.899 35.052 -4.182
H -19.593 37.237 4.831
H -19.749 37.33 -4.087
H -18.29 34.975 4.784
H -18.456 35.065 -4.133
H 20.038 34.996 -5.21
H 5.873 37.248 -4.801
H 7.168 34.99 -4.863
H 18.746 37.267 -5.159
H 17.463 34.998 -5.154
H 4.597 34.989 -4.78
H 16.17 37.265 -5.1
H 14.888 34.997 -5.09
H 3.302 37.247 -4.717
H 2.028 34.99 -4.695
H 13.595 37.261 -5.034
H 0.734 37.249 -4.632
H 12.313 34.994 -5.02
H -0.538 34.993 -4.611
H 11.02 37.256 -4.961
H 9.74 34.992 -4.943
H 21.321 37.266 -5.209
H 22.613 34.99 -5.258
H 8.446 37.251 -4.883
H 13.827 37.16 3.882
H 11.271 37.16 3.954
H 22.76 34.883 3.658
H -0.256 34.907 4.303
H 8.713 37.159 4.032
H 20.213 34.893 3.705
H 10.002 34.903 3.97
H 7.442 34.903 4.051
H 3.586 37.158 4.198
H 4.879 34.903 4.134
H 18.929 37.154 3.757
H 16.379 37.159 3.816
H 1.018 37.16 4.283
H 15.113 34.903 3.824
H 12.559 34.903 3.894
H 21.477 37.146 3.707
H 6.151 37.158 4.114
H 17.664 34.899 3.761
H 2.313 34.904 4.218
C 36.768 37.071 -1.688
C 36.778 37.05 -0.113
C 36.774 37.009 2.477
C 36.737 37.095 -4.276
C 38.061 34.794 -1.716
C 38.069 34.775 -0.141
C 36.786 35.541 0.387
C 36.773 35.573 -2.221
C 38.062 34.738 2.448
C 36.786 35.52 1.953
C 38.034 34.814 -4.304
C 36.758 35.589 -3.787
C 38.049 37.812 -2.222
C 38.065 37.778 0.428
C 38.064 37.754 2.011
C 38.032 37.829 -3.806
C 39.343 35.534 -2.249
C 39.355 35.504 0.401
C 39.308 37.014 -1.689
C 39.317 36.996 -0.131
C 39.352 35.482 1.984
C 39.305 36.952 2.562
C 39.328 35.549 -3.832
C 39.271 37.035 -4.381
C 40.602 34.737 -1.713
C 40.608 34.719 -0.155
C 40.593 34.678 2.538
C 40.57 34.755 -4.404
H 36.76 36.99 3.567
H 36.714 37.101 -5.366
H 38.045 34.72 3.538
H 38.013 34.818 -5.394
H 39.248 36.91 3.649
H 39.207 37.015 -5.468
H 40.533 34.637 3.625
H 40.508 34.734 -5.491
C -49.145 39.342 0.104
C -49.111 39.33 1.661
C -49.027 39.3 4.353
C -49.183 39.352 -2.589
C -45.348 41.698 0.023
C -45.317 41.686 1.598
C -47.912 40.144 -0.468
C -47.854 40.125 2.183
C -46.597 42.406 2.167
C -47.885 41.622 0.087
C -47.853 41.611 1.644
C -46.651 42.425 -0.483
C -45.248 41.662 4.188
C -47.812 40.111 3.766
C -47.773 41.582 4.336
C -46.557 42.393 3.75
C -45.385 41.708 -2.567
C -47.938 40.153 -2.051
C -46.675 42.432 -2.066
C -47.919 41.631 -2.606
C -44.044 39.468 -0.014
C -44.013 39.456 1.55
C -45.291 40.182 2.106
C -46.609 39.418 0.036
C -46.575 39.406 1.611
C -45.345 40.201 -0.504
C -43.954 39.436 4.137
C -46.502 39.381 4.201
C -45.251 40.169 3.671
C -44.092 39.486 -2.601
C -45.371 40.209 -2.07
C -46.649 39.429 -2.554
C -44.083 42.48 -0.516
C -44.033 42.463 2.094
C -43.996 42.45 3.659
C -44.107 42.488 -2.082
C -40.223 41.786 -0.071
C -40.196 41.774 1.493
C -42.781 40.25 -0.555
C -42.731 40.23 2.05
C -41.474 42.509 2.042
C -42.784 41.747 -0.024
C -42.755 41.735 1.541
C -41.52 42.527 -0.563
C -40.149 41.756 4.081
C -42.697 40.219 3.616
C -42.7 41.716 4.128
C -41.443 42.498 3.608
C -40.267 41.807 -2.658
C -42.81 40.26 -2.121
C -41.546 42.537 -2.129
C -42.828 41.763 -2.61
C -38.924 39.543 -0.113
C -38.897 39.53 1.452
C -40.173 40.268 2.002
C -41.483 39.51 -0.066
C -41.454 39.498 1.499
C -40.22 40.289 -0.604
C -38.851 39.51 4.04
C -41.403 39.479 4.086
C -40.144 40.257 3.568
C -38.969 39.566 -2.7
C -40.248 40.301 -2.17
C -41.531 39.531 -2.652
C -38.959 42.563 -0.608
C -38.916 42.543 1.998
C -38.889 42.532 3.565
C -38.985 42.575 -2.174
C -35.104 41.832 -0.152
C -35.081 41.818 1.413
C -37.659 40.317 -0.648
C -37.617 40.295 1.958
C -36.359 42.564 1.959
C -37.664 41.815 -0.114
C -37.639 41.802 1.451
C -36.398 42.586 -0.648
C -35.043 41.797 4
C -37.59 40.283 3.525
C -37.597 41.782 4.038
C -36.335 42.553 3.525
C -35.143 41.856 -2.74
C -37.685 40.331 -2.215
C -36.422 42.599 -2.214
C -37.705 41.837 -2.701
C -33.805 39.578 -0.192
C -33.781 39.563 1.373
C -35.059 40.311 1.919
C -36.365 39.565 -0.155
C -36.34 39.551 1.41
C -35.098 40.334 -0.687
C -33.744 39.541 3.96
C -36.299 39.53 3.998
C -35.035 40.298 3.486
C -33.843 39.604 -2.779
C -35.123 40.349 -2.254
C -36.406 39.59 -2.742
C -33.836 42.597 -0.684
C -33.8 42.574 1.923
C -33.777 42.561 3.49
C -33.859 42.612 -2.25
C -29.98 41.837 -0.22
C -29.958 41.822 1.346
C -32.536 40.342 -0.723
C -32.499 40.317 1.884
C -31.238 42.574 1.89
C -32.543 41.839 -0.187
C -32.521 41.824 1.378
C -31.273 42.599 -0.717
C -29.924 41.798 3.933
C -32.477 40.304 3.45
C -32.486 41.802 3.966
C -31.217 42.56 3.457
C -30.015 41.864 -2.807
C -32.559 40.358 -2.289
C -31.294 42.615 -2.283
C -32.579 41.865 -2.775
C -28.68 39.579 -0.259
C -28.658 39.563 1.306
C -29.937 40.316 1.851
C -31.243 39.582 -0.227
C -31.221 39.567 1.339
C -29.973 40.342 -0.756
C -28.623 39.539 3.893
C -31.185 39.543 3.926
C -29.915 40.302 3.417
C -28.716 39.607 -2.846
C -29.995 40.359 -2.323
C -31.279 39.609 -2.814
C -28.707 42.593 -0.748
C -28.672 42.567 1.859
C -28.652 42.552 3.425
C -28.729 42.61 -2.315
C -24.848 41.818 -0.284
C -24.825 41.802 1.281
C -27.408 40.336 -0.788
C -27.372 40.309 1.819
C -26.105 42.555 1.827
C -27.414 41.83 -0.251
C -27.393 41.814 1.314
C -26.141 42.582 -0.78
C -24.788 41.776 3.869
C -27.35 40.294 3.385
C -27.358 41.789 3.902
C -26.083 42.54 3.393
C -24.885 41.847 -2.872
C -27.43 40.353 -2.355
C -26.163 42.6 -2.347
C -27.45 41.858 -2.839
C -23.55 39.56 -0.326
C -23.525 39.544 1.239
C -24.805 40.298 1.785
C -26.115 39.571 -0.292
C -26.092 39.555 1.273
C -24.843 40.325 -0.821
C -23.487 39.518 3.826
C -26.057 39.53 3.861
C -24.782 40.282 3.352
C -23.589 39.589 -2.914
C -24.866 40.343 -2.388
C -26.152 39.6 -2.879
C -23.574 42.569 -0.815
C -23.535 42.541 1.793
C -23.511 42.525 3.359
C -23.598 42.587 -2.381
C -22.277 40.313 -0.858
C -22.235 40.285 1.749
C -20.963 42.526 1.755
C -22.28 41.804 -0.32
C -22.255 41.788 1.245
C -21.007 42.554 -0.853
C -22.211 40.269 3.316
C -22.215 41.761 3.832
C -20.938 42.509 3.321
C -22.302 40.331 -2.424
C -21.033 42.573 -2.419
C -22.321 41.834 -2.909
C -20.983 39.547 -0.365
C -20.956 39.531 1.2
C -20.914 39.504 3.787
C -21.027 39.576 -2.953
H -35.028 41.793 5.09
H -37.581 41.779 5.128
H -35.159 41.872 -3.83
H -37.724 41.853 -3.791
H -33.729 39.535 5.05
H -36.282 39.525 5.088
H -33.858 39.62 -3.869
H -36.423 39.606 -3.831
H -29.911 41.792 5.023
H -32.472 41.796 5.056
H -30.028 41.881 -3.897
H -32.593 41.881 -3.865
H -28.609 39.532 4.983
H -31.171 39.537 5.016
H -28.729 39.623 -3.936
H -31.293 39.625 -3.904
H -24.773 41.769 4.959
H -27.344 41.782 4.992
H -24.899 41.864 -3.962
H -27.463 41.874 -3.929
H -23.471 39.511 4.916
H -26.042 39.523 4.95
H -23.604 39.605 -4.004
H -26.166 39.616 -3.969
H -22.199 41.754 4.922
H -22.337 41.85 -3.999
H -20.896 39.497 4.877
H -21.043 39.592 -4.043
H -41.553 39.546 -3.742
H -42.849 41.776 -3.7
H -44.114 39.498 -3.691
H -45.39 41.709 -3.657
H -46.655 39.43 -3.644
H -47.885 41.608 -3.694
H -49.15 39.329 -3.677
H -40.288 41.821 -3.748
H -38.989 39.581 -3.789
H -47.689 41.547 5.422
H -38.833 39.506 5.13
H -41.383 39.475 5.176
H -42.678 41.713 5.218
H -45.207 41.65 5.277
H -46.459 39.367 5.29
H -48.942 39.264 5.439
H -40.131 41.753 5.17
H -43.93 39.432 5.227
C 7.24 42.47 -1.634
C 7.316 42.438 0.973
C 7.362 42.42 2.539
C 7.194 42.49 -3.2
C 11.113 41.722 -1.238
C 11.153 41.701 0.327
C 8.532 40.223 -1.698
C 8.607 40.193 0.908
C 9.882 42.443 0.894
C 8.543 41.716 -1.161
C 8.586 41.696 0.403
C 9.812 42.477 -1.712
C 11.222 41.668 2.915
C 8.652 40.175 2.474
C 8.661 41.666 2.991
C 9.925 42.423 2.461
C 11.043 41.757 -3.823
C 8.486 40.242 -3.264
C 9.768 42.498 -3.278
C 8.468 41.748 -3.747
C 12.402 39.471 -1.3
C 12.442 39.451 0.265
C 11.172 40.197 0.83
C 9.834 39.466 -1.225
C 9.877 39.448 0.339
C 11.102 40.229 -1.775
C 12.51 39.421 2.852
C 9.95 39.419 2.927
C 11.214 40.178 2.397
C 12.334 39.504 -3.885
C 11.059 40.249 -3.341
C 9.76 39.497 -3.81
C 12.383 42.486 -1.784
C 12.447 42.449 0.822
C 12.487 42.427 2.388
C 12.343 42.509 -3.351
C 16.251 41.736 -1.37
C 16.282 41.711 0.195
C 13.672 40.236 -1.847
C 13.735 40.201 0.759
C 15.011 42.454 0.756
C 13.682 41.73 -1.308
C 13.718 41.706 0.257
C 14.954 42.495 -1.85
C 16.337 41.672 2.783
C 13.774 40.181 2.325
C 13.781 41.671 2.846
C 15.046 42.431 2.323
C 16.195 41.778 -3.955
C 13.632 40.257 -3.413
C 14.919 42.521 -3.416
C 13.619 41.767 -3.893
C 17.536 39.479 -1.43
C 17.567 39.455 0.135
C 16.297 40.203 0.695
C 14.97 39.476 -1.369
C 15.005 39.454 0.196
C 16.24 40.242 -1.911
C 17.621 39.42 2.723
C 15.067 39.422 2.784
C 16.331 40.182 2.261
C 17.481 39.517 -4.014
C 16.205 40.265 -3.477
C 14.908 39.511 -3.953
C 17.523 42.504 -1.907
C 17.573 42.458 0.699
C 17.603 42.432 2.266
C 17.492 42.532 -3.473
C 21.38 41.739 -1.469
C 21.403 41.709 0.096
C 18.807 40.245 -1.966
C 18.856 40.203 0.639
C 20.132 42.458 0.651
C 18.817 41.74 -1.424
C 18.844 41.712 0.141
C 20.09 42.508 -1.955
C 21.443 41.662 2.684
C 18.887 40.18 2.205
C 18.891 41.67 2.73
C 20.158 42.428 2.217
C 21.339 41.789 -4.054
C 18.777 40.27 -3.533
C 20.064 42.539 -3.521
C 18.769 41.786 -4.008
C 22.662 39.472 -1.526
C 22.685 39.445 0.039
C 21.414 40.198 0.592
C 20.1 39.478 -1.482
C 20.127 39.453 0.083
C 21.373 40.243 -2.014
C 22.725 39.405 2.627
C 20.174 39.415 2.671
C 21.44 40.173 2.158
C 22.622 39.516 -4.111
C 21.346 40.271 -3.58
C 20.053 39.519 -4.066
C 22.655 42.506 -1.995
C 22.69 42.451 0.611
C 22.712 42.419 2.177
C 22.632 42.54 -3.561
C 26.501 41.714 -1.537
C 26.518 41.681 0.028
C 23.936 40.235 -2.053
C 23.972 40.188 0.553
C 25.247 42.436 0.579
C 23.941 41.731 -1.506
C 23.961 41.699 0.058
C 25.216 42.494 -2.027
C 26.546 41.628 2.617
C 23.993 40.16 2.119
C 23.994 41.648 2.647
C 25.265 42.402 2.145
C 26.471 41.77 -4.121
C 23.914 40.264 -3.619
C 25.197 42.531 -3.593
C 23.906 41.785 -4.091
C 27.784 39.44 -1.591
C 27.801 39.412 -0.026
C 26.528 40.17 0.521
C 25.223 39.459 -1.562
C 25.243 39.432 0.003
C 26.498 40.219 -2.085
C 27.828 39.368 2.562
C 25.276 39.389 2.591
C 26.546 40.141 2.087
C 27.755 39.486 -4.176
C 26.479 40.249 -3.651
C 25.19 39.505 -4.147
C 27.777 42.473 -2.054
C 27.804 42.414 0.552
C 27.819 42.378 2.118
C 27.759 42.51 -3.62
C 31.622 41.657 -1.583
C 31.638 41.626 -0.019
C 29.06 40.195 -2.11
C 29.086 40.146 0.495
C 30.363 42.384 0.528
C 29.06 41.689 -1.561
C 29.076 41.656 0.003
C 30.338 42.442 -2.076
C 31.654 41.571 2.569
C 29.101 40.116 2.061
C 29.099 41.602 2.591
C 30.375 42.348 2.093
C 31.592 41.708 -4.168
C 29.043 40.225 -3.676
C 30.319 42.478 -3.642
C 29.032 41.745 -4.146
C 32.909 39.381 -1.632
C 32.923 39.356 -0.068
C 31.647 40.117 0.474
C 30.345 39.413 -1.614
C 30.361 39.386 -0.049
C 31.623 40.164 -2.131
C 32.937 39.311 2.52
C 30.382 39.341 2.539
C 31.657 40.087 2.039
C 32.882 39.422 -4.217
C 31.606 40.192 -3.696
C 30.32 39.458 -4.198
C 32.901 42.405 -2.101
C 32.926 42.351 0.509
C 32.932 42.314 2.074
C 32.88 42.436 -3.666
C 34.188 40.128 -2.151
C 34.21 40.084 0.458
C 35.493 42.315 0.508
C 34.189 41.621 -1.609
C 34.204 41.592 -0.034
C 35.468 42.365 -2.143
C 34.214 40.054 2.024
C 34.208 41.536 2.557
C 35.497 42.281 2.091
C 34.169 40.152 -3.717
C 35.446 42.392 -3.726
C 34.149 41.662 -4.197
C 35.477 39.346 -1.653
C 35.49 39.322 -0.079
C 35.49 39.275 2.512
C 35.441 39.378 -4.242
C 2.099 42.464 -1.466
C 2.18 42.434 1.14
C 2.229 42.417 2.706
C 2.05 42.482 -3.032
C 5.973 41.711 -1.08
C 6.019 41.692 0.484
C 3.392 40.217 -1.532
C 3.473 40.189 1.073
C 4.749 42.435 1.055
C 3.403 41.708 -0.996
C 3.45 41.69 0.568
C 4.67 42.466 -1.551
C 6.097 41.663 3.072
C 3.522 40.172 2.639
C 3.531 41.662 3.156
C 4.796 42.417 2.621
C 5.894 41.741 -3.667
C 3.343 40.235 -3.098
C 4.621 42.484 -3.117
C 3.321 41.738 -3.583
C 7.265 39.462 -1.145
C 7.31 39.444 0.419
C 6.041 40.19 0.989
C 4.696 39.46 -1.062
C 4.743 39.443 0.503
C 5.962 40.219 -1.617
C 7.388 39.417 3.007
C 4.824 39.416 3.09
C 6.088 40.173 2.555
C 7.186 39.492 -3.731
C 5.914 40.237 -3.183
C 4.615 39.488 -3.648
C -3.038 42.469 -1.297
C -2.959 42.44 1.309
C -2.911 42.423 2.876
C -3.087 42.487 -2.863
C 0.833 41.708 -0.911
C 0.881 41.691 0.654
C -1.745 40.22 -1.363
C -1.665 40.193 1.244
C -0.389 42.436 1.225
C -1.736 41.711 -0.826
C -1.688 41.694 0.739
C -0.47 42.465 -1.381
C 0.963 41.663 3.241
C -1.616 40.176 2.81
C -1.608 41.666 3.326
C -0.34 42.419 2.792
C 0.751 41.737 -3.498
C -1.794 40.238 -2.929
C -0.519 42.483 -2.947
C -1.817 41.74 -3.413
C 2.127 39.459 -0.977
C 2.175 39.443 0.588
C 0.905 40.189 1.159
C -0.442 39.461 -0.892
C -0.394 39.445 0.673
C 0.823 40.217 -1.447
C 2.257 39.416 3.175
C -0.313 39.419 3.26
C 0.954 40.173 2.725
C 2.044 39.487 -3.563
C 0.774 40.235 -3.013
C -0.524 39.489 -3.478
C -8.174 42.484 -1.14
C -8.101 42.456 1.467
C -8.058 42.438 3.034
C -8.217 42.503 -2.706
C -4.305 41.716 -0.743
C -4.259 41.699 0.821
C -6.88 40.234 -1.201
C -6.806 40.206 1.405
C -5.53 42.447 1.391
C -6.873 41.724 -0.664
C -6.829 41.707 0.9
C -5.606 42.475 -1.216
C -4.181 41.672 3.409
C -6.761 40.189 2.971
C -6.755 41.68 3.488
C -5.484 42.429 2.957
C -4.384 41.745 -3.331
C -6.925 40.252 -2.768
C -5.653 42.494 -2.782
C -6.948 41.753 -3.252
C -3.011 39.465 -0.808
C -2.964 39.449 0.757
C -4.235 40.198 1.326
C -5.579 39.472 -0.727
C -5.534 39.456 0.837
C -4.313 40.226 -1.28
C -2.884 39.423 3.343
C -5.457 39.43 3.424
C -4.188 40.182 2.892
C -3.091 39.493 -3.395
C -4.36 40.243 -2.846
C -5.656 39.5 -3.314
C -13.307 42.509 -1.004
C -13.246 42.48 1.603
C -13.21 42.463 3.169
C -13.344 42.528 -2.571
C -9.442 41.734 -0.59
C -9.4 41.717 0.974
C -12.013 40.256 -1.06
C -11.949 40.228 1.546
C -10.674 42.467 1.538
C -12.009 41.746 -0.523
C -11.971 41.729 1.042
C -10.74 42.496 -1.069
C -9.331 41.69 3.562
C -11.911 40.211 3.113
C -11.908 41.702 3.63
C -10.634 42.45 3.105
C -9.511 41.764 -3.179
C -12.052 40.274 -2.626
C -10.781 42.515 -2.635
C -12.074 41.776 -3.111
C -8.147 39.481 -0.651
C -8.104 39.465 0.914
C -9.377 40.216 1.479
C -10.715 39.492 -0.58
C -10.675 39.476 0.985
C -9.447 40.244 -1.128
C -8.032 39.439 3.5
C -10.609 39.449 3.571
C -9.336 40.199 3.045
C -8.219 39.51 -3.238
C -9.489 40.262 -2.694
C -10.782 39.521 -3.168
C -18.44 42.539 -0.897
C -18.391 42.51 1.711
C -18.362 42.493 3.277
C -18.47 42.558 -2.463
C -14.577 41.76 -0.462
C -14.543 41.743 1.103
C -17.145 40.284 -0.946
C -17.093 40.256 1.661
C -15.819 42.495 1.66
C -17.145 41.774 -0.408
C -17.114 41.758 1.157
C -15.874 42.523 -0.947
C -14.486 41.715 3.691
C -17.062 40.239 3.228
C -17.063 41.73 3.744
C -15.786 42.477 3.227
C -14.635 41.79 -3.05
C -17.176 40.302 -2.512
C -15.907 42.543 -2.513
C -17.197 41.805 -2.997
C -13.282 39.505 -0.516
C -13.246 39.489 1.049
C -14.521 40.241 1.607
C -15.849 39.518 -0.459
C -15.816 39.502 1.106
C -14.579 40.269 -0.999
C -13.185 39.462 3.636
C -15.762 39.476 3.693
C -14.487 40.225 3.174
C -13.343 39.534 -3.104
C -14.614 40.288 -2.566
C -15.904 39.548 -3.047
C -19.713 41.79 -0.361
C -19.685 41.773 1.204
C -19.64 41.746 3.792
C -19.759 41.82 -2.95
C -18.416 39.533 -0.409
C -18.387 39.517 1.156
C -19.665 40.271 1.708
C -19.711 40.298 -0.899
C -18.339 39.49 3.743
C -19.637 40.254 3.275
C -18.465 39.562 -2.997
C -19.739 40.317 -2.465
H 26.558 41.611 3.707
H 24.008 41.633 3.737
H 26.459 41.797 -5.211
H 23.892 41.81 -5.18
H 27.839 39.355 3.652
H 25.29 39.376 3.681
H 27.745 39.509 -5.265
H 25.176 39.527 -5.236
H 31.662 41.554 3.659
H 29.11 41.585 3.681
H 31.582 41.733 -5.258
H 29.023 41.772 -5.236
H 32.943 39.298 3.61
H 30.391 39.329 3.629
H 32.874 39.443 -5.307
H 30.312 39.481 -5.288
H 34.197 41.509 3.647
H 34.121 41.675 -5.287
H 35.477 39.253 3.602
H 35.415 39.386 -5.332
H -1.572 41.658 4.416
H -1.853 41.754 -4.503
H -4.146 41.664 4.498
H -6.722 41.671 4.577
H -4.418 41.76 -4.421
H -6.98 41.768 -4.342
H -2.849 39.415 4.433
H -5.424 39.422 4.514
H -3.125 39.508 -4.484
H -5.689 39.515 -4.404
H -9.301 41.681 4.651
H -11.88 41.693 4.719
H -9.541 41.779 -4.268
H -12.101 41.791 -4.201
H -8.001 39.431 4.59
H -10.58 39.442 4.661
H -8.25 39.524 -4.328
H -10.81 39.536 -4.258
H -14.461 41.707 4.78
H -17.041 41.722 4.834
H -14.659 41.805 -4.14
H -17.218 41.82 -4.087
H -13.159 39.454 4.725
H -15.739 39.468 4.783
H -13.368 39.549 -4.194
H -15.926 39.563 -4.136
H -19.621 41.738 4.881
H -19.777 41.836 -4.04
H -18.318 39.482 4.833
H -18.484 39.578 -4.086
H 20.032 39.539 -5.156
H 5.858 41.756 -4.756
H 7.152 39.506 -4.82
H 18.747 41.808 -5.098
H 17.456 39.535 -5.103
H 4.579 39.503 -4.737
H 16.17 41.797 -5.044
H 14.88 39.528 -5.043
H 3.285 41.753 -4.672
H 2.008 39.502 -4.652
H 13.591 41.785 -4.982
H 0.715 41.752 -4.587
H 12.303 39.52 -4.974
H -0.56 39.503 -4.568
H 11.012 41.773 -4.913
H 9.727 39.512 -4.9
H 21.321 41.813 -5.143
H 22.605 39.537 -5.2
H 8.434 41.764 -4.837
H 13.809 41.661 3.935
H 11.253 41.659 4.005
H 22.742 39.393 3.717
H -0.277 39.411 4.349
H 8.694 41.657 4.081
H 20.194 39.404 3.761
H 9.983 39.411 4.017
H 7.423 39.409 4.096
H 3.567 41.654 4.246
H 4.859 39.408 4.179
H 18.911 41.657 3.819
H 16.361 41.661 3.873
H 0.999 41.655 4.331
H 15.094 39.413 3.874
H 12.54 39.413 3.942
H 21.46 41.648 3.774
H 6.132 41.655 4.162
H 17.645 39.41 3.813
H 2.293 39.409 4.264
C 36.727 41.565 -1.62
C 36.742 41.539 -0.063
C 36.739 41.483 2.632
C 36.68 41.598 -4.313
C 38.016 39.29 -1.659
C 38.028 39.269 -0.102
C 36.777 40.049 0.462
C 36.757 40.089 -2.188
C 38.02 39.22 2.592
C 36.779 40.02 2.046
C 37.974 39.316 -4.352
C 36.737 40.11 -3.772
H 36.687 41.436 3.719
H 36.608 41.583 -5.4
H 37.966 39.177 3.679
H 37.907 39.298 -5.438
C -45.363 46.184 0.054
C -45.336 46.174 1.611
C -45.265 46.148 4.303
C -45.389 46.191 -2.638
C -44.088 43.978 0.01
C -44.059 43.967 1.585
C -45.34 44.688 2.152
C -46.624 43.903 0.07
C -46.595 43.892 1.627
C -45.389 44.705 -0.498
C -43.994 43.944 4.175
C -46.519 43.865 4.32
C -45.302 44.675 3.735
C -44.12 43.987 -2.58
C -45.411 44.712 -2.081
C -46.655 43.91 -2.622
C -44.126 46.986 -0.513
C -44.082 46.971 2.138
C -44.047 46.959 3.72
C -44.146 46.993 -2.096
C -40.263 46.303 -0.039
C -40.239 46.292 1.525
C -42.822 44.76 -0.527
C -42.776 44.743 2.083
C -41.518 47.025 2.073
C -42.827 46.258 -0.001
C -42.801 46.248 1.573
C -41.56 47.04 -0.537
C -40.193 46.276 4.112
C -42.741 44.732 3.648
C -42.74 46.227 4.163
C -41.486 47.014 3.638
C -40.299 46.318 -2.625
C -42.843 44.767 -2.093
C -41.579 47.047 -2.102
C -42.855 46.266 -2.591
C -38.963 44.061 -0.075
C -38.939 44.049 1.489
C -40.217 44.786 2.036
C -41.524 44.025 -0.032
C -41.497 44.014 1.532
C -40.259 44.804 -0.569
C -38.896 44.031 4.076
C -41.446 43.996 4.119
C -40.188 44.776 3.602
C -39.003 44.08 -2.662
C -40.283 44.814 -2.135
C -41.563 44.041 -2.619
C -38.998 47.08 -0.574
C -38.959 47.063 2.03
C -38.933 47.054 3.596
C -39.019 47.09 -2.14
C -35.143 46.347 -0.112
C -35.122 46.335 1.453
C -37.698 44.834 -0.61
C -37.659 44.815 1.996
C -36.401 47.084 1.996
C -37.703 46.333 -0.078
C -37.681 46.321 1.487
C -36.436 47.103 -0.61
C -35.088 46.316 4.04
C -37.634 44.805 3.562
C -37.642 46.305 4.074
C -36.379 47.074 3.562
C -35.178 46.369 -2.699
C -37.721 44.846 -2.176
C -36.458 47.114 -2.176
C -37.739 46.352 -2.664
C -33.843 44.093 -0.149
C -33.822 44.08 1.416
C -35.1 44.829 1.961
C -36.404 44.083 -0.114
C -36.381 44.071 1.451
C -35.136 44.85 -0.646
C -33.787 44.059 4.004
C -36.343 44.052 4.038
C -35.078 44.818 3.527
C -33.879 44.118 -2.736
C -35.159 44.864 -2.212
C -36.442 44.106 -2.701
C -33.873 47.108 -0.642
C -33.84 47.087 1.964
C -33.82 47.075 3.53
C -33.893 47.121 -2.209
C -30.012 46.339 -0.173
C -29.993 46.324 1.392
C -32.573 44.854 -0.679
C -32.539 44.83 1.928
C -31.274 47.077 1.935
C -32.579 46.348 -0.144
C -32.56 46.334 1.421
C -31.305 47.101 -0.672
C -29.962 46.301 3.98
C -32.518 44.818 3.495
C -32.528 46.313 4.009
C -31.255 47.064 3.501
C -30.045 46.366 -2.762
C -32.594 44.869 -2.245
C -31.325 47.116 -2.239
C -32.612 46.372 -2.732
C -28.713 44.085 -0.212
C -28.693 44.07 1.354
C -29.973 44.822 1.898
C -31.279 44.093 -0.181
C -31.259 44.078 1.384
C -30.007 44.848 -0.71
C -28.66 44.045 3.942
C -31.226 44.056 3.972
C -29.953 44.808 3.464
C -28.747 44.113 -2.8
C -30.027 44.864 -2.276
C -31.314 44.119 -2.769
C -28.736 47.088 -0.701
C -28.704 47.062 1.906
C -28.684 47.047 3.473
C -28.756 47.104 -2.268
C -24.872 46.31 -0.234
C -24.851 46.293 1.331
C -27.439 44.836 -0.74
C -27.404 44.81 1.867
C -26.131 47.045 1.877
C -27.443 46.326 -0.203
C -27.422 46.31 1.362
C -26.165 47.072 -0.731
C -24.816 46.266 3.92
C -27.384 44.794 3.434
C -27.39 46.285 3.951
C -26.111 47.028 3.443
C -24.908 46.34 -2.824
C -27.46 44.854 -2.307
C -26.187 47.09 -2.298
C -27.476 46.354 -2.792
C -23.577 44.059 -0.277
C -23.553 44.042 1.289
C -24.833 44.794 1.835
C -26.146 44.073 -0.243
C -26.124 44.057 1.322
C -24.87 44.822 -0.772
C -23.516 44.015 3.877
C -26.09 44.031 3.91
C -24.812 44.778 3.402
C -23.616 44.089 -2.866
C -24.893 44.84 -2.339
C -26.181 44.102 -2.832
C -23.595 47.055 -0.764
C -23.558 47.026 1.844
C -23.535 47.009 3.411
C -23.619 47.074 -2.331
C -22.302 44.806 -0.808
C -22.261 44.778 1.8
C -20.984 47.008 1.807
C -22.302 46.293 -0.269
C -22.278 46.276 1.296
C -21.026 47.038 -0.801
C -22.237 44.761 3.367
C -22.239 46.248 3.885
C -20.959 46.99 3.374
C -22.327 44.825 -2.374
C -21.052 47.058 -2.368
C -22.342 46.324 -2.859
C -21.008 44.043 -0.315
C -20.982 44.026 1.251
C -20.94 43.999 3.839
C -21.051 44.074 -2.904
H -35.075 46.313 5.13
H -37.628 46.303 5.164
H -35.192 46.384 -3.789
H -37.756 46.366 -3.754
H -33.773 44.054 5.094
H -36.328 44.048 5.128
H -33.893 44.134 -3.826
H -36.458 44.121 -3.791
H -29.949 46.295 5.07
H -32.515 46.308 5.099
H -30.057 46.382 -3.852
H -32.625 46.388 -3.821
H -28.647 44.039 5.032
H -31.213 44.05 5.062
H -28.76 44.129 -3.89
H -31.327 44.135 -3.859
H -24.802 46.259 5.01
H -27.378 46.277 5.041
H -24.922 46.356 -3.914
H -27.489 46.37 -3.882
H -23.501 44.007 4.967
H -26.076 44.024 5
H -23.63 44.105 -3.956
H -26.194 44.119 -3.922
H -22.223 46.24 4.975
H -22.358 46.341 -3.949
H -20.923 43.99 4.929
H -21.068 44.09 -3.994
H -41.583 44.052 -3.708
H -42.856 46.266 -3.682
H -44.123 43.987 -3.67
H -45.352 46.167 -3.726
H -46.619 43.887 -3.71
H -40.316 46.329 -3.715
H -39.022 44.094 -3.752
H -38.879 44.029 5.166
H -41.426 43.993 5.209
H -42.702 46.216 5.253
H -45.185 46.115 5.389
H -46.437 43.83 5.405
H -40.175 46.274 5.202
H -43.954 43.932 5.265
C 7.23 46.955 -1.579
C 7.302 46.918 1.029
C 7.346 46.897 2.595
C 7.186 46.977 -3.145
C 11.107 46.216 -1.177
C 11.143 46.191 0.387
C 8.521 44.719 -1.646
C 8.592 44.683 0.961
C 9.87 46.926 0.955
C 8.533 46.205 -1.106
C 8.574 46.182 0.459
C 9.805 46.966 -1.653
C 11.206 46.151 2.977
C 8.636 44.663 2.527
C 8.644 46.147 3.049
C 9.91 46.902 2.521
C 11.043 46.258 -3.764
C 8.478 44.741 -3.212
C 9.765 46.99 -3.219
C 8.462 46.243 -3.693
C 12.395 43.977 -1.244
C 12.431 43.952 0.321
C 11.159 44.69 0.887
C 9.824 43.967 -1.173
C 9.864 43.945 0.392
C 11.095 44.73 -1.72
C 12.494 43.914 2.91
C 9.934 43.91 2.981
C 11.199 44.668 2.453
C 12.332 44.016 -3.83
C 11.055 44.753 -3.286
C 9.753 44.003 -3.759
C 12.381 46.98 -1.719
C 12.437 46.935 0.888
C 12.473 46.909 2.454
C 12.345 47.008 -3.285
C 16.254 46.244 -1.295
C 16.279 46.211 0.27
C 13.668 44.742 -1.786
C 13.725 44.698 0.821
C 15.004 46.945 0.831
C 13.681 46.229 -1.241
C 13.712 46.201 0.324
C 14.957 46.997 -1.776
C 16.325 46.16 2.86
C 13.76 44.673 2.387
C 13.767 46.156 2.914
C 15.034 46.915 2.397
C 16.207 46.297 -3.88
C 13.632 44.769 -3.352
C 14.927 47.028 -3.342
C 13.625 46.276 -3.827
C 17.535 43.996 -1.361
C 17.562 43.966 0.204
C 16.289 44.706 0.764
C 14.966 43.987 -1.307
C 14.997 43.959 0.258
C 16.241 44.755 -1.843
C 17.609 43.918 2.793
C 15.053 43.917 2.847
C 16.319 44.677 2.33
C 17.487 44.046 -3.946
C 16.21 44.785 -3.409
C 14.91 44.031 -3.892
C 17.532 47.015 -1.822
C 17.57 46.955 0.784
C 17.595 46.92 2.35
C 17.507 47.051 -3.388
C 21.391 46.263 -1.373
C 21.407 46.222 0.192
C 18.811 44.766 -1.89
C 18.851 44.71 0.715
C 20.133 46.961 0.747
C 18.824 46.256 -1.339
C 18.844 46.219 0.226
C 20.104 47.03 -1.858
C 21.436 46.155 2.78
C 18.877 44.678 2.282
C 18.882 46.16 2.815
C 20.153 46.921 2.313
C 21.36 46.334 -3.957
C 18.785 44.8 -3.457
C 20.083 47.073 -3.424
C 18.787 46.318 -3.923
C 22.664 44 -1.443
C 22.682 43.963 0.122
C 21.411 44.71 0.676
C 20.101 44.002 -1.406
C 20.123 43.968 0.158
C 21.377 44.772 -1.929
C 22.714 43.904 2.71
C 20.162 43.914 2.747
C 21.432 44.673 2.242
C 22.63 44.062 -4.027
C 21.356 44.811 -3.495
C 20.061 44.058 -3.991
C 22.67 47.037 -1.885
C 22.694 46.96 0.719
C 22.709 46.914 2.285
C 22.653 47.086 -3.451
C 26.508 46.242 -1.422
C 26.522 46.195 0.142
C 23.94 44.768 -1.96
C 23.968 44.7 0.645
C 25.251 46.946 0.697
C 23.951 46.26 -1.4
C 23.965 46.215 0.164
C 25.23 47.03 -1.907
C 26.542 46.114 2.729
C 23.986 44.66 2.211
C 23.989 46.14 2.753
C 25.264 46.894 2.262
C 26.483 46.324 -4.006
C 23.921 44.811 -3.526
C 25.214 47.083 -3.473
C 23.925 46.337 -3.983
C 27.781 43.965 -1.498
C 27.796 43.926 0.066
C 26.525 44.68 0.619
C 25.223 43.988 -1.473
C 25.239 43.949 0.092
C 26.499 44.751 -1.986
C 27.82 43.859 2.654
C 25.266 43.885 2.68
C 26.54 44.637 2.184
C 27.753 44.033 -4.082
C 26.482 44.796 -3.552
C 25.193 44.054 -4.057
C 27.787 47.004 -1.927
C 27.809 46.918 0.676
C 27.819 46.863 2.241
C 27.769 47.059 -3.493
C 31.628 46.171 -1.474
C 31.644 46.127 0.1
C 29.058 44.722 -2.009
C 29.084 44.651 0.595
C 30.37 46.88 0.656
C 29.066 46.211 -1.444
C 29.08 46.164 0.12
C 30.345 46.964 -1.953
C 31.652 46.041 2.691
C 29.095 44.606 2.16
C 29.097 46.08 2.707
C 30.377 46.824 2.221
C 31.584 46.242 -4.062
C 29.039 44.767 -3.575
C 30.323 47.016 -3.518
C 29.035 46.292 -4.028
C 32.905 43.896 -1.55
C 32.922 43.86 0.024
C 31.646 44.616 0.574
C 30.341 43.933 -1.521
C 30.357 43.895 0.043
C 31.619 44.684 -2.036
C 32.929 43.79 2.616
C 30.375 43.827 2.631
C 31.653 44.57 2.139
C 32.862 43.95 -4.138
C 31.597 44.724 -3.601
C 30.309 43.998 -4.106
C 32.908 46.917 -2.003
C 32.936 46.84 0.648
C 32.942 46.789 2.231
C 32.884 46.962 -3.586
C 34.185 44.641 -2.083
C 34.212 44.579 0.568
C 34.163 46.109 -1.496
C 34.181 46.071 0.061
C 34.218 44.537 2.151
C 34.184 45.989 2.756
C 34.161 44.676 -3.666
C 34.11 46.169 -4.19
C 35.442 43.837 -1.567
C 35.459 43.806 -0.01
C 35.46 43.739 2.685
C 35.391 43.882 -4.261
C 2.086 46.944 -1.416
C 2.165 46.912 1.192
C 2.213 46.893 2.758
C 2.037 46.964 -2.982
C 5.961 46.197 -1.028
C 6.005 46.176 0.537
C 3.377 44.707 -1.484
C 3.457 44.676 1.123
C 4.734 46.914 1.109
C 3.389 46.193 -0.945
C 3.435 46.173 0.619
C 4.657 46.948 -1.499
C 6.08 46.143 3.127
C 3.504 44.657 2.689
C 3.514 46.141 3.209
C 4.78 46.894 2.675
C 5.884 46.232 -3.615
C 3.329 44.727 -3.05
C 4.61 46.969 -3.065
C 3.309 46.226 -3.533
C 7.252 43.959 -1.095
C 7.296 43.939 0.469
C 6.025 44.678 1.04
C 4.681 43.954 -1.014
C 4.727 43.935 0.551
C 5.949 44.712 -1.567
C 7.371 43.907 3.058
C 4.806 43.905 3.14
C 6.071 44.659 2.606
C 7.176 43.993 -3.682
C 5.902 44.732 -3.133
C 4.601 43.986 -3.601
C -3.054 46.948 -1.247
C -2.975 46.917 1.361
C -2.927 46.898 2.927
C -3.102 46.967 -2.813
C 0.818 46.191 -0.861
C 0.865 46.172 0.704
C -1.762 44.708 -1.315
C -1.682 44.678 1.293
C -0.405 46.913 1.277
C -1.752 46.193 -0.776
C -1.705 46.175 0.789
C -0.485 46.944 -1.331
C 0.946 46.142 3.293
C -1.634 44.66 2.859
C -1.624 46.145 3.378
C -0.356 46.894 2.843
C 0.737 46.223 -3.449
C -1.811 44.727 -2.881
C -0.534 46.964 -2.897
C -1.833 46.225 -3.365
C 2.11 43.952 -0.929
C 2.158 43.933 0.636
C 0.887 44.675 1.208
C -0.46 43.952 -0.844
C -0.412 43.935 0.721
C 0.807 44.706 -1.399
C 2.238 43.904 3.224
C -0.331 43.906 3.309
C 0.936 44.657 2.774
C 2.029 43.983 -3.517
C 0.758 44.725 -2.965
C -0.542 43.983 -3.432
C -8.189 46.964 -1.089
C -8.117 46.933 1.52
C -8.074 46.914 3.086
C -8.233 46.984 -2.655
C -4.321 46.198 -0.693
C -4.275 46.18 0.872
C -6.899 44.721 -1.152
C -6.824 44.691 1.455
C -5.545 46.923 1.443
C -6.89 46.206 -0.613
C -6.845 46.188 0.951
C -5.622 46.954 -1.166
C -4.197 46.15 3.461
C -6.78 44.673 3.021
C -6.771 46.158 3.54
C -5.5 46.904 3.009
C -4.4 46.23 -3.282
C -6.944 44.741 -2.719
C -5.668 46.974 -2.732
C -6.965 46.238 -3.203
C -3.029 43.956 -0.76
C -2.982 43.939 0.805
C -4.253 44.683 1.376
C -5.598 43.963 -0.678
C -5.553 43.945 0.886
C -4.331 44.713 -1.232
C -2.903 43.91 3.393
C -5.476 43.917 3.474
C -4.206 44.665 2.942
C -3.109 43.987 -3.348
C -4.378 44.732 -2.798
C -5.675 43.993 -3.267
C -13.323 46.989 -0.952
C -13.262 46.958 1.656
C -13.226 46.939 3.223
C -13.36 47.01 -2.519
C -9.458 46.217 -0.539
C -9.417 46.199 1.026
C -12.033 44.744 -1.01
C -11.969 44.714 1.598
C -10.689 46.944 1.591
C -12.026 46.229 -0.471
C -11.988 46.211 1.094
C -10.756 46.976 -1.017
C -9.347 46.169 3.615
C -11.931 44.696 3.164
C -11.925 46.181 3.683
C -10.649 46.925 3.158
C -9.528 46.248 -3.129
C -12.071 44.764 -2.577
C -10.797 46.996 -2.583
C -12.091 46.261 -3.061
C -8.167 43.972 -0.602
C -8.124 43.955 0.963
C -9.396 44.702 1.53
C -10.735 43.983 -0.53
C -10.695 43.966 1.034
C -9.466 44.732 -1.078
C -8.052 43.926 3.551
C -10.629 43.937 3.623
C -9.355 44.684 3.096
C -8.239 44.003 -3.191
C -9.508 44.751 -2.644
C -10.802 44.014 -3.12
C -18.458 47.021 -0.845
C -18.41 46.991 1.764
C -18.381 46.972 3.33
C -18.487 47.041 -2.411
C -14.595 46.244 -0.41
C -14.56 46.226 1.155
C -17.167 44.774 -0.895
C -17.115 44.744 1.713
C -15.836 46.974 1.714
C -17.163 46.26 -0.356
C -17.133 46.242 1.209
C -15.89 47.005 -0.895
C -14.503 46.196 3.744
C -17.085 44.726 3.279
C -17.082 46.212 3.798
C -15.803 46.955 3.28
C -14.653 46.276 -3
C -17.198 44.794 -2.462
C -15.923 47.025 -2.461
C -17.215 46.292 -2.946
C -13.303 43.997 -0.466
C -13.267 43.979 1.099
C -14.542 44.729 1.659
C -15.871 44.011 -0.408
C -15.838 43.994 1.157
C -14.6 44.759 -0.949
C -13.206 43.951 3.687
C -15.785 43.966 3.745
C -14.507 44.711 3.225
C -13.364 44.028 -3.055
C -14.635 44.778 -2.516
C -15.926 44.043 -2.998
C -19.733 46.276 -0.309
C -19.705 46.259 1.256
C -19.661 46.23 3.845
C -19.778 46.308 -2.899
C -18.44 44.027 -0.358
C -18.41 44.01 1.207
C -19.688 44.761 1.759
C -19.734 44.79 -0.848
C -18.363 43.982 3.795
C -19.661 44.743 3.326
C -18.488 44.058 -2.948
C -19.762 44.81 -2.415
H 26.551 46.086 3.819
H 23.998 46.114 3.843
H 26.473 46.364 -5.095
H 23.914 46.374 -5.073
H 27.83 43.837 3.744
H 25.277 43.864 3.77
H 27.743 44.066 -5.172
H 25.182 44.086 -5.147
H 31.643 46.001 3.781
H 29.104 46.05 3.797
H 31.552 46.269 -5.152
H 29.024 46.331 -5.118
H 32.919 43.758 3.706
H 30.383 43.804 3.721
H 32.831 43.969 -5.228
H 30.298 44.029 -5.195
H 34.138 45.929 3.842
H 34.03 46.167 -5.276
H 35.412 43.687 3.771
H 35.315 43.872 -5.347
H -1.589 46.135 4.468
H -1.869 46.24 -4.454
H -4.163 46.141 4.55
H -6.739 46.149 4.63
H -4.435 46.245 -4.372
H -6.998 46.254 -4.293
H -2.868 43.901 4.483
H -5.443 43.908 4.564
H -3.145 44.002 -4.438
H -5.709 44.009 -4.357
H -9.317 46.159 4.704
H -11.897 46.172 4.773
H -9.559 46.265 -4.219
H -12.118 46.278 -4.151
H -8.02 43.917 4.641
H -10.6 43.928 4.712
H -8.271 44.018 -4.28
H -10.831 44.03 -4.209
H -14.479 46.187 4.834
H -17.061 46.203 4.888
H -14.677 46.292 -4.09
H -17.236 46.308 -4.036
H -13.18 43.942 4.777
H -15.762 43.957 4.835
H -13.39 44.044 -4.145
H -15.949 44.059 -4.088
H -19.643 46.221 4.935
H -19.796 46.324 -3.989
H -18.343 43.973 4.885
H -18.508 44.074 -4.037
H 20.043 44.084 -5.08
H 5.85 46.249 -4.705
H 7.142 44.009 -4.772
H 18.769 46.347 -5.013
H 17.465 44.07 -5.036
H 4.565 44.002 -4.69
H 16.186 46.322 -4.969
H 14.884 44.053 -4.982
H 3.273 46.242 -4.623
H 1.992 43.998 -4.606
H 13.599 46.298 -4.916
H 0.7 46.239 -4.539
H 12.302 44.035 -4.919
H -0.578 43.998 -4.521
H 11.014 46.277 -4.853
H 9.721 44.021 -4.849
H 21.346 46.366 -5.046
H 22.615 44.091 -5.117
H 8.43 46.261 -4.782
H 13.79 46.141 4.003
H 11.234 46.138 4.067
H 22.728 43.885 3.8
H -0.295 43.897 4.399
H 8.675 46.135 4.138
H 20.179 43.897 3.837
H 9.965 43.9 4.071
H 7.404 43.897 4.148
H 3.549 46.131 4.298
H 4.841 43.895 4.229
H 18.897 46.141 3.905
H 16.345 46.143 3.949
H 0.982 46.132 4.383
H 15.077 43.904 3.937
H 12.522 43.903 4
H 21.448 46.132 3.87
H 6.114 46.133 4.216
H 17.629 43.903 3.882
H 2.274 43.895 4.314
C -44.101 48.467 0.039
C -44.077 48.457 1.596
C -44.011 48.432 4.288
C -44.122 48.472 -2.653
C -40.304 50.827 -0.021
C -40.284 50.818 1.554
C -42.864 49.27 -0.526
C -42.824 49.255 2.124
C -41.566 51.545 2.111
C -42.839 50.752 0.025
C -42.818 50.743 1.581
C -41.601 51.558 -0.538
C -40.234 50.798 4.142
C -42.792 49.244 3.706
C -42.757 50.72 4.272
C -41.538 51.534 3.693
C -40.323 50.832 -2.609
C -42.88 49.276 -2.109
C -41.614 51.563 -2.12
C -42.855 50.756 -2.667
C -39.003 48.581 -0.045
C -38.982 48.571 1.52
C -40.261 49.308 2.064
C -41.565 48.541 -0.012
C -41.542 48.531 1.563
C -40.297 49.323 -0.545
C -38.94 48.555 4.105
C -41.486 48.511 4.152
C -40.232 49.298 3.629
C -39.034 48.595 -2.631
C -40.314 49.329 -2.11
C -41.589 48.547 -2.601
C -39.037 51.611 -0.551
C -39.005 51.597 2.057
C -38.98 51.587 3.622
C -39.05 51.615 -2.116
C -35.181 50.862 -0.077
C -35.164 50.852 1.487
C -37.736 49.356 -0.577
C -37.703 49.34 2.027
C -36.446 51.611 2.025
C -37.744 50.859 -0.048
C -37.726 50.85 1.516
C -36.475 51.627 -0.577
C -35.135 50.834 4.073
C -37.679 49.33 3.593
C -37.689 50.834 4.101
C -36.426 51.601 3.591
C -35.209 50.88 -2.662
C -37.755 49.364 -2.143
C -36.491 51.634 -2.143
C -37.771 50.872 -2.633
C -33.88 48.603 -0.109
C -33.861 48.591 1.456
C -35.142 49.345 1.997
C -36.443 48.602 -0.078
C -36.424 48.591 1.486
C -35.173 49.364 -0.608
C -33.831 48.572 4.043
C -36.389 48.574 4.072
C -35.122 49.335 3.563
C -33.911 48.625 -2.696
C -35.192 49.375 -2.175
C -36.475 48.62 -2.665
C -33.903 51.61 -0.604
C -33.876 51.592 2
C -33.859 51.579 3.566
C -33.92 51.62 -2.17
C -30.033 50.824 -0.129
C -30.016 50.809 1.436
C -32.604 49.354 -0.637
C -32.574 49.333 1.969
C -31.299 51.563 1.976
C -32.609 50.846 -0.103
C -32.592 50.833 1.461
C -31.326 51.585 -0.63
C -29.989 50.785 4.024
C -32.557 49.32 3.535
C -32.566 50.812 4.048
C -31.283 51.548 3.542
C -30.062 50.847 -2.718
C -32.623 49.367 -2.203
C -31.344 51.597 -2.196
C -32.638 50.866 -2.691
C -28.739 48.575 -0.165
C -28.72 48.56 1.4
C -30.002 49.313 1.943
C -31.311 48.592 -0.137
C -31.293 48.578 1.428
C -30.032 49.337 -0.665
C -28.691 48.536 3.989
C -31.264 48.556 4.016
C -29.984 49.298 3.509
C -28.77 48.602 -2.754
C -30.051 49.352 -2.231
C -31.341 48.616 -2.725
C -28.749 51.563 -0.655
C -28.721 51.538 1.952
C -28.704 51.52 3.518
C -28.767 51.576 -2.222
C -24.883 50.783 -0.183
C -24.863 50.766 1.381
C -27.459 49.319 -0.692
C -27.427 49.292 1.916
C -26.143 51.515 1.926
C -27.457 50.803 -0.155
C -27.439 50.787 1.41
C -26.175 51.542 -0.682
C -24.831 50.736 3.971
C -27.409 49.276 3.482
C -27.411 50.76 3.999
C -26.125 51.495 3.492
C -24.917 50.811 -2.774
C -27.478 49.335 -2.259
C -26.194 51.557 -2.248
C -27.488 50.829 -2.745
C -23.594 48.54 -0.225
C -23.572 48.523 1.34
C -24.852 49.272 1.886
C -26.166 48.558 -0.193
C -26.146 48.542 1.372
C -24.887 49.3 -0.722
C -23.536 48.494 3.929
C -26.114 48.515 3.961
C -24.832 49.254 3.453
C -23.631 48.57 -2.816
C -24.908 49.318 -2.289
C -26.199 48.587 -2.783
C -23.602 51.523 -0.712
C -23.567 51.493 1.896
C -23.546 51.473 3.462
C -23.624 51.54 -2.278
C -22.316 49.282 -0.756
C -22.277 49.252 1.853
C -20.991 51.474 1.861
C -22.311 50.764 -0.216
C -22.288 50.746 1.349
C -21.031 51.505 -0.747
C -22.254 49.234 3.419
C -22.251 50.715 3.938
C -20.967 51.452 3.427
C -22.34 49.301 -2.322
C -21.056 51.522 -2.314
C -22.349 50.794 -2.807
C -21.023 48.522 -0.262
C -20.998 48.504 1.303
C -20.957 48.474 3.893
C -21.065 48.553 -2.852
H -35.123 50.833 5.163
H -37.675 50.834 5.191
H -35.221 50.893 -3.752
H -37.782 50.883 -3.723
H -33.819 48.568 5.133
H -36.377 48.573 5.162
H -33.924 48.64 -3.786
H -36.489 48.634 -3.754
H -29.979 50.779 5.114
H -32.556 50.808 5.138
H -30.073 50.862 -3.808
H -32.649 50.88 -3.781
H -28.679 48.529 5.079
H -31.252 48.551 5.106
H -28.782 48.618 -3.844
H -31.353 48.632 -3.815
H -24.819 50.728 5.061
H -27.4 50.752 5.089
H -24.93 50.827 -3.864
H -27.499 50.844 -3.835
H -23.522 48.486 5.019
H -26.102 48.507 5.051
H -23.645 48.587 -3.906
H -26.212 48.603 -3.873
H -22.236 50.705 5.029
H -22.364 50.811 -3.897
H -20.941 48.465 4.983
H -21.082 48.57 -3.942
H -41.588 48.547 -3.692
H -42.813 50.731 -3.755
H -44.083 48.447 -3.741
H -40.319 50.832 -3.7
H -39.049 48.606 -3.72
H -38.924 48.554 5.195
H -41.451 48.501 5.242
H -42.682 50.688 5.358
H -40.201 50.789 5.231
H -43.933 48.4 5.374
C 7.223 51.422 -1.514
C 7.289 51.381 1.093
C 7.329 51.355 2.659
C 7.182 51.443 -3.08
C 11.103 50.691 -1.103
C 11.134 50.662 0.461
C 8.515 49.196 -1.584
C 8.58 49.156 1.024
C 9.857 51.39 1.026
C 8.526 50.676 -1.04
C 8.562 50.651 0.525
C 9.801 51.435 -1.581
C 11.188 50.614 3.052
C 8.62 49.131 2.59
C 8.627 50.608 3.116
C 9.893 51.361 2.592
C 11.048 50.736 -3.691
C 8.474 49.22 -3.15
C 9.765 51.459 -3.147
C 8.461 50.716 -3.628
C 12.394 48.464 -1.173
C 12.424 48.434 0.392
C 11.148 49.165 0.957
C 9.817 48.449 -1.109
C 9.853 48.423 0.455
C 11.092 49.211 -1.651
C 12.479 48.388 2.982
C 9.917 48.382 3.046
C 11.184 49.138 2.523
C 12.339 48.511 -3.759
C 11.056 49.238 -3.217
C 9.753 48.491 -3.697
C 12.381 51.454 -1.637
C 12.427 51.402 0.97
C 12.456 51.369 2.535
C 12.352 51.482 -3.203
C 16.264 50.733 -1.195
C 16.28 50.693 0.369
C 13.671 49.23 -1.707
C 13.717 49.177 0.9
C 14.998 51.416 0.926
C 13.683 50.71 -1.155
C 13.706 50.676 0.409
C 14.965 51.478 -1.68
C 16.312 50.627 2.959
C 13.747 49.145 2.466
C 13.75 50.62 2.999
C 15.02 51.378 2.492
C 16.233 50.796 -3.78
C 13.641 49.261 -3.273
C 14.942 51.511 -3.246
C 13.639 50.763 -3.742
C 17.547 48.5 -1.267
C 17.564 48.461 0.297
C 16.286 49.19 0.855
C 14.97 48.481 -1.226
C 14.994 48.447 0.339
C 16.251 49.252 -1.751
C 17.599 48.398 2.887
C 15.039 48.394 2.929
C 16.31 49.153 2.421
C 17.512 48.565 -3.852
C 16.227 49.288 -3.317
C 14.926 48.536 -3.811
C 17.55 51.506 -1.708
C 17.571 51.433 0.897
C 17.586 51.387 2.462
C 17.535 51.548 -3.274
C 21.423 50.782 -1.234
C 21.427 50.727 0.33
C 18.83 49.276 -1.783
C 18.854 49.203 0.822
C 20.144 51.451 0.881
C 18.845 50.758 -1.22
C 18.854 50.711 0.344
C 20.135 51.539 -1.722
C 21.437 50.635 2.916
C 18.872 49.16 2.387
C 18.874 50.633 2.932
C 20.153 51.396 2.446
C 21.412 50.875 -3.815
C 18.812 49.32 -3.349
C 20.126 51.591 -3.288
C 18.825 50.835 -3.804
C 22.686 48.527 -1.319
C 22.695 48.476 0.245
C 21.421 49.212 0.799
C 20.12 48.518 -1.298
C 20.132 48.473 0.267
C 21.404 49.297 -1.805
C 22.714 48.391 2.833
C 20.157 48.399 2.855
C 21.433 49.161 2.364
C 22.666 48.614 -3.902
C 21.39 49.349 -3.37
C 20.094 48.594 -3.881
C 22.714 51.57 -1.725
C 22.715 51.465 0.876
C 22.719 51.4 2.44
C 22.709 51.633 -3.29
C 26.547 50.777 -1.244
C 26.55 50.711 0.319
C 23.97 49.306 -1.819
C 23.982 49.21 0.784
C 25.28 51.461 0.877
C 23.991 50.794 -1.239
C 23.992 50.732 0.324
C 25.28 51.579 -1.723
C 26.551 50.59 2.904
C 23.991 49.151 2.349
C 23.996 50.624 2.909
C 25.28 51.385 2.441
C 26.533 50.896 -3.825
C 23.958 49.366 -3.384
C 25.274 51.654 -3.288
C 23.983 50.903 -3.819
C 27.8 48.491 -1.352
C 27.81 48.435 0.212
C 26.54 49.187 0.771
C 25.245 48.519 -1.335
C 25.253 48.464 0.228
C 26.526 49.29 -1.831
C 27.822 48.333 2.799
C 25.267 48.369 2.815
C 26.547 49.122 2.335
C 27.774 48.591 -3.934
C 26.513 49.356 -3.396
C 25.226 48.616 -3.917
C 27.832 51.544 -1.731
C 27.838 51.421 0.876
C 27.835 51.34 2.439
C 27.82 51.623 -3.295
C 31.633 50.655 -1.283
C 31.645 50.596 0.274
C 29.081 49.25 -1.851
C 29.1 49.147 0.757
C 30.403 51.361 0.878
C 29.102 50.731 -1.263
C 29.109 50.667 0.311
C 30.389 51.479 -1.772
C 31.64 50.475 2.967
C 29.104 49.079 2.321
C 29.105 50.539 2.9
C 30.4 51.286 2.459
C 31.586 50.757 -3.976
C 29.062 49.314 -3.416
C 30.372 51.551 -3.353
C 29.069 50.847 -3.848
C 32.893 48.381 -1.402
C 32.909 48.334 0.155
C 31.666 49.1 0.751
C 30.359 48.449 -1.379
C 30.373 48.395 0.195
C 31.642 49.196 -1.9
C 32.911 48.233 2.849
C 30.377 48.289 2.786
C 31.669 49.037 2.333
C 32.84 48.46 -4.096
C 31.62 49.253 -3.482
C 30.318 48.54 -3.966
C 2.076 51.408 -1.359
C 2.153 51.373 1.25
C 2.199 51.35 2.815
C 2.029 51.427 -2.924
C 5.951 50.666 -0.967
C 5.992 50.643 0.597
C 3.366 49.18 -1.429
C 3.443 49.145 1.179
C 4.721 51.376 1.169
C 3.378 50.66 -0.888
C 3.423 50.638 0.676
C 4.648 51.413 -1.439
C 6.064 50.604 3.188
C 3.489 49.124 2.745
C 3.499 50.602 3.267
C 4.765 51.351 2.734
C 5.879 50.702 -3.556
C 3.319 49.2 -2.995
C 4.603 51.432 -3.005
C 3.301 50.694 -3.477
C 7.243 48.438 -1.037
C 7.283 48.415 0.528
C 6.011 49.149 1.098
C 4.669 48.431 -0.958
C 4.713 48.409 0.606
C 5.939 49.186 -1.51
C 7.354 48.378 3.118
C 4.79 48.375 3.197
C 6.055 49.127 2.664
C 7.171 48.476 -3.625
C 5.895 49.208 -3.076
C 4.592 48.466 -3.547
C -3.063 51.411 -1.192
C -2.984 51.378 1.417
C -2.937 51.355 2.983
C -3.111 51.429 -2.757
C 0.807 50.658 -0.805
C 0.854 50.637 0.759
C -1.775 49.179 -1.262
C -1.695 49.147 1.347
C -0.415 51.374 1.333
C -1.762 50.659 -0.721
C -1.715 50.639 0.843
C -0.494 51.408 -1.275
C 0.933 50.602 3.35
C -1.648 49.126 2.913
C -1.636 50.605 3.434
C -0.368 51.351 2.899
C 0.727 50.69 -3.395
C -1.823 49.199 -2.828
C -0.543 51.426 -2.841
C -1.843 50.691 -3.311
C 2.098 48.427 -0.876
C 2.144 48.407 0.689
C 0.874 49.144 1.262
C -0.473 48.427 -0.791
C -0.426 48.407 0.773
C 0.795 49.178 -1.346
C 2.223 48.374 3.279
C -0.346 48.375 3.363
C 0.922 49.124 2.828
C 2.018 48.46 -3.465
C 0.746 49.197 -2.912
C -0.554 48.459 -3.381
C -8.196 51.427 -1.033
C -8.124 51.394 1.576
C -8.081 51.371 3.142
C -8.24 51.446 -2.598
C -4.33 50.664 -0.638
C -4.284 50.645 0.926
C -6.91 49.192 -1.099
C -6.836 49.16 1.509
C -5.553 51.384 1.498
C -6.898 50.672 -0.558
C -6.854 50.653 1.006
C -5.63 51.418 -1.11
C -4.207 50.61 3.517
C -6.791 49.14 3.075
C -6.78 50.618 3.596
C -5.508 51.361 3.064
C -4.409 50.696 -3.228
C -6.956 49.212 -2.665
C -5.676 51.436 -2.676
C -6.974 50.704 -3.149
C -3.042 48.43 -0.707
C -2.996 48.411 0.857
C -4.265 49.152 1.43
C -5.611 48.437 -0.626
C -5.566 48.418 0.939
C -4.343 49.184 -1.179
C -2.916 48.379 3.447
C -5.489 48.386 3.529
C -4.219 49.132 2.996
C -3.122 48.462 -3.297
C -4.39 49.204 -2.745
C -5.688 48.469 -3.216
C -13.328 51.454 -0.896
C -13.268 51.421 1.713
C -13.232 51.397 3.279
C -13.365 51.473 -2.462
C -9.466 50.683 -0.483
C -9.424 50.664 1.081
C -12.044 49.216 -0.956
C -11.98 49.184 1.653
C -10.695 51.406 1.648
C -12.033 50.696 -0.415
C -11.995 50.677 1.149
C -10.762 51.44 -0.961
C -9.355 50.629 3.671
C -11.942 49.163 3.219
C -11.932 50.643 3.74
C -10.655 51.383 3.214
C -9.536 50.715 -3.074
C -12.083 49.236 -2.522
C -10.803 51.458 -2.527
C -12.098 50.729 -3.006
C -8.179 48.446 -0.548
C -8.136 48.427 1.016
C -9.407 49.171 1.584
C -10.747 48.458 -0.477
C -10.707 48.439 1.088
C -9.477 49.203 -1.025
C -8.064 48.396 3.606
C -10.641 48.408 3.678
C -9.366 49.15 3.15
C -8.252 48.479 -3.139
C -9.519 49.223 -2.591
C -10.815 48.491 -3.067
C -18.462 51.487 -0.789
C -18.415 51.455 1.819
C -18.388 51.432 3.385
C -18.491 51.505 -2.355
C -14.601 50.711 -0.354
C -14.567 50.692 1.211
C -17.178 49.247 -0.841
C -17.127 49.216 1.767
C -15.841 51.437 1.77
C -17.17 50.728 -0.3
C -17.14 50.709 1.264
C -15.895 51.47 -0.839
C -14.511 50.658 3.801
C -17.097 49.196 3.334
C -17.09 50.675 3.854
C -15.809 51.414 3.336
C -14.659 50.744 -2.945
C -17.209 49.267 -2.408
C -15.928 51.488 -2.405
C -17.221 50.76 -2.892
C -13.315 48.472 -0.412
C -13.279 48.453 1.153
C -14.553 49.199 1.714
C -15.884 48.487 -0.354
C -15.851 48.469 1.21
C -14.611 49.231 -0.895
C -13.219 48.422 3.742
C -15.798 48.438 3.8
C -14.519 49.179 3.28
C -13.377 48.505 -3.003
C -14.646 49.251 -2.461
C -15.938 48.52 -2.945
C -19.74 50.746 -0.255
C -19.713 50.727 1.31
C -19.671 50.694 3.9
C -19.784 50.777 -2.846
C -18.453 48.504 -0.305
C -18.424 48.486 1.26
C -19.702 49.234 1.813
C -19.746 49.265 -0.795
C -18.378 48.455 3.85
C -19.675 49.214 3.38
C -18.501 48.537 -2.895
C -19.773 49.284 -2.362
H 26.55 50.544 3.993
H 23.995 50.584 3.998
H 26.527 50.954 -4.914
H 23.98 50.955 -4.908
H 27.827 48.295 3.888
H 25.272 48.335 3.905
H 27.764 48.639 -5.024
H 25.218 48.662 -5.007
H 31.594 50.393 4.052
H 29.091 50.479 3.988
H 31.504 50.777 -5.062
H 29.04 50.896 -4.937
H 32.866 48.164 3.935
H 30.367 48.239 3.875
H 32.758 48.468 -5.182
H 30.286 48.577 -5.056
H -1.601 50.594 4.524
H -1.879 50.708 -4.4
H -4.173 50.599 4.606
H -6.747 50.608 4.686
H -4.444 50.713 -4.318
H -7.007 50.721 -4.239
H -2.882 48.369 4.537
H -5.456 48.376 4.618
H -3.158 48.479 -4.386
H -5.722 48.485 -4.305
H -9.325 50.619 4.761
H -11.905 50.632 4.829
H -9.567 50.732 -4.164
H -12.126 50.746 -4.096
H -8.033 48.386 4.696
H -10.612 48.398 4.767
H -8.284 48.495 -4.228
H -10.844 48.507 -4.157
H -14.487 50.648 4.891
H -17.07 50.665 4.944
H -14.684 50.761 -4.035
H -17.242 50.777 -3.982
H -13.193 48.412 4.832
H -15.776 48.428 4.89
H -13.403 48.522 -4.093
H -15.961 48.537 -4.035
H -19.653 50.685 4.99
H -19.802 50.794 -3.936
H -18.358 48.446 4.94
H -18.521 48.553 -3.985
H 20.082 48.629 -4.971
H 5.846 50.721 -4.645
H 7.138 48.494 -4.714
H 18.816 50.872 -4.893
H 17.495 48.595 -4.941
H 4.558 48.483 -4.636
H 16.218 50.827 -4.87
H 14.904 48.563 -4.901
H 3.266 50.711 -4.567
H 1.981 48.477 -4.554
H 13.619 50.789 -4.832
H 0.691 50.707 -4.484
H 12.313 48.534 -4.849
H -0.59 48.476 -4.47
H 11.023 50.759 -4.78
H 9.724 48.511 -4.786
H 21.407 50.919 -4.904
H 22.657 48.656 -4.991
H 8.431 50.736 -4.717
H 13.768 50.601 4.089
H 11.212 50.597 4.142
H 22.719 48.361 3.922
H -0.31 48.365 4.453
H 8.654 50.594 4.205
H 20.166 48.373 3.945
H 9.945 48.369 4.136
H 7.385 48.365 4.208
H 3.533 50.59 4.357
H 4.823 48.363 4.286
H 18.881 50.604 4.022
H 16.324 50.603 4.049
H 0.968 50.591 4.44
H 15.058 48.375 4.019
H 12.502 48.372 4.072
H 21.439 50.601 4.006
H 6.095 50.591 4.278
H 17.612 48.376 3.976
H 2.258 48.363 4.369
C -40.336 55.359 0
C -40.322 55.352 1.557
C -40.275 55.327 4.25
C -40.341 55.355 -2.693
C -39.048 53.121 -0.028
C -39.031 53.113 1.546
C -40.314 53.849 2.1
C -41.579 53.045 0.011
C -41.561 53.036 1.569
C -40.343 53.861 -0.548
C -38.987 53.093 4.133
C -41.507 53.013 4.257
C -40.289 53.837 3.683
C -39.061 53.123 -2.615
C -40.353 53.863 -2.132
C -41.589 53.046 -2.678
C -39.109 56.202 -0.558
C -39.088 56.193 2.093
C -39.07 56.184 3.681
C -39.118 56.204 -2.147
C -35.201 55.374 -0.049
C -35.189 55.366 1.518
C -37.78 53.903 -0.553
C -37.755 53.891 2.051
C -36.475 56.153 2.052
C -37.798 55.425 -0.035
C -37.786 55.419 1.545
C -36.495 56.163 -0.557
C -35.167 55.339 4.106
C -37.733 53.879 3.616
C -37.75 55.395 4.124
C -36.458 56.136 3.626
C -35.223 55.374 -2.638
C -37.792 53.904 -2.119
C -36.505 56.159 -2.131
C -37.809 55.42 -2.615
C -33.907 53.104 -0.073
C -33.892 53.093 1.491
C -35.178 53.861 2.027
C -36.485 53.133 -0.049
C -36.47 53.124 1.515
C -35.202 53.876 -0.576
C -33.868 53.071 4.076
C -36.44 53.106 4.097
C -35.162 53.846 3.592
C -33.933 53.117 -2.659
C -35.217 53.879 -2.142
C -36.508 53.142 -2.632
C -33.898 56.086 -0.578
C -33.876 56.071 2.036
C -33.864 56.047 3.608
C -33.912 56.081 -2.15
C -30.025 55.287 -0.088
C -30.01 55.274 1.479
C -32.617 53.835 -0.6
C -32.593 53.815 2.006
C -31.29 56.025 2.02
C -32.608 55.32 -0.068
C -32.595 55.309 1.498
C -31.313 56.046 -0.597
C -29.988 55.233 4.075
C -32.578 53.797 3.573
C -32.575 55.274 4.092
C -31.277 55.996 3.594
C -30.049 55.293 -2.685
C -32.633 53.839 -2.166
C -31.328 56.042 -2.171
C -32.632 55.322 -2.663
C -28.744 53.046 -0.119
C -28.728 53.031 1.446
C -30.01 53.782 1.986
C -31.324 53.071 -0.096
C -31.309 53.059 1.468
C -30.035 53.805 -0.622
C -28.703 53 4.035
C -31.286 53.032 4.057
C -29.995 53.76 3.552
C -28.772 53.065 -2.709
C -30.052 53.812 -2.189
C -31.35 53.088 -2.685
C -28.735 56.02 -0.617
C -28.71 55.995 2.002
C -28.695 55.962 3.576
C -28.751 56.018 -2.191
C -24.873 55.242 -0.133
C -24.854 55.225 1.434
C -27.458 53.782 -0.645
C -27.43 53.755 1.963
C -26.132 55.97 1.981
C -27.447 55.263 -0.109
C -27.431 55.247 1.458
C -26.161 55.998 -0.638
C -24.825 55.177 4.031
C -27.414 53.731 3.53
C -27.406 55.203 4.055
C -26.115 55.935 3.554
C -24.904 55.255 -2.731
C -27.476 53.791 -2.212
C -26.179 55.999 -2.212
C -27.474 55.273 -2.707
C -23.594 53.004 -0.172
C -23.573 52.986 1.392
C -24.852 53.732 1.938
C -26.168 53.024 -0.144
C -26.15 53.007 1.421
C -24.884 53.762 -0.671
C -23.54 52.95 3.982
C -26.122 52.973 4.011
C -24.834 53.707 3.505
C -23.629 53.029 -2.764
C -24.904 53.773 -2.238
C -26.198 53.046 -2.735
C -23.589 55.979 -0.664
C -23.555 55.948 1.955
C -23.536 55.911 3.528
C -23.61 55.982 -2.238
C -22.312 53.743 -0.702
C -22.276 53.711 1.907
C -20.98 55.927 1.923
C -22.301 55.222 -0.162
C -22.278 55.204 1.404
C -21.019 55.96 -0.696
C -22.254 53.684 3.474
C -22.244 55.154 4.001
C -20.956 55.889 3.496
C -22.335 53.755 -2.269
C -21.043 55.965 -2.27
C -22.337 55.238 -2.761
C -21.022 52.985 -0.207
C -20.998 52.966 1.358
C -20.96 52.928 3.948
C -21.063 53.011 -2.799
H -35.159 55.33 5.196
H -37.721 55.378 5.213
H -35.231 55.378 -3.728
H -37.796 55.41 -3.705
H -33.859 53.067 5.166
H -36.428 53.105 5.187
H -33.943 53.129 -3.749
H -36.517 53.153 -3.722
H -29.981 55.22 5.165
H -32.569 55.263 5.182
H -30.058 55.3 -3.775
H -32.641 55.327 -3.753
H -28.694 52.992 5.125
H -31.277 53.025 5.147
H -28.782 53.079 -3.799
H -31.361 53.1 -3.775
H -24.814 55.162 5.121
H -27.397 55.188 5.145
H -24.915 55.265 -3.822
H -27.484 55.281 -3.797
H -23.528 52.939 5.073
H -26.111 52.964 5.101
H -23.642 53.044 -3.854
H -26.21 53.061 -3.825
H -22.231 55.138 5.092
H -22.351 55.248 -3.851
H -20.944 52.917 5.038
H -21.079 53.027 -3.889
H -41.545 53.02 -3.766
H -40.292 55.329 -3.781
H -39.054 53.124 -3.705
H -38.955 53.086 5.223
H -41.435 52.982 5.344
H -40.204 55.297 5.336
C 7.213 55.875 -1.45
C 7.274 55.834 1.168
C 7.312 55.794 2.741
C 7.174 55.881 -3.024
C 11.093 55.149 -1.021
C 11.119 55.118 0.546
C 8.507 53.656 -1.513
C 8.566 53.613 1.096
C 9.841 55.843 1.11
C 8.515 55.133 -0.968
C 8.548 55.106 0.599
C 9.79 55.889 -1.509
C 11.165 55.052 3.144
C 8.602 53.58 2.662
C 8.606 55.046 3.197
C 9.872 55.8 2.683
C 11.047 55.18 -3.616
C 8.47 53.673 -3.08
C 9.758 55.898 -3.082
C 8.457 55.158 -3.564
C 12.39 52.931 -1.086
C 12.414 52.898 0.478
C 11.134 53.623 1.039
C 9.81 52.913 -1.034
C 9.841 52.885 0.53
C 11.087 53.673 -1.57
C 12.457 52.84 3.069
C 9.897 52.834 3.122
C 11.164 53.587 2.605
C 12.347 52.977 -3.674
C 11.057 53.693 -3.136
C 9.754 52.952 -3.623
C 12.372 55.909 -1.551
C 12.41 55.855 1.066
C 12.433 55.808 2.639
C 12.349 55.922 -3.125
C 16.264 55.199 -1.076
C 16.272 55.155 0.49
C 13.672 53.695 -1.612
C 13.705 53.637 0.996
C 14.982 55.871 1.041
C 13.676 55.171 -1.058
C 13.693 55.134 0.509
C 14.96 55.936 -1.576
C 16.287 55.067 3.086
C 13.728 53.596 2.562
C 13.724 55.059 3.106
C 14.997 55.817 2.614
C 16.25 55.251 -3.669
C 13.65 53.721 -3.178
C 14.946 55.955 -3.15
C 13.645 55.21 -3.652
C 17.561 52.984 -1.145
C 17.568 52.937 0.419
C 16.279 53.654 0.97
C 14.974 52.955 -1.124
C 14.989 52.916 0.44
C 16.261 53.725 -1.637
C 17.584 52.855 3.008
C 15.019 52.847 3.031
C 16.294 53.606 2.535
C 17.546 53.054 -3.73
C 16.247 53.758 -3.203
C 14.944 53.011 -3.711
C 17.554 55.97 -1.578
C 17.56 55.89 1.036
C 17.566 55.828 2.609
C 17.55 55.999 -3.152
C 21.462 55.282 -1.051
C 21.45 55.214 0.513
C 18.854 53.762 -1.644
C 18.858 53.675 0.96
C 20.146 55.916 1.053
C 18.859 55.235 -1.074
C 18.857 55.181 0.492
C 20.157 56.017 -1.558
C 21.434 55.087 3.102
C 18.864 53.617 2.526
C 18.856 55.076 3.086
C 20.143 55.841 2.625
C 21.48 55.377 -3.637
C 18.848 53.805 -3.21
C 20.162 56.059 -3.131
C 18.862 55.305 -3.664
C 22.738 53.054 -1.141
C 22.731 52.987 0.422
C 21.44 53.7 0.967
C 20.151 53.018 -1.149
C 20.149 52.962 0.414
C 21.448 53.807 -1.634
C 22.724 52.869 3.005
C 20.153 52.863 3
C 21.439 53.63 2.531
C 22.745 53.165 -3.719
C 21.45 53.865 -3.199
C 20.149 53.106 -3.732
C 22.77 56.08 -1.515
C 22.743 55.951 1.089
C 22.731 55.86 2.658
C 22.782 56.142 -3.086
C 26.66 55.353 -0.973
C 26.638 55.263 0.596
C 24.04 53.853 -1.611
C 24.022 53.724 0.985
C 25.352 56 1.141
C 24.071 55.34 -1.012
C 24.052 55.258 0.552
C 25.392 56.158 -1.454
C 26.596 55.088 3.173
C 24.016 53.64 2.549
C 24.023 55.105 3.133
C 25.331 55.893 2.71
C 26.678 55.52 -3.544
C 24.043 53.929 -3.175
C 25.405 56.251 -3.023
C 24.098 55.471 -3.588
C 27.864 53.027 -1.126
C 27.859 52.95 0.446
C 26.593 53.714 1.007
C 25.311 53.068 -1.126
C 25.302 52.993 0.436
C 26.609 53.857 -1.592
C 27.839 52.799 3.032
C 25.288 52.855 3.017
C 26.581 53.619 2.571
C 27.849 53.17 -3.709
C 26.608 53.95 -3.156
C 25.315 53.203 -3.703
C 27.986 56.128 -1.42
C 27.948 55.957 1.202
C 27.916 55.848 2.772
C 28 56.24 -2.99
C 29.157 53.776 -1.615
C 29.153 53.633 1.029
C 29.185 55.226 -0.956
C 29.172 55.142 0.595
C 29.139 53.542 2.608
C 29.124 54.97 3.275
C 29.153 53.867 -3.195
C 29.178 55.396 -3.634
C 30.39 52.932 -1.136
C 30.392 52.862 0.42
C 30.372 52.716 3.11
C 30.357 53.063 -3.825
C 2.069 55.861 -1.303
C 2.145 55.825 1.316
C 2.19 55.787 2.889
C 2.023 55.865 -2.876
C 5.941 55.122 -0.902
C 5.98 55.098 0.665
C 3.358 53.637 -1.369
C 3.431 53.601 1.24
C 4.709 55.828 1.238
C 3.37 55.116 -0.827
C 3.413 55.093 0.74
C 4.639 55.866 -1.381
C 6.048 55.042 3.263
C 3.476 53.572 2.806
C 3.487 55.039 3.338
C 4.752 55.789 2.811
C 5.873 55.143 -3.499
C 3.312 53.651 -2.935
C 4.596 55.87 -2.954
C 3.295 55.134 -3.424
C 7.234 52.9 -0.97
C 7.271 52.875 0.594
C 5.998 53.605 1.164
C 4.66 52.891 -0.896
C 4.702 52.868 0.668
C 5.931 53.644 -1.445
C 7.336 52.828 3.186
C 4.774 52.825 3.259
C 6.039 53.575 2.73
C 7.168 52.934 -3.56
C 5.889 53.659 -3.012
C 4.587 52.922 -3.486
C -3.064 55.865 -1.138
C -2.986 55.83 1.481
C -2.938 55.791 3.054
C -3.112 55.869 -2.711
C 0.801 55.113 -0.746
C 0.847 55.092 0.82
C -1.781 53.637 -1.205
C -1.702 53.602 1.405
C -0.42 55.826 1.398
C -1.766 55.115 -0.663
C -1.719 55.094 0.903
C -0.498 55.861 -1.221
C 0.925 55.039 3.418
C -1.655 53.573 2.971
C -1.64 55.042 3.501
C -0.373 55.788 2.971
C 0.722 55.131 -3.344
C -1.829 53.65 -2.771
C -0.546 55.865 -2.794
C -1.846 55.132 -3.261
C 2.089 52.887 -0.816
C 2.134 52.865 0.748
C 0.865 53.6 1.322
C -0.481 52.886 -0.733
C -0.434 52.866 0.831
C 0.787 53.635 -1.288
C 2.211 52.824 3.339
C -0.355 52.825 3.422
C 0.912 53.571 2.888
C 2.011 52.916 -3.407
C 0.74 53.648 -2.854
C -0.561 52.915 -3.324
C -8.192 55.882 -0.978
C -8.12 55.846 1.641
C -8.076 55.807 3.214
C -8.236 55.887 -2.552
C -4.332 55.12 -0.58
C -4.286 55.1 0.986
C -6.913 53.65 -1.042
C -6.839 53.616 1.568
C -5.552 55.837 1.563
C -6.897 55.128 -0.5
C -6.853 55.108 1.066
C -5.628 55.872 -1.056
C -4.208 55.047 3.584
C -6.794 53.587 3.134
C -6.778 55.055 3.664
C -5.506 55.798 3.136
C -4.411 55.137 -3.179
C -6.958 53.664 -2.608
C -5.675 55.876 -2.629
C -6.973 55.146 -3.099
C -3.048 52.89 -0.65
C -3.002 52.87 0.914
C -4.27 53.607 1.488
C -5.616 52.896 -0.568
C -5.57 52.876 0.996
C -4.347 53.642 -1.122
C -2.923 52.829 3.505
C -5.494 52.836 3.587
C -4.223 53.579 3.054
C -3.128 52.918 -3.241
C -4.395 53.655 -2.688
C -5.693 52.924 -3.16
C -13.32 55.909 -0.841
C -13.259 55.873 1.778
C -13.223 55.834 3.351
C -13.357 55.914 -2.415
C -9.462 55.14 -0.425
C -9.421 55.119 1.141
C -12.043 53.675 -0.898
C -11.979 53.64 1.711
C -10.689 55.859 1.713
C -12.028 55.153 -0.356
C -11.99 55.133 1.21
C -10.756 55.894 -0.906
C -9.351 55.066 3.739
C -11.942 53.611 3.278
C -11.927 55.079 3.807
C -10.649 55.819 3.286
C -9.533 55.158 -3.024
C -12.082 53.689 -2.465
C -10.797 55.9 -2.48
C -12.092 55.172 -2.955
C -8.182 52.906 -0.491
C -8.139 52.886 1.073
C -9.408 53.627 1.643
C -10.749 52.918 -0.419
C -10.709 52.899 1.145
C -9.478 53.661 -0.967
C -8.067 52.846 3.664
C -10.643 52.858 3.736
C -9.367 53.597 3.209
C -8.255 52.934 -3.083
C -9.52 53.675 -2.533
C -10.816 52.947 -3.011
C -18.451 55.942 -0.736
C -18.405 55.908 1.883
C -18.378 55.869 3.456
C -18.48 55.947 -2.31
C -14.594 55.169 -0.295
C -14.56 55.148 1.271
C -17.175 53.707 -0.784
C -17.125 53.673 1.825
C -15.832 55.89 1.835
C -17.162 55.186 -0.243
C -17.132 55.166 1.324
C -15.885 55.925 -0.784
C -14.504 55.095 3.868
C -17.096 53.644 3.392
C -17.083 55.113 3.921
C -15.8 55.85 3.408
C -14.652 55.187 -2.895
C -17.206 53.721 -2.351
C -15.918 55.931 -2.358
C -17.212 55.204 -2.842
C -13.316 52.933 -0.354
C -13.28 52.913 1.21
C -14.552 53.656 1.772
C -15.884 52.949 -0.297
C -15.852 52.929 1.267
C -14.609 53.69 -0.837
C -13.22 52.873 3.801
C -15.799 52.889 3.858
C -14.518 53.627 3.339
C -13.377 52.961 -2.946
C -14.643 53.704 -2.404
C -15.937 52.977 -2.889
C -19.73 55.204 -0.199
C -19.704 55.184 1.368
C -19.663 55.133 3.965
C -19.773 55.221 -2.798
C -18.452 52.966 -0.248
C -18.424 52.947 1.316
C -19.7 53.692 1.87
C -19.743 53.724 -0.74
C -18.379 52.908 3.907
C -19.674 53.663 3.437
C -18.499 52.994 -2.84
C -19.769 53.738 -2.306
H 26.564 55.014 4.26
H 24 55.043 4.221
H 26.679 55.6 -4.631
H 24.115 55.532 -4.676
H 27.817 52.729 4.12
H 25.277 52.802 4.106
H 27.828 53.234 -4.797
H 25.317 53.268 -4.791
H 29.058 54.866 4.357
H 29.101 55.457 -4.719
H 30.32 52.622 4.194
H 30.278 53.099 -4.911
H -1.606 55.023 4.591
H -1.882 55.143 -4.351
H -4.174 55.029 4.674
H -6.746 55.037 4.754
H -4.446 55.148 -4.268
H -7.006 55.157 -4.189
H -2.889 52.817 4.595
H -5.461 52.824 4.677
H -3.164 52.934 -4.331
H -5.727 52.941 -4.25
H -9.321 55.048 4.829
H -11.9 55.061 4.897
H -9.564 55.169 -4.114
H -12.12 55.183 -4.045
H -8.036 52.833 4.754
H -10.614 52.845 4.826
H -8.288 52.951 -4.172
H -10.846 52.963 -4.101
H -14.481 55.077 4.958
H -17.063 55.095 5.011
H -14.676 55.199 -3.985
H -17.233 55.215 -3.932
H -13.195 52.86 4.891
H -15.777 52.877 4.948
H -13.403 52.978 -4.036
H -15.96 52.994 -3.979
H -19.647 55.116 5.055
H -19.791 55.232 -3.888
H -18.36 52.896 4.997
H -18.519 53.01 -3.93
H 20.148 53.149 -4.821
H 5.842 55.155 -4.589
H 7.137 52.952 -4.649
H 18.866 55.34 -4.754
H 17.539 53.088 -4.819
H 4.553 52.939 -4.576
H 16.245 55.278 -4.759
H 14.931 53.039 -4.8
H 3.261 55.145 -4.514
H 1.975 52.932 -4.497
H 13.632 55.231 -4.742
H 0.687 55.142 -4.434
H 12.327 53.001 -4.764
H -0.597 52.931 -4.414
H 11.027 55.197 -4.706
H 9.729 52.973 -4.713
H 21.493 55.423 -4.726
H 22.748 53.219 -4.808
H 8.431 55.172 -4.654
H 13.735 55.03 4.196
H 11.183 55.028 4.234
H 22.715 52.824 4.094
H -0.32 52.812 4.512
H 8.631 55.024 4.287
H 20.15 52.826 4.09
H 9.92 52.816 4.211
H 7.364 52.813 4.276
H 3.519 55.02 4.428
H 4.806 52.811 4.349
H 18.849 55.034 4.175
H 16.289 55.033 4.176
H 0.959 55.021 4.508
H 15.03 52.822 4.121
H 12.475 52.819 4.159
H 21.42 55.036 4.191
H 6.077 55.022 4.353
H 17.588 52.825 4.098
H 2.245 52.811 4.429
C -39.05 57.731 -0.011
C -39.042 57.727 1.547
C -39.015 57.707 4.273
C -39.056 57.725 -2.739
C -37.771 58.436 -0.586
C -37.756 58.43 2.111
C -37.751 58.416 3.67
C -37.785 58.429 -2.144
C -33.869 57.57 -0.052
C -33.856 57.562 1.529
C -35.119 58.312 2.094
C -36.468 57.678 -0.037
C -36.457 57.673 1.545
C -35.14 58.324 -0.596
C -33.841 57.514 4.144
C -36.437 57.639 4.152
C -35.108 58.289 3.648
C -33.892 57.553 -2.668
C -35.151 58.314 -2.15
C -36.483 57.662 -2.646
C -32.573 58.261 -0.613
C -32.55 58.242 2.085
C -32.538 58.209 3.643
C -32.587 58.249 -2.171
C -28.719 57.504 -0.084
C -28.702 57.489 1.498
C -29.977 58.206 2.072
C -31.292 57.53 -0.067
C -31.277 57.518 1.514
C -30.003 58.23 -0.628
C -28.68 57.426 4.119
C -31.258 57.461 4.134
C -29.964 58.169 3.631
C -28.743 57.493 -2.705
C -30.018 58.221 -2.187
C -31.315 57.515 -2.689
C -27.432 58.208 -0.645
C -27.403 58.179 2.056
C -27.388 58.139 3.614
C -27.449 58.201 -2.204
C -23.574 57.462 -0.128
C -23.553 57.443 1.455
C -24.828 58.156 2.035
C -26.146 57.482 -0.103
C -26.127 57.465 1.479
C -24.862 58.188 -0.665
C -23.522 57.374 4.075
C -26.101 57.399 4.099
C -24.81 58.114 3.593
C -23.607 57.458 -2.749
C -24.88 58.184 -2.224
C -26.174 57.475 -2.725
C -22.292 58.169 -0.692
C -22.253 58.135 2.009
C -22.232 58.091 3.567
C -22.314 58.167 -2.251
C -21.004 57.442 -0.158
C -20.979 57.423 1.424
C -20.942 57.351 4.044
C -21.043 57.441 -2.78
H -33.839 57.508 5.235
H -36.419 57.641 5.241
H -33.902 57.561 -3.759
H -36.476 57.673 -3.736
H -28.674 57.417 5.209
H -31.254 57.453 5.225
H -28.751 57.505 -3.796
H -31.323 57.526 -3.779
H -23.511 57.362 5.165
H -26.093 57.388 5.19
H -23.619 57.473 -3.84
H -26.184 57.489 -3.815
H -20.928 57.339 5.134
H -21.059 57.457 -3.871
H -38.827 57.593 -3.796
H -38.78 57.578 5.328
C 8.491 58.079 -1.487
C 8.55 58.036 1.214
C 8.584 57.989 2.772
C 8.456 58.078 -3.046
C 12.371 57.387 -1.004
C 12.395 57.354 0.579
C 11.115 58.046 1.168
C 9.793 57.369 -0.965
C 9.825 57.34 0.617
C 11.068 58.096 -1.533
C 12.431 57.266 3.199
C 9.875 57.259 3.238
C 11.142 57.996 2.725
C 12.335 57.401 -3.623
C 11.041 58.098 -3.092
C 9.743 57.375 -3.585
C 13.65 58.119 -1.559
C 13.684 58.059 1.141
C 13.702 58.005 2.698
C 13.632 58.126 -3.118
C 17.545 57.445 -1.016
C 17.552 57.395 0.566
C 16.258 58.076 1.137
C 14.954 57.412 -1.022
C 14.97 57.372 0.56
C 16.238 58.149 -1.562
C 17.553 57.28 3.183
C 14.99 57.273 3.18
C 16.267 58.014 2.694
C 17.545 57.485 -3.633
C 16.23 58.164 -3.121
C 14.936 57.437 -3.64
C 18.834 58.189 -1.537
C 18.838 58.097 1.159
C 18.838 58.024 2.716
C 18.837 58.215 -3.096
C 22.765 57.55 -0.925
C 22.751 57.469 0.652
C 21.431 58.126 1.207
C 20.145 57.488 -0.985
C 20.143 57.425 0.596
C 21.443 58.245 -1.483
C 22.716 57.305 3.258
C 20.126 57.289 3.21
C 21.42 58.038 2.763
C 22.805 57.647 -3.529
C 21.455 58.288 -3.041
C 20.165 57.55 -3.598
C 24.076 58.335 -1.392
C 24.043 58.179 1.283
C 24.02 58.073 2.835
C 24.095 58.407 -2.946
C 28.06 57.627 -0.748
C 28.027 57.521 0.833
C 26.733 58.281 1.379
C 25.423 57.657 -0.834
C 25.395 57.554 0.738
C 26.796 58.474 -1.237
C 27.938 57.319 3.418
C 25.337 57.36 3.329
C 26.685 58.161 2.955
C 28.112 57.83 -3.327
C 26.824 58.591 -2.814
C 25.476 57.813 -3.421
C 3.349 58.062 -1.353
C 3.424 58.024 1.348
C 3.468 57.98 2.906
C 3.305 58.059 -2.911
C 7.22 57.356 -0.909
C 7.257 57.33 0.673
C 5.987 58.028 1.276
C 4.65 57.347 -0.841
C 4.692 57.324 0.741
C 5.918 58.068 -1.426
C 7.32 57.254 3.294
C 4.763 57.25 3.362
C 6.027 57.984 2.833
C 7.157 57.357 -3.53
C 5.878 58.066 -2.984
C 4.578 57.346 -3.462
C -1.781 58.061 -1.191
C -1.701 58.025 1.511
C -1.654 57.981 3.068
C -1.829 58.059 -2.749
C 2.083 57.343 -0.764
C 2.127 57.321 0.818
C 0.862 58.023 1.428
C -0.483 57.343 -0.682
C -0.437 57.321 0.9
C 0.783 58.06 -1.274
C 2.204 57.248 3.439
C -0.357 57.249 3.521
C 0.908 57.979 2.985
C 2.005 57.341 -3.385
C 0.736 58.057 -2.832
C -0.563 57.341 -3.304
C -6.905 58.076 -1.027
C -6.829 58.039 1.674
C -6.785 57.993 3.232
C -6.951 58.074 -2.585
C -3.047 57.346 -0.599
C -3 57.325 0.983
C -4.264 58.03 1.594
C -5.61 57.353 -0.517
C -5.565 57.332 1.065
C -4.344 58.067 -1.108
C -2.921 57.252 3.604
C -5.488 57.259 3.685
C -4.218 57.985 3.151
C -3.127 57.345 -3.221
C -4.391 58.065 -2.666
C -5.689 57.352 -3.139
C -12.03 58.101 -0.883
C -11.964 58.063 1.819
C -11.926 58.016 3.376
C -12.068 58.101 -2.441
C -8.173 57.363 -0.439
C -8.131 57.342 1.143
C -9.396 58.05 1.75
C -10.737 57.375 -0.367
C -10.697 57.354 1.216
C -9.467 58.087 -0.952
C -8.058 57.268 3.763
C -10.63 57.28 3.836
C -9.354 58.003 3.307
C -8.248 57.363 -3.061
C -9.51 58.086 -2.51
C -10.806 57.376 -2.989
C -17.158 58.133 -0.769
C -17.106 58.096 1.931
C -17.077 58.05 3.489
C -17.188 58.133 -2.328
C -13.302 57.39 -0.302
C -13.266 57.369 1.281
C -14.534 58.079 1.879
C -15.868 57.406 -0.245
C -15.835 57.386 1.337
C -14.593 58.116 -0.822
C -13.206 57.295 3.901
C -15.783 57.312 3.957
C -14.501 58.032 3.437
C -13.364 57.391 -2.924
C -14.627 58.116 -2.38
C -15.922 57.407 -2.867
C -18.435 57.424 -0.197
C -18.407 57.404 1.385
C -19.679 58.115 1.974
C -19.724 58.151 -0.726
C -18.362 57.331 4.005
C -19.654 58.069 3.532
C -18.482 57.424 -2.819
C -19.75 58.15 -2.285
H 27.895 57.211 4.502
H 25.288 57.283 4.415
H 28.157 57.935 -4.41
H 25.513 57.894 -4.507
H -2.887 57.239 4.694
H -5.454 57.245 4.775
H -3.163 57.36 -4.311
H -5.724 57.368 -4.229
H -8.026 57.254 4.853
H -10.602 57.266 4.926
H -8.281 57.379 -4.151
H -10.836 57.393 -4.079
H -13.18 57.281 4.991
H -15.762 57.298 5.047
H -13.39 57.408 -4.014
H -15.945 57.424 -3.957
H -18.344 57.317 5.095
H -18.501 57.44 -3.91
H 20.184 57.593 -4.688
H 7.129 57.375 -4.62
H 17.552 57.518 -4.723
H 4.546 57.363 -4.552
H 14.932 57.464 -4.731
H 1.97 57.357 -4.475
H 12.322 57.423 -4.713
H -0.599 57.356 -4.394
H 9.721 57.394 -4.675
H 22.836 57.704 -4.618
H 22.687 57.248 4.347
H -0.323 57.235 4.611
H 20.107 57.246 4.299
H 9.894 57.241 4.329
H 7.345 57.238 4.384
H 4.793 57.235 4.452
H 14.991 57.247 4.27
H 12.442 57.245 4.289
H 17.544 57.247 4.273
H 2.237 57.234 4.529
H -57.626 26.191 -0.069
H -57.565 26.17 2.121
H -56.304 28.443 2.1
H -56.364 28.463 -0.09
H -57.503 26.148 4.289
H -56.243 28.423 4.267
H 32.54 51.175 -1.588
H 32.558 51.092 0.601
H 32.564 51.013 2.766
H 32.527 51.259 -3.762
H 33.797 48.903 -1.714
H 33.821 48.836 0.476
H 33.834 48.771 2.641
H 33.777 48.972 -3.887
H -69.116 5.989 -0.379
H -69.14 5.94 1.812
H -69.164 5.897 3.987
H -69.093 6.026 -2.543
H -70.473 3.78 1.655
H -70.414 3.811 -0.529
H -70.542 3.744 3.827
H -70.355 3.837 -2.684
H -56.421 28.484 -2.255
H -42.497 53.549 -0.29
H -42.472 53.537 1.896
H -41.245 55.826 1.882
H -41.264 55.837 -0.305
H -42.447 53.525 4.06
H -41.228 55.811 4.052
H -42.521 53.562 -2.455
H -41.286 55.844 -2.475
H 45.393 28.388 0.101
H 45.392 28.411 -2.086
H 45.393 28.366 2.271
H 45.388 28.435 -4.252
H 46.686 26.103 0.078
H 46.685 26.126 -2.109
H 46.684 26.081 2.248
H 46.683 26.15 -4.275
H -53.843 33.014 -0.131
H -53.787 32.996 2.058
H -53.73 32.978 4.225
H -53.897 33.034 -2.296
H -52.583 35.292 -0.15
H -55.045 30.719 2.079
H -55.103 30.737 -0.111
H -54.986 30.7 4.246
H -55.159 30.758 -2.276
H 58.376 5.708 -2.067
H 58.321 5.698 0.119
H 58.265 5.679 2.288
H 58.433 5.719 -4.241
H 30.106 55.576 0.94
H 59.568 3.504 2.366
H 30.123 55.698 -1.24
H 59.819 3.553 -4.151
H 30.077 55.458 3.101
H 30.146 55.832 -3.407
H 31.309 53.346 0.756
H 31.303 53.447 -1.431
H 31.3 53.253 2.921
H 31.304 53.55 -3.602
H -67.818 8.208 -0.256
H -67.816 8.152 1.936
H -66.507 10.378 2.03
H -66.528 10.434 -0.162
H -67.815 8.103 4.113
H -66.487 10.328 4.207
H -67.816 8.252 -2.42
H -66.543 10.48 -2.326
H 59.73 3.541 -1.98
H 59.652 3.526 0.198
H 42.802 32.977 -2.045
H 42.807 32.954 0.142
H 42.81 32.931 2.313
H 42.795 33.002 -4.212
H 44.097 30.695 -2.065
H 44.1 30.672 0.122
H 44.101 30.649 2.292
H 44.092 30.72 -4.231
H -52.529 35.274 2.038
H -51.272 37.554 2.019
H -51.323 37.571 -0.169
H -52.475 35.257 4.205
H -51.22 37.537 4.186
H -52.635 35.312 -2.315
H -51.373 37.591 -2.333
H 55.711 10.18 0.021
H 55.737 10.186 -2.168
H 55.764 10.196 -4.341
H 57.01 7.931 0.06
H 57.048 7.937 -2.129
H 56.97 7.917 2.228
H 57.087 7.946 -4.303
H 55.682 10.167 2.189
H -63.966 14.905 -0.054
H -63.919 14.86 2.138
H -63.874 14.817 4.312
H -64.006 14.946 -2.218
H -65.209 12.615 2.096
H -65.244 12.666 -0.096
H -65.174 12.568 4.272
H -65.273 12.711 -2.259
H 40.223 37.51 0.186
H 40.212 37.535 -2.002
H 40.232 37.484 2.355
H 40.199 37.564 -4.17
H 41.514 35.234 0.163
H 41.507 35.257 -2.025
H 41.52 35.21 2.333
H 41.497 35.284 -4.192
H -50.015 39.835 2.001
H -50.063 39.851 -0.188
H -49.966 39.819 4.167
H -50.11 39.87 -2.351
H -48.803 42.132 -0.206
H -48.757 42.116 1.983
H -48.711 42.101 4.149
H -48.846 42.15 -2.37
H 53.141 14.717 -2.195
H 53.131 14.704 -0.006
H 53.117 14.689 2.161
H 53.153 14.731 -4.365
H 54.436 12.447 -2.189
H 54.419 12.438 -0
H 54.399 12.425 2.167
H 54.454 12.458 -4.361
H -62.692 17.151 -0.033
H -62.638 17.112 2.158
H -61.363 19.37 2.163
H -61.422 19.403 -0.028
H -62.585 17.074 4.331
H -61.305 19.338 4.334
H -62.74 17.187 -2.197
H -61.475 19.435 -2.193
H 37.63 42.086 -1.936
H 37.649 42.052 0.253
H 37.664 42.016 2.421
H 37.61 42.125 -4.106
H 38.919 39.812 -1.974
H 38.935 39.783 0.215
H 38.946 39.753 2.383
H 38.903 39.844 -4.143
H -47.542 44.412 -0.224
H -47.499 44.397 1.965
H -46.241 46.679 1.947
H -46.28 46.693 -0.242
H -47.457 44.383 4.13
H -46.203 46.666 4.112
H -47.582 44.43 -2.388
H -46.316 46.711 -2.406
H 50.556 19.254 0.013
H 50.559 19.273 -2.174
H 50.549 19.235 2.182
H 50.562 19.292 -4.342
H 51.843 16.977 -0.001
H 51.85 16.993 -2.189
H 51.834 16.959 2.167
H 51.856 17.009 -4.358
H -58.89 23.924 -0.05
H -58.828 23.9 2.14
H -58.766 23.875 4.309
H -58.947 23.949 -2.216
H -60.093 21.633 2.155
H -60.155 21.661 -0.035
H -60.033 21.605 4.325
H -60.211 21.689 -2.201
H 35.092 46.578 0.379
H 35.066 46.632 -1.811
H 35.108 46.524 2.544
H 35.044 46.688 -3.983
H 36.368 44.317 0.306
H 36.345 44.359 -1.883
H 36.384 44.273 2.473
H 36.323 44.406 -4.055
H -44.983 48.962 1.929
H -45.018 48.976 -0.259
H -44.948 48.95 4.094
H -45.05 48.992 -2.423
H -43.755 51.26 -0.275
H -43.725 51.248 1.912
H -43.695 51.236 4.076
H -43.784 51.275 -2.44
H 47.978 23.841 -2.132
H 47.977 23.818 0.055
H 47.975 23.797 2.225
H 47.977 23.864 -4.298
H 49.269 21.556 -2.154
H 49.267 21.535 0.033
H 49.263 21.514 2.202
H 49.27 21.578 -4.321
H -57.684 26.214 -2.235
H -35.061 59.364 -0.295
H -35.045 59.355 1.802
H -35.033 59.305 4.031
H -35.081 59.333 -2.525
H -29.992 59.277 -0.324
H -29.967 59.258 1.787
H -32.555 59.308 -0.311
H -32.532 59.293 1.798
H -29.949 59.188 4.021
H -32.515 59.229 4.03
H -30.012 59.248 -2.56
H -32.574 59.275 -2.545
H -24.852 59.233 -0.357
H -24.823 59.208 1.753
H -27.422 59.253 -0.338
H -27.396 59.231 1.772
H -24.798 59.132 3.988
H -27.375 59.158 4.007
H -24.878 59.211 -2.594
H -27.445 59.228 -2.574
H -22.282 59.213 -0.383
H -22.249 59.187 1.728
H -22.22 59.108 3.962
H -22.312 59.194 -2.619
H -19.713 59.195 -0.416
H -19.676 59.168 1.694
H -19.641 59.086 3.929
H -19.749 59.177 -2.653
H 11.063 59.14 -1.221
H 11.105 59.099 0.889
H 8.491 59.123 -1.177
H 8.539 59.088 0.934
H 11.145 59.012 3.125
H 8.59 59.006 3.169
H 11.024 59.127 -3.456
H 8.44 59.106 -3.412
H 16.222 59.19 -1.243
H 16.249 59.131 0.868
H 13.64 59.162 -1.245
H 13.674 59.113 0.866
H 16.262 59.026 3.102
H 13.701 59.019 3.101
H 16.211 59.196 -3.476
H 13.614 59.156 -3.479
H 21.408 59.281 -1.149
H 21.419 59.186 0.959
H 18.81 59.228 -1.212
H 18.83 59.154 0.898
H 21.404 59.044 3.186
H 18.829 59.034 3.13
H 21.426 59.326 -3.377
H 18.815 59.25 -3.444
H 24.017 59.365 -1.044
H 24.01 59.241 1.05
H 23.975 59.072 3.268
H 24.043 59.449 -3.263
H 5.922 59.113 -1.116
H 5.975 59.081 0.994
H 3.356 59.106 -1.044
H 3.413 59.076 1.066
H 6.035 59.001 3.23
H 3.478 58.997 3.302
H 5.862 59.093 -3.352
H 3.29 59.086 -3.28
H 0.792 59.104 -0.964
H 0.852 59.075 1.146
H -1.77 59.106 -0.881
H -1.71 59.078 1.229
H 0.92 58.996 3.382
H -1.64 58.998 3.465
H 0.723 59.084 -3.201
H -1.84 59.086 -3.118
H -4.332 59.111 -0.797
H -4.272 59.083 1.313
H -6.893 59.12 -0.717
H -6.835 59.091 1.394
H -4.204 59.002 3.548
H -6.77 59.01 3.629
H -4.4 59.093 -3.034
H -6.959 59.102 -2.954
H -9.454 59.131 -0.641
H -9.4 59.102 1.47
H -12.017 59.145 -0.571
H -11.966 59.116 1.539
H -9.339 59.02 3.705
H -11.911 59.033 3.774
H -9.516 59.114 -2.878
H -12.072 59.129 -2.808
H -14.58 59.16 -0.51
H -14.534 59.132 1.6
H -17.146 59.177 -0.458
H -17.105 59.149 1.652
H -14.486 59.049 3.835
H -17.063 59.067 3.886
H -14.63 59.144 -2.747
H -17.189 59.161 -2.695
H -64.407 -1.19 -3.846
H -66.942 -1.176 -3.9
H -69.481 -1.194 -4.017
H -78.761 2.159 -3.398
C 29.873 62.967 -0.662
C 29.767 62.77 1.977
C 30.808 60.445 1.825
C 31.091 62.088 -0.153
C 31.034 61.98 1.439
C 30.902 60.638 -0.858
C 29.692 62.659 3.569
C 30.907 61.785 4.031
C 30.731 60.329 3.376
C 29.931 63.098 -2.255
C 30.951 60.77 -2.408
C 31.191 62.306 -2.745
C 28.512 62.209 -0.258
C 28.452 62.089 1.293
C 28.336 61.874 3.969
C 28.617 62.431 -2.934
H 30.863 61.671 5.114
H 31.266 62.402 -3.828
H 28.325 61.738 5.05
H 28.715 62.504 -4.016
H 27.673 62.838 -0.55
H 27.575 62.651 1.612
H 27.468 62.501 3.773
H 27.734 63.024 -2.707
H 31.745 60.008 -0.582
H 31.689 59.881 1.526
H 31.558 59.714 3.73
H 31.81 60.215 -2.786
C 29.542 59.888 -0.454
C 29.493 59.777 1.133
C 29.373 59.57 3.73
C 29.622 60.112 -3.048
C 26.976 59.957 -0.55
C 26.927 59.838 0.998
C 28.233 60.545 1.678
C 28.327 60.752 -0.958
C 26.828 59.617 3.662
C 28.162 60.425 3.261
C 27.053 60.165 -3.213
C 28.369 60.884 -2.541
C 29.388 58.437 -1.159
C 29.317 58.246 1.517
C 29.255 58.129 3.066
C 29.422 58.565 -2.708
H 29.327 59.452 4.813
H 29.687 60.214 -4.131
H 26.818 59.481 4.742
H 27.145 60.234 -4.295
H 26.048 60.393 1.321
H 26.127 60.577 -0.836
H 25.957 60.236 3.467
H 26.162 60.747 -2.99
H 30.265 57.858 -0.888
H 30.226 57.735 1.216
H 30.117 57.571 3.422
H 30.303 58.054 -3.088
C 32.631 64.264 0.144
C 32.58 64.169 1.714
C 32.474 63.995 4.332
C 32.738 64.464 -2.471
C 30.034 64.413 0.035
C 29.977 64.31 1.579
C 31.312 64.914 2.266
C 31.404 65.079 -0.394
C 29.872 64.117 4.273
C 31.254 64.813 3.833
C 30.158 64.627 -2.665
C 31.465 65.201 -1.954
C 32.477 62.816 -0.558
C 32.377 62.637 2.129
C 32.301 62.531 3.676
C 32.536 62.939 -2.103
H 32.438 63.897 5.416
H 32.802 64.546 -3.556
H 29.865 64.005 5.355
H 30.274 64.714 -3.743
H 29.096 64.846 1.905
H 29.19 65.006 -0.289
H 29.009 64.728 4.045
H 29.261 65.177 -2.43
H 33.309 62.181 -0.268
H 33.116 61.906 4.037
H 33.386 62.376 -2.484
H 33.247 62.063 1.826
C -41.516 62.519 -0.558
C -41.522 62.51 2.1
C -38.989 62.346 2.125
C -40.201 63.23 -0.021
C -40.206 63.227 1.576
C -38.985 62.349 -0.574
C -41.536 62.507 3.698
C -40.226 63.222 4.183
C -39.002 62.341 3.686
C -41.52 62.526 -2.157
C -38.993 62.347 -2.136
C -40.204 63.236 -2.63
C -41.52 61.016 -0.012
C -41.519 61.01 1.552
C -41.524 61.009 4.247
C -41.526 61.033 -2.708
H -40.211 63.232 5.273
H -40.183 63.255 -3.72
H -41.478 61.046 5.335
H -41.478 61.073 -3.795
H -42.452 60.546 -0.321
H -42.45 60.536 1.859
H -42.474 60.523 4.035
H -42.481 60.556 -2.498
H -38.052 62.824 -0.279
H -38.056 62.826 1.833
H -38.089 62.813 4.052
H -38.076 62.811 -2.499
C -39.001 60.835 -0.028
C -38.998 60.833 1.57
C -39.012 60.823 4.199
C -39.023 60.836 -2.66
C -40.368 58.642 -0
C -40.363 58.638 1.54
C -40.302 60.131 2.108
C -40.307 60.138 -0.568
C -40.352 58.622 4.311
C -40.308 60.12 3.704
C -40.383 58.646 -2.776
C -40.321 60.136 -2.165
C -37.757 60.039 -0.61
C -37.747 60.034 2.143
C -37.755 60.018 3.69
C -37.775 60.027 -2.158
H -38.995 60.827 5.289
H -39.008 60.846 -3.75
H -40.619 58.735 5.362
H -40.651 58.764 -3.826
H -41.25 58.115 1.881
H -41.256 58.12 -0.341
H -41.202 58.081 3.918
H -41.238 58.112 -2.382
H -36.828 60.487 -0.28
H -36.821 60.485 1.808
H -36.848 60.441 4.114
H -36.871 60.448 -2.587
C -41.413 65.59 -0.007
C -41.426 65.587 1.568
C -41.448 65.59 4.2
C -41.393 65.604 -2.64
C -42.755 63.344 -0.008
C -42.76 63.336 1.541
C -42.687 64.799 2.107
C -42.669 64.81 -0.57
C -42.769 63.344 4.262
C -42.704 64.801 3.678
C -42.739 63.372 -2.731
C -42.661 64.823 -2.142
C -40.165 64.76 -0.564
C -40.182 64.758 2.132
C -40.199 64.755 3.683
C -40.161 64.762 -2.115
H -41.43 65.594 5.29
H -41.359 65.617 -3.73
H -42.728 63.392 5.349
H -42.689 63.422 -3.818
H -43.672 62.85 1.865
H -43.665 62.861 -0.343
H -43.702 62.848 4.026
H -43.676 62.882 -2.502
H -39.24 65.237 -0.253
H -39.292 65.226 4.06
H -39.246 65.226 -2.481
H -39.255 65.241 1.834
C 30.902 -61.713 -2.232
C 30.898 -61.74 0.424
C 28.337 -61.812 0.437
C 29.653 -62.542 -1.709
C 29.648 -62.557 -0.114
C 28.337 -61.812 -2.251
C 30.904 -61.747 2.024
C 29.651 -62.569 2.49
C 28.346 -61.798 1.994
C 30.907 -61.696 -3.831
C 28.341 -61.808 -3.807
C 29.663 -62.518 -4.317
C 30.746 -60.243 -1.684
C 30.75 -60.255 -0.129
C 30.747 -60.256 2.567
C 30.732 -60.23 -4.383
H 29.63 -62.595 3.58
H 29.644 -62.525 -5.406
H 30.675 -60.287 3.654
H 30.679 -60.263 -5.47
H 31.634 -59.701 -1.993
H 31.639 -59.717 0.188
H 31.665 -59.711 2.373
H 31.636 -59.672 -4.166
H 27.463 -62.389 -1.952
H 27.457 -62.384 0.148
H 27.479 -62.346 2.364
H 27.488 -62.381 -4.172
C 28.191 -60.314 -1.705
C 28.198 -60.31 -0.117
C 28.219 -60.28 2.487
C 28.189 -60.314 -4.312
C 29.452 -59.501 0.401
C 29.438 -59.507 -2.239
C 29.464 -59.483 1.984
C 29.43 -59.506 -3.822
C 26.866 -59.596 -2.252
C 26.882 -59.573 0.429
C 26.899 -59.547 1.983
C 26.863 -59.601 -3.807
H 28.208 -60.28 3.578
H 28.173 -60.327 -5.402
H 26.007 -60.187 -1.946
H 26.017 -60.169 0.148
H 26.052 -60.116 2.365
H 26.019 -60.191 -4.166
C 31.097 -64.733 -1.728
C 31.086 -64.768 -0.152
C 31.071 -64.831 2.475
C 31.115 -64.682 -4.359
C 32.232 -62.403 -1.672
C 32.226 -62.435 -0.122
C 32.285 -63.91 0.421
C 32.298 -63.851 -2.255
C 32.21 -62.491 2.596
C 32.28 -63.947 1.993
C 32.238 -62.372 -4.394
C 32.311 -63.823 -3.825
C 29.779 -64.037 -2.277
C 29.764 -64.074 0.417
C 29.763 -64.088 1.967
C 29.79 -64.017 -3.826
H 31.041 -64.867 3.565
H 31.092 -64.666 -5.448
H 32.155 -62.558 3.681
H 32.212 -62.41 -5.481
H 33.094 -61.879 0.222
H 33.101 -61.832 -1.986
H 33.111 -61.924 2.385
H 28.899 -64.596 -1.978
H 28.893 -64.632 2.331
H 28.93 -64.559 -4.21
H 28.883 -64.625 0.105
C -40.564 -62.352 -2.12
C -40.685 -62.573 0.526
C -41.837 -60.308 0.723
C -41.858 -61.622 -1.583
C -41.924 -61.741 0.009
C -41.735 -60.105 -1.974
C -40.747 -62.724 2.117
C -42.033 -61.993 2.608
C -41.888 -60.453 2.278
C -40.491 -62.226 -3.711
C -41.661 -59.979 -3.531
C -41.729 -61.4 -4.189
C -39.311 -61.644 -1.425
C -39.38 -61.767 0.133
C -39.493 -62.003 2.813
C -39.194 -61.436 -4.108
H -42.116 -62.102 3.69
H -41.683 -61.281 -5.272
H -39.606 -62.089 3.893
H -39.178 -61.324 -5.191
H -38.405 -62.163 -1.735
H -38.512 -62.353 0.436
H -38.576 -62.547 2.598
H -38.304 -62.021 -3.882
H -42.644 -59.59 -1.669
H -42.712 -59.724 0.445
H -42.78 -59.951 2.654
H -42.518 -59.404 -3.885
C -40.478 -59.402 -1.281
C -40.53 -59.506 0.315
C -40.615 -59.734 2.933
C -40.357 -59.203 -3.914
C -37.924 -59.46 -1.138
C -37.973 -59.571 0.396
C -39.289 -60.324 0.837
C -39.19 -60.119 -1.833
C -38.051 -59.757 3.154
C -39.33 -60.45 2.427
C -37.824 -59.274 -3.922
C -39.122 -60.006 -3.425
C -40.459 -57.902 -1.721
C -40.521 -58.07 1.033
C -40.554 -58.189 2.579
C -40.384 -57.794 -3.26
H -40.68 -59.833 4.017
H -40.314 -59.085 -4.997
H -38.058 -60.131 4.178
H -37.72 -59.482 -4.987
H -37.082 -60.094 0.732
H -37.006 -59.922 -1.481
H -37.129 -60.175 2.771
H -36.957 -59.763 -3.505
H -41.338 -57.376 -1.371
H -41.366 -57.471 0.716
H -41.396 -57.662 3.02
H -41.196 -57.209 -3.68
C -43.254 -63.809 -1.899
C -43.322 -63.931 -0.33
C -43.451 -64.189 2.283
C -43.128 -63.578 -4.522
C -40.677 -63.878 -1.73
C -40.751 -64.003 -0.188
C -42.086 -64.718 0.214
C -41.964 -64.494 -2.45
C -40.895 -64.264 2.511
C -42.163 -64.876 1.767
C -40.554 -63.644 -4.431
C -41.89 -64.358 -4.011
C -43.139 -62.289 -2.29
C -43.257 -62.508 0.403
C -43.32 -62.661 1.945
C -43.065 -62.157 -3.834
H -43.53 -64.3 3.365
H -43.076 -63.452 -5.603
H -41.026 -64.368 3.587
H -40.526 -63.529 -5.513
H -39.88 -64.546 0.151
H -39.761 -64.349 -2.05
H -39.964 -64.756 2.286
H -39.664 -64.197 -4.167
H -44.014 -61.74 -1.967
H -44.177 -62.127 2.342
H -43.887 -61.544 -4.192
H -44.092 -61.882 0.119
C 68.652 1.083 -0.907
C 68.559 1.057 0.665
C 68.385 1.023 3.28
C 68.835 1.123 -3.522
C 68.453 -0.453 1.183
C 68.621 -0.408 -1.477
C 68.352 -0.476 2.758
C 68.734 -0.384 -3.046
H 68.293 1.039 4.366
H 68.914 1.165 -4.608
C -54.193 -2.796 -0.747
C -54.161 -2.826 1.859
C -54.142 -2.846 3.426
C -54.212 -2.777 -2.314
C -50.349 -3.577 -0.3
C -50.324 -3.591 1.265
C -52.923 -5.062 -0.793
C -52.888 -5.087 1.813
C -51.593 -2.835 1.817
C -52.909 -3.565 -0.256
C -52.888 -3.58 1.31
C -51.634 -2.808 -0.789
C -50.28 -3.618 3.851
C -52.867 -5.104 3.38
C -52.851 -3.609 3.896
C -51.57 -2.853 3.383
C -50.392 -3.551 -2.887
C -52.943 -5.046 -2.359
C -51.658 -2.79 -2.356
C -52.946 -3.536 -2.843
C -49.08 -5.848 -0.346
C -49.054 -5.861 1.22
C -50.323 -5.101 1.77
C -51.639 -5.833 -0.3
C -51.617 -5.846 1.265
C -50.364 -5.077 -0.836
C -49.011 -5.883 3.805
C -51.578 -5.87 3.851
C -50.298 -5.116 3.337
C -49.124 -5.827 -2.932
C -50.389 -5.062 -2.402
C -51.678 -5.81 -2.887
C -49.075 -2.817 -0.838
C -49.03 -2.843 1.768
C -49.003 -2.859 3.334
C -49.102 -2.801 -2.404
C -45.231 -3.596 -0.402
C -45.202 -3.609 1.163
C -47.806 -5.09 -0.884
C -47.761 -5.112 1.722
C -46.468 -2.849 1.716
C -47.79 -3.587 -0.35
C -47.762 -3.601 1.215
C -46.517 -2.826 -0.889
C -45.154 -3.631 3.748
C -47.734 -5.126 3.288
C -47.715 -3.625 3.8
C -46.44 -2.864 3.282
C -45.28 -3.575 -2.987
C -47.834 -5.077 -2.45
C -46.545 -2.811 -2.456
C -47.837 -3.564 -2.936
C -43.963 -5.873 -0.445
C -43.935 -5.884 1.12
C -45.201 -5.122 1.671
C -46.521 -5.861 -0.395
C -46.494 -5.873 1.17
C -45.248 -5.102 -0.934
C -43.888 -5.903 3.705
C -46.448 -5.894 3.756
C -45.173 -5.134 3.237
C -44.01 -5.855 -3.03
C -45.277 -5.089 -2.5
C -46.568 -5.842 -2.98
C -43.958 -2.833 -0.941
C -43.909 -2.855 1.663
C -43.88 -2.869 3.23
C -43.987 -2.82 -2.508
C -40.113 -3.612 -0.503
C -40.085 -3.624 1.062
C -42.689 -5.112 -0.984
C -42.642 -5.13 1.62
C -41.351 -2.861 1.612
C -42.672 -3.604 -0.453
C -42.643 -3.616 1.112
C -41.399 -2.84 -0.992
C -40.039 -3.643 3.647
C -42.614 -5.142 3.186
C -42.595 -3.637 3.697
C -41.323 -2.874 3.178
C -40.16 -3.593 -3.086
C -42.718 -5.101 -2.551
C -41.428 -2.828 -2.558
C -42.721 -3.584 -3.038
C -38.845 -5.893 -0.541
C -38.818 -5.903 1.024
C -40.084 -5.139 1.571
C -41.404 -5.883 -0.494
C -41.376 -5.894 1.071
C -40.13 -5.121 -1.032
C -38.773 -5.92 3.608
C -41.33 -5.911 3.656
C -40.057 -5.15 3.138
C -38.89 -5.877 -3.125
C -40.158 -5.111 -2.599
C -41.451 -5.867 -3.078
C -38.839 -2.847 -1.04
C -38.794 -2.867 1.564
C -38.766 -2.879 3.13
C -38.867 -2.836 -2.606
C -34.994 -3.627 -0.591
C -34.969 -3.638 0.974
C -37.57 -5.13 -1.078
C -37.526 -5.147 1.526
C -36.236 -2.873 1.52
C -37.554 -3.619 -0.549
C -37.527 -3.631 1.016
C -36.279 -2.854 -1.084
C -34.927 -3.656 3.558
C -37.5 -5.157 3.092
C -37.483 -3.649 3.601
C -36.21 -2.885 3.086
C -35.035 -3.609 -3.174
C -37.597 -5.12 -2.644
C -36.305 -2.843 -2.65
C -37.598 -3.601 -3.132
C -33.725 -5.911 -0.625
C -33.7 -5.921 0.94
C -34.968 -5.155 1.484
C -36.285 -5.902 -0.585
C -36.259 -5.912 0.98
C -35.01 -5.138 -1.12
C -33.661 -5.937 3.524
C -36.217 -5.928 3.564
C -34.943 -5.165 3.05
C -33.765 -5.896 -3.208
C -35.035 -5.129 -2.686
C -36.328 -5.887 -3.168
C -33.719 -2.861 -1.124
C -33.678 -2.88 1.479
C -33.653 -2.892 3.046
C -33.743 -2.85 -2.69
C -29.873 -3.643 -0.665
C -29.849 -3.654 0.9
C -32.449 -5.147 -1.158
C -32.409 -5.163 1.445
C -31.118 -2.888 1.442
C -32.434 -3.635 -0.629
C -32.409 -3.646 0.936
C -31.158 -2.869 -1.161
C -29.812 -3.672 3.483
C -32.386 -5.174 3.011
C -32.371 -3.664 3.519
C -31.095 -2.899 3.008
C -29.911 -3.626 -3.248
C -32.473 -5.137 -2.725
C -31.181 -2.858 -2.727
C -32.473 -3.617 -3.212
C -28.603 -5.93 -0.697
C -28.579 -5.939 0.868
C -29.849 -5.172 1.409
C -31.164 -5.921 -0.662
C -31.14 -5.93 0.903
C -29.888 -5.156 -1.194
C -28.542 -5.955 3.451
C -31.102 -5.945 3.486
C -29.826 -5.182 2.975
C -28.64 -5.915 -3.28
C -29.911 -5.146 -2.76
C -31.202 -5.906 -3.245
C -28.596 -2.877 -1.196
C -28.558 -2.896 1.407
C -28.535 -2.908 2.973
C -28.619 -2.866 -2.762
C -24.75 -3.661 -0.735
C -24.725 -3.671 0.83
C -27.326 -5.165 -1.229
C -27.288 -5.181 1.374
C -25.996 -2.905 1.372
C -27.311 -3.652 -0.7
C -27.288 -3.662 0.865
C -26.035 -2.886 -1.23
C -24.687 -3.69 3.413
C -27.265 -5.192 2.94
C -27.251 -3.681 3.448
C -25.973 -2.917 2.938
C -24.788 -3.644 -3.317
C -27.349 -5.156 -2.795
C -26.058 -2.875 -2.797
C -27.349 -3.634 -3.282
C -23.479 -5.949 -0.768
C -23.454 -5.958 0.797
C -24.725 -5.191 1.339
C -26.041 -5.94 -0.732
C -26.017 -5.948 0.833
C -24.764 -5.175 -1.263
C -23.415 -5.974 3.379
C -25.98 -5.964 3.416
C -24.701 -5.201 2.905
C -23.519 -5.934 -3.35
C -24.788 -5.165 -2.83
C -26.079 -5.925 -3.314
C -23.473 -2.896 -1.266
C -23.433 -2.914 1.336
C -23.408 -2.926 2.903
C -23.498 -2.884 -2.832
C -22.203 -5.185 -1.3
C -22.161 -5.2 1.302
C -20.868 -2.923 1.298
C -22.187 -3.671 -0.772
C -22.162 -3.681 0.793
C -20.911 -2.905 -1.304
C -22.136 -5.211 2.868
C -22.121 -3.699 3.375
C -20.842 -2.936 2.864
C -22.228 -5.175 -2.867
C -20.938 -2.894 -2.87
C -22.228 -3.653 -3.354
C -20.916 -5.959 -0.806
C -20.89 -5.968 0.759
C -20.848 -5.984 3.341
C -20.959 -5.944 -3.388
C -59.317 -2.768 -0.696
C -59.311 -2.801 1.911
C -59.307 -2.824 3.477
C -59.319 -2.744 -2.262
C -55.471 -3.551 -0.219
C -55.455 -3.567 1.346
C -58.041 -5.026 -0.733
C -58.028 -5.053 1.873
C -56.733 -2.815 1.892
C -58.035 -3.534 -0.193
C -58.028 -3.551 1.372
C -56.754 -2.783 -0.715
C -55.428 -3.598 3.933
C -58.019 -5.072 3.44
C -58.013 -3.584 3.959
C -56.721 -2.836 3.458
C -55.498 -3.52 -2.807
C -58.049 -5.006 -2.3
C -56.766 -2.761 -2.282
C -58.049 -3.501 -2.782
C -54.199 -5.816 -0.261
C -54.181 -5.829 1.304
C -55.456 -5.072 1.849
C -56.761 -5.795 -0.232
C -56.749 -5.809 1.333
C -55.481 -5.045 -0.758
C -54.151 -5.855 3.891
C -56.728 -5.836 3.92
C -55.44 -5.09 3.416
C -54.23 -5.79 -2.849
C -55.497 -5.027 -2.324
C -56.781 -5.768 -2.82
C -64.455 -2.735 -0.713
C -64.494 -2.767 1.892
C -64.508 -2.787 3.458
C -64.426 -2.707 -2.279
C -60.603 -3.516 -0.182
C -60.605 -3.533 1.382
C -63.168 -4.983 -0.731
C -63.187 -5.009 1.876
C -61.897 -2.785 1.912
C -63.175 -3.497 -0.19
C -63.19 -3.513 1.374
C -61.884 -2.751 -0.693
C -60.606 -3.566 3.969
C -63.19 -5.023 3.443
C -63.207 -3.542 3.96
C -61.903 -2.807 3.478
C -60.599 -3.481 -2.771
C -63.15 -4.96 -2.297
C -61.873 -2.726 -2.259
C -63.147 -3.46 -2.779
C -59.324 -5.773 -0.214
C -59.32 -5.786 1.35
C -60.605 -5.032 1.883
C -61.89 -5.75 -0.212
C -61.896 -5.762 1.352
C -60.603 -5.005 -0.723
C -59.311 -5.813 3.937
C -61.897 -5.785 3.94
C -60.603 -5.049 3.449
C -59.329 -5.745 -2.803
C -60.6 -4.984 -2.289
C -61.876 -5.719 -2.802
C -69.585 -2.714 -0.887
C -69.687 -2.747 1.797
C -69.724 -2.761 3.352
C -69.509 -2.685 -2.441
C -65.753 -3.48 -0.223
C -65.783 -3.494 1.343
C -68.278 -4.938 -0.856
C -68.332 -4.972 1.841
C -67.1 -2.751 1.846
C -68.332 -3.471 -0.292
C -68.379 -3.49 1.288
C -67.032 -2.722 -0.765
C -65.815 -3.514 3.933
C -68.342 -4.976 3.4
C -68.422 -3.495 3.899
C -67.124 -2.766 3.417
C -65.69 -3.439 -2.817
C -68.226 -4.908 -2.414
C -66.978 -2.691 -2.336
C -68.225 -3.425 -2.907
C -64.459 -5.727 -0.229
C -64.475 -5.739 1.337
C -65.773 -4.989 1.852
C -67.031 -5.711 -0.274
C -67.055 -5.727 1.308
C -65.735 -4.964 -0.764
C -64.483 -5.753 3.931
C -67.063 -5.728 3.927
C -65.779 -4.997 3.426
C -64.417 -5.693 -2.826
C -65.698 -4.937 -2.337
C -66.956 -5.668 -2.894
H -34.911 -3.662 4.648
H -37.465 -3.655 4.691
H -35.053 -3.599 -4.263
H -37.618 -3.591 -4.222
H -33.645 -5.941 4.614
H -36.2 -5.933 4.654
H -33.782 -5.888 -4.298
H -36.346 -5.879 -4.258
H -29.798 -3.677 4.573
H -32.356 -3.669 4.609
H -29.926 -3.616 -4.337
H -32.489 -3.607 -4.302
H -28.528 -5.959 4.541
H -31.088 -5.95 4.576
H -28.656 -5.907 -4.369
H -31.219 -5.897 -4.334
H -24.672 -3.695 4.502
H -27.237 -3.686 4.538
H -24.804 -3.634 -4.407
H -27.364 -3.625 -4.372
H -23.4 -5.979 4.469
H -25.966 -5.969 4.505
H -23.535 -5.926 -4.44
H -26.095 -5.916 -4.404
H -22.105 -3.705 4.465
H -22.245 -3.643 -4.443
H -20.831 -5.988 4.43
H -63.215 -3.556 5.05
H -63.137 -3.445 -3.869
H -65.83 -3.521 5.023
H -68.455 -3.495 4.989
H -65.664 -3.422 -3.907
H -68.19 -3.415 -3.997
H -64.489 -5.758 5.021
H -67.081 -5.73 5.017
H -41.472 -5.858 -4.168
H -55.512 -3.506 -3.897
H -54.245 -5.778 -3.939
H -42.743 -3.574 -4.127
H -44.033 -5.846 -4.119
H -56.791 -5.756 -3.911
H -45.303 -3.564 -4.077
H -46.59 -5.832 -4.07
H -58.057 -3.486 -3.872
H -59.334 -5.732 -3.894
H -47.86 -3.552 -4.026
H -60.6 -3.466 -3.861
H -49.145 -5.817 -4.022
H -50.413 -3.539 -3.977
H -51.697 -5.799 -3.977
H -40.181 -3.583 -4.176
H -38.91 -5.869 -4.215
H -52.964 -3.523 -3.933
H -47.694 -3.634 4.89
H -50.261 -3.628 4.94
H -38.755 -5.925 4.698
H -61.899 -5.795 5.03
H -52.834 -3.621 4.986
H -41.31 -5.917 4.745
H -51.561 -5.88 4.941
H -54.137 -5.866 4.98
H -58.005 -3.598 5.049
H -56.719 -5.848 5.01
H -42.575 -3.644 4.786
H -45.132 -3.639 4.838
H -60.605 -3.581 5.059
H -46.427 -5.901 4.846
H -48.991 -5.891 4.895
H -40.019 -3.649 4.737
H -55.415 -3.611 5.023
H -43.867 -5.909 4.795
H -59.307 -5.825 5.027
C 7.293 -2.979 -2.003
C 7.363 -2.99 0.598
C 7.406 -2.996 2.164
C 7.251 -2.973 -3.569
C 11.153 -3.748 -1.592
C 11.193 -3.754 -0.027
C 8.566 -5.263 -2.046
C 8.635 -5.271 0.555
C 9.927 -2.99 0.528
C 8.587 -3.748 -1.523
C 8.629 -3.754 0.042
C 9.859 -2.981 -2.073
C 11.259 -3.762 2.555
C 8.676 -5.276 2.121
C 8.698 -3.763 2.623
C 9.968 -2.996 2.094
C 11.087 -3.741 -4.172
C 8.525 -5.258 -3.612
C 9.818 -2.975 -3.639
C 8.519 -3.739 -4.104
C 12.426 -6.03 -1.63
C 12.464 -6.034 -0.066
C 11.198 -5.271 0.487
C 9.86 -6.03 -1.564
C 9.9 -6.035 0.001
C 11.132 -5.263 -2.114
C 12.528 -6.041 2.517
C 9.967 -6.042 2.583
C 11.238 -5.275 2.054
C 12.362 -6.024 -4.211
C 11.093 -5.259 -3.68
C 9.794 -6.024 -4.145
C 12.425 -2.981 -2.141
C 12.49 -2.99 0.461
C 12.529 -2.995 2.027
C 12.386 -2.976 -3.707
C 16.284 -3.747 -1.718
C 16.319 -3.752 -0.153
C 13.698 -5.263 -2.179
C 13.761 -5.269 0.423
C 15.052 -2.989 0.397
C 13.718 -3.748 -1.657
C 13.756 -3.753 -0.092
C 14.991 -2.981 -2.204
C 16.377 -3.759 2.429
C 13.798 -5.274 1.989
C 13.819 -3.761 2.49
C 15.089 -2.993 1.963
C 16.226 -3.741 -4.299
C 13.661 -5.26 -3.745
C 14.955 -2.977 -3.771
C 13.656 -3.741 -4.238
C 17.556 -6.027 -1.751
C 17.59 -6.03 -0.186
C 16.323 -5.268 0.362
C 14.991 -6.029 -1.693
C 15.027 -6.033 -0.128
C 16.264 -5.262 -2.239
C 17.645 -6.036 2.397
C 15.087 -6.038 2.455
C 16.358 -5.271 1.929
C 17.501 -6.023 -4.332
C 16.23 -5.259 -3.806
C 14.932 -6.024 -4.274
C 17.558 -2.98 -2.264
C 17.614 -2.987 0.338
C 17.648 -2.991 1.904
C 17.524 -2.977 -3.83
C 21.415 -3.744 -1.826
C 21.444 -3.748 -0.261
C 18.831 -5.26 -2.296
C 18.884 -5.265 0.306
C 20.176 -2.986 0.284
C 18.849 -3.746 -1.775
C 18.882 -3.75 -0.21
C 20.124 -2.979 -2.318
C 21.493 -3.754 2.322
C 18.916 -5.269 1.873
C 18.935 -3.756 2.373
C 20.207 -2.989 1.851
C 21.366 -3.739 -4.408
C 18.799 -5.258 -3.862
C 20.093 -2.976 -3.884
C 18.796 -3.74 -4.356
C 22.686 -6.022 -1.853
C 22.714 -6.025 -0.288
C 21.445 -5.263 0.256
C 20.121 -6.025 -1.804
C 20.152 -6.028 -0.239
C 21.397 -5.258 -2.347
C 22.76 -6.029 2.296
C 20.203 -6.032 2.344
C 21.475 -5.266 1.822
C 22.641 -6.019 -4.435
C 21.368 -5.256 -3.913
C 20.071 -6.021 -4.386
C 22.691 -2.978 -2.367
C 22.737 -2.984 0.235
C 22.765 -2.987 1.802
C 22.663 -2.975 -3.933
C 26.546 -3.74 -1.913
C 26.569 -3.744 -0.348
C 23.963 -5.256 -2.393
C 24.006 -5.26 0.21
C 25.298 -2.982 0.192
C 23.98 -3.742 -1.872
C 24.006 -3.746 -0.307
C 25.257 -2.976 -2.41
C 26.607 -3.749 2.237
C 24.032 -5.263 1.776
C 24.05 -3.751 2.277
C 25.323 -2.986 1.759
C 26.508 -3.736 -4.495
C 23.937 -5.254 -3.959
C 25.233 -2.973 -3.977
C 23.937 -3.738 -4.454
C 27.816 -6.016 -1.934
C 27.838 -6.018 -0.369
C 26.567 -5.257 0.17
C 25.251 -6.019 -1.896
C 25.276 -6.022 -0.331
C 26.529 -5.253 -2.433
C 27.874 -6.022 2.216
C 25.317 -6.026 2.253
C 26.59 -5.26 1.736
C 27.781 -6.013 -4.516
C 26.506 -5.251 -4
C 25.211 -6.016 -4.478
C 27.824 -2.975 -2.449
C 27.86 -2.981 0.154
C 27.881 -2.985 1.721
C 27.803 -2.972 -4.015
C 31.678 -3.737 -1.978
C 31.695 -3.741 -0.413
C 29.096 -5.25 -2.469
C 29.128 -5.255 0.134
C 30.422 -2.981 0.122
C 29.112 -3.739 -1.948
C 29.131 -3.742 -0.383
C 30.392 -2.974 -2.481
C 31.722 -3.747 2.172
C 29.149 -5.257 1.701
C 29.164 -3.748 2.202
C 30.44 -2.984 1.689
C 31.652 -3.732 -4.561
C 29.076 -5.248 -4.035
C 30.374 -2.971 -4.048
C 29.079 -3.734 -4.531
C 32.948 -6.009 -1.994
C 32.963 -6.012 -0.429
C 31.69 -5.252 0.104
C 30.382 -6.012 -1.967
C 30.4 -6.015 -0.401
C 31.663 -5.248 -2.499
C 32.989 -6.016 2.156
C 30.431 -6.019 2.184
C 31.707 -5.255 1.671
C 32.923 -6.005 -4.578
C 31.646 -5.245 -4.066
C 30.352 -6.009 -4.549
C 32.961 -2.974 -2.509
C 32.985 -2.981 0.095
C 33 -2.985 1.661
C 32.946 -2.971 -4.076
C 36.816 -3.736 -2.023
C 36.825 -3.741 -0.458
C 34.231 -5.245 -2.525
C 34.253 -5.25 0.079
C 35.549 -2.982 0.073
C 34.246 -3.736 -2.003
C 34.259 -3.741 -0.438
C 35.531 -2.974 -2.531
C 36.841 -3.748 2.128
C 34.267 -5.253 1.646
C 34.281 -3.747 2.147
C 35.561 -2.986 1.639
C 36.8 -3.729 -4.606
C 34.217 -5.242 -4.091
C 35.52 -2.97 -4.098
C 34.225 -3.73 -4.586
C 38.084 -6.002 -2.035
C 38.092 -6.006 -0.47
C 36.817 -5.249 0.059
C 35.516 -6.005 -2.018
C 35.527 -6.009 -0.452
C 36.8 -5.243 -2.545
C 38.106 -6.012 2.116
C 35.547 -6.014 2.134
C 36.827 -5.253 1.626
C 38.071 -5.996 -4.619
C 36.79 -5.24 -4.112
C 35.496 -6.001 -4.601
C 38.103 -2.975 -2.548
C 38.115 -2.984 0.056
C 38.123 -2.989 1.623
C 38.096 -2.971 -4.115
C 39.372 -5.241 -2.56
C 39.382 -5.248 0.044
C 40.683 -2.987 0.046
C 39.388 -3.736 -2.037
C 39.393 -3.742 -0.472
C 40.678 -2.978 -2.559
C 39.388 -5.253 1.611
C 39.402 -3.75 2.114
C 40.686 -2.993 1.613
C 39.366 -5.237 -4.127
C 40.675 -2.972 -4.125
C 39.379 -3.728 -4.621
C 40.655 -5.999 -2.047
C 40.659 -6.004 -0.482
C 40.666 -6.011 2.104
C 40.648 -5.992 -4.632
C 2.161 -2.974 -1.856
C 2.234 -2.986 0.744
C 2.277 -2.995 2.31
C 2.118 -2.966 -3.422
C 6.022 -3.746 -1.452
C 6.064 -3.753 0.113
C 3.435 -5.259 -1.903
C 3.506 -5.269 0.698
C 4.799 -2.989 0.671
C 3.456 -3.744 -1.379
C 3.499 -3.751 0.186
C 4.727 -2.977 -1.93
C 6.135 -3.763 2.694
C 3.549 -5.276 2.264
C 3.571 -3.763 2.767
C 4.842 -2.996 2.237
C 5.951 -3.737 -4.032
C 3.392 -5.253 -3.469
C 4.684 -2.97 -3.496
C 3.384 -3.733 -3.959
C 7.295 -6.029 -1.495
C 7.336 -6.034 0.07
C 6.071 -5.27 0.626
C 4.729 -6.028 -1.424
C 4.772 -6.033 0.141
C 6 -5.261 -1.975
C 7.406 -6.043 2.652
C 4.842 -6.043 2.722
C 6.113 -5.276 2.192
C 7.226 -6.022 -4.076
C 5.958 -5.256 -3.541
C 4.659 -6.02 -4.004
C -2.969 -2.964 -1.709
C -2.898 -2.979 0.892
C -2.856 -2.988 2.458
C -3.012 -2.955 -3.275
C 0.89 -3.741 -1.305
C 0.934 -3.748 0.26
C -1.696 -5.251 -1.757
C -1.625 -5.263 0.844
C -0.332 -2.983 0.818
C -1.675 -3.736 -1.232
C -1.632 -3.744 0.333
C -0.404 -2.97 -1.782
C 1.006 -3.761 2.841
C -1.583 -5.271 2.41
C -1.561 -3.758 2.914
C -0.289 -2.992 2.384
C 0.818 -3.729 -3.886
C -1.738 -5.244 -3.323
C -0.447 -2.961 -3.348
C -1.746 -3.723 -3.812
C 2.164 -6.025 -1.351
C 2.206 -6.031 0.213
C 0.941 -5.266 0.771
C -0.402 -6.021 -1.279
C -0.359 -6.028 0.286
C 0.869 -5.255 -1.83
C 2.278 -6.041 2.795
C -0.288 -6.039 2.867
C 0.984 -5.274 2.337
C 2.093 -6.016 -3.932
C 0.826 -5.249 -3.396
C -0.473 -6.011 -3.859
C -8.098 -2.951 -1.57
C -8.033 -2.967 1.031
C -7.994 -2.978 2.597
C -8.137 -2.94 -3.136
C -4.24 -3.731 -1.16
C -4.199 -3.739 0.405
C -6.825 -5.238 -1.617
C -6.759 -5.252 0.984
C -5.465 -2.973 0.963
C -6.805 -3.724 -1.09
C -6.765 -3.733 0.475
C -5.534 -2.958 -1.638
C -4.129 -3.754 2.986
C -6.719 -5.261 2.55
C -6.699 -3.749 3.055
C -5.424 -2.984 2.529
C -4.31 -3.716 -3.74
C -6.865 -5.23 -3.183
C -5.575 -2.948 -3.204
C -6.872 -3.709 -3.671
C -2.967 -6.017 -1.207
C -2.926 -6.023 0.358
C -4.192 -5.258 0.915
C -5.532 -6.011 -1.137
C -5.492 -6.018 0.428
C -4.261 -5.245 -1.686
C -2.856 -6.036 2.939
C -5.425 -6.031 3.009
C -4.151 -5.266 2.481
C -3.037 -6.005 -3.788
C -4.302 -5.237 -3.252
C -5.6 -5.999 -3.718
C -13.224 -2.934 -1.447
C -13.168 -2.951 1.154
C -13.134 -2.963 2.72
C -13.258 -2.923 -3.014
C -9.37 -3.717 -1.024
C -9.332 -3.725 0.54
C -11.953 -5.222 -1.491
C -11.894 -5.237 1.11
C -10.6 -2.959 1.095
C -11.934 -3.708 -0.963
C -11.899 -3.717 0.602
C -10.661 -2.943 -1.506
C -9.269 -3.742 3.121
C -11.859 -5.247 2.676
C -11.841 -3.735 3.182
C -10.564 -2.971 2.661
C -9.433 -3.701 -3.606
C -11.988 -5.213 -3.057
C -10.698 -2.932 -3.072
C -11.993 -3.692 -3.545
C -8.097 -6.004 -1.07
C -8.059 -6.011 0.495
C -9.327 -5.245 1.049
C -10.662 -5.996 -1.007
C -10.626 -6.004 0.558
C -9.389 -5.231 -1.552
C -7.995 -6.025 3.076
C -10.566 -6.018 3.139
C -9.289 -5.255 2.615
C -8.161 -5.991 -3.651
C -9.427 -5.222 -3.118
C -10.722 -5.982 -3.588
C -18.349 -2.915 -1.347
C -18.302 -2.933 1.255
C -18.274 -2.945 2.821
C -18.378 -2.903 -2.913
C -14.498 -3.699 -0.907
C -14.466 -3.709 0.658
C -17.078 -5.204 -1.385
C -17.029 -5.22 1.216
C -15.735 -2.942 1.207
C -17.062 -3.69 -0.857
C -17.032 -3.7 0.708
C -15.787 -2.924 -1.394
C -14.412 -3.727 3.239
C -16.999 -5.23 2.782
C -16.983 -3.718 3.289
C -15.704 -2.954 2.773
C -14.552 -3.682 -3.489
C -17.108 -5.194 -2.952
C -15.818 -2.913 -2.96
C -17.111 -3.673 -3.439
C -13.226 -5.988 -0.949
C -13.192 -5.995 0.616
C -14.462 -5.229 1.166
C -15.79 -5.978 -0.896
C -15.759 -5.987 0.669
C -14.516 -5.213 -1.435
C -13.137 -6.011 3.197
C -15.708 -6.002 3.25
C -14.43 -5.239 2.732
C -13.282 -5.973 -3.53
C -14.548 -5.204 -3.002
C -15.841 -5.964 -3.478
C -19.625 -3.68 -0.812
C -19.597 -3.69 0.753
C -19.553 -3.709 3.335
C -19.669 -3.663 -3.394
C -18.353 -5.969 -0.849
C -18.325 -5.977 0.716
C -19.595 -5.21 1.261
C -19.641 -5.194 -1.341
C -18.279 -5.993 3.298
C -19.568 -5.221 2.827
C -18.4 -5.954 -3.431
C -19.668 -5.184 -2.907
H 26.623 -3.749 3.326
H 24.068 -3.752 3.367
H 26.492 -3.732 -5.585
H 23.919 -3.734 -5.544
H 27.889 -6.022 3.306
H 25.334 -6.025 3.343
H 27.766 -6.01 -5.606
H 25.194 -6.013 -5.568
H 31.734 -3.747 3.262
H 29.178 -3.748 3.292
H 31.64 -3.729 -5.651
H 29.066 -3.731 -5.62
H 32.999 -6.016 3.246
H 30.444 -6.019 3.274
H 32.913 -6.002 -5.668
H 30.339 -6.006 -5.639
H 36.849 -3.749 3.218
H 34.291 -3.747 3.237
H 36.793 -3.725 -5.696
H 34.216 -3.727 -5.676
H 38.112 -6.013 3.206
H 35.556 -6.014 3.224
H 38.064 -5.993 -5.709
H 35.487 -5.998 -5.691
H 39.407 -3.751 3.204
H 39.374 -3.724 -5.711
H 40.67 -6.013 3.195
H 40.644 -5.988 -5.722
H -1.53 -3.762 4.003
H -1.777 -3.716 -4.902
H -4.099 -3.758 4.075
H -6.67 -3.754 4.145
H -4.34 -3.709 -4.83
H -6.9 -3.701 -4.761
H -2.826 -6.039 4.028
H -5.396 -6.035 4.098
H -3.067 -5.999 -4.877
H -5.629 -5.992 -4.807
H -9.243 -3.748 4.211
H -11.816 -3.74 4.272
H -9.46 -3.692 -4.695
H -12.018 -3.683 -4.634
H -7.967 -6.029 4.165
H -10.54 -6.023 4.228
H -8.189 -5.984 -4.74
H -10.748 -5.975 -4.678
H -14.39 -3.732 4.328
H -16.963 -3.724 4.379
H -14.575 -3.673 -4.579
H -17.131 -3.663 -4.528
H -13.114 -6.015 4.287
H -15.687 -6.007 4.34
H -13.306 -5.966 -4.62
H -15.863 -5.956 -4.568
H -19.535 -3.715 4.424
H -19.688 -3.653 -4.484
H -18.26 -5.998 4.387
H -18.419 -5.946 -4.52
H 20.049 -6.018 -5.476
H 5.921 -3.731 -5.122
H 7.196 -6.018 -5.165
H 18.773 -3.737 -5.446
H 17.478 -6.02 -5.422
H 4.628 -6.015 -5.094
H 16.201 -3.737 -5.389
H 14.906 -6.021 -5.364
H 3.353 -3.727 -5.049
H 2.062 -6.01 -5.021
H 13.63 -3.737 -5.327
H 0.787 -3.722 -4.975
H 12.335 -6.021 -5.301
H -0.503 -6.005 -4.949
H 11.059 -3.736 -5.262
H 9.765 -6.02 -5.234
H 21.346 -3.736 -5.497
H 22.622 -6.016 -5.524
H 8.489 -3.734 -5.193
H 13.846 -3.762 3.58
H 11.287 -3.764 3.645
H 22.779 -6.029 3.386
H -0.258 -6.042 3.957
H 8.728 -3.765 3.713
H 20.225 -6.032 3.434
H 9.996 -6.043 3.672
H 7.435 -6.045 3.741
H 3.603 -3.766 3.856
H 4.873 -6.045 3.812
H 18.959 -3.757 3.463
H 16.403 -3.76 3.519
H 1.037 -3.765 3.93
H 15.113 -6.039 3.544
H 12.555 -6.042 3.606
H 21.514 -3.754 3.412
H 6.166 -3.766 3.784
H 17.669 -6.036 3.487
H 2.309 -6.044 3.884
C 41.963 -3.737 -2.044
C 41.963 -3.744 -0.479
C 41.965 -3.753 2.107
C 41.961 -3.727 -4.628
C 43.229 -5.996 -2.053
C 43.227 -6.003 -0.487
C 41.949 -5.249 0.036
C 41.946 -5.239 -2.568
C 43.227 -6.012 2.1
C 41.951 -5.254 1.603
C 43.229 -5.986 -4.637
C 41.944 -5.234 -4.135
C 43.258 -2.981 -2.561
C 43.254 -2.993 0.043
C 43.253 -2.999 1.61
C 43.26 -2.975 -4.128
C 44.524 -5.238 -2.569
C 44.518 -5.25 0.036
C 45.829 -2.999 0.05
C 44.542 -3.739 -2.043
C 44.537 -3.747 -0.478
C 45.843 -2.985 -2.554
C 44.515 -5.256 1.603
C 44.53 -3.758 2.109
C 45.822 -3.007 1.616
C 44.527 -5.232 -4.136
C 45.851 -2.978 -4.121
C 44.55 -3.727 -4.627
C 45.805 -5.994 -2.049
C 45.798 -6.003 -0.484
C 45.79 -6.015 2.103
C 45.814 -5.981 -4.634
H 41.967 -3.756 3.197
H 41.96 -3.723 -5.718
H 43.227 -6.015 3.19
H 43.228 -5.982 -5.727
H 44.528 -3.762 3.199
H 44.552 -3.721 -5.717
H 45.785 -6.019 3.193
H 45.817 -5.976 -5.724
C 47.127 -3.741 -2.032
C 47.115 -3.752 -0.467
C 47.098 -3.766 2.12
C 47.145 -3.726 -4.615
C 48.385 -5.993 -2.035
C 48.372 -6.004 -0.471
C 47.09 -5.253 0.045
C 47.106 -5.238 -2.559
C 48.353 -6.02 2.117
C 47.081 -5.261 1.612
C 48.403 -5.976 -4.62
C 47.114 -5.229 -4.126
C 48.436 -2.991 -2.536
C 48.41 -3.008 0.068
C 48.396 -3.017 1.634
C 48.45 -2.982 -4.102
C 49.692 -5.239 -2.538
C 49.665 -5.259 0.066
C 50.999 -3.02 0.099
C 49.719 -3.745 -2.008
C 49.7 -3.759 -0.443
C 51.038 -2.998 -2.502
C 49.649 -5.269 1.632
C 49.671 -3.776 2.142
C 50.976 -3.03 1.665
C 49.706 -5.227 -4.105
C 51.059 -2.986 -4.068
C 49.749 -3.726 -4.59
C 50.967 -5.995 -2.01
C 50.948 -6.01 -0.446
C 50.916 -6.03 2.141
C 50.995 -5.971 -4.594
H 47.091 -3.771 3.21
H 47.152 -3.72 -5.705
H 48.344 -6.026 3.207
H 48.411 -5.968 -5.71
H 49.658 -3.784 3.232
H 49.762 -3.718 -5.68
H 50.902 -6.038 3.231
H 51.008 -5.96 -5.684
C 52.321 -3.753 -1.969
C 52.293 -3.769 -0.405
C 52.249 -3.791 2.178
C 52.362 -3.726 -4.55
C 53.55 -6.006 -1.972
C 53.524 -6.024 -0.408
C 52.243 -5.27 0.099
C 52.282 -5.244 -2.503
C 53.477 -6.047 2.178
C 52.219 -5.282 1.664
C 53.583 -5.971 -4.556
C 52.3 -5.227 -4.069
C 53.653 -3.008 -2.451
C 53.599 -3.036 0.146
C 53.566 -3.049 1.711
C 53.68 -2.991 -4.016
C 54.872 -5.26 -2.456
C 54.822 -5.292 0.145
C 56.214 -3.062 0.212
C 54.932 -3.767 -1.914
C 54.896 -3.787 -0.351
C 56.283 -3.028 -2.383
C 54.786 -5.305 1.71
C 54.833 -3.814 2.229
C 56.167 -3.076 1.775
C 54.891 -5.235 -4.022
C 56.311 -3.002 -3.945
C 54.981 -3.729 -4.491
C 56.124 -6.041 -1.925
C 56.094 -6.06 -0.359
C 56.025 -6.085 2.234
C 56.153 -5.992 -4.517
H 52.229 -3.801 3.268
H 52.382 -3.715 -5.639
H 53.455 -6.058 3.268
H 53.6 -5.955 -5.646
H 54.805 -3.827 3.318
H 55.006 -3.71 -5.581
H 55.992 -6.096 3.324
H 56.166 -5.967 -5.607
C 57.545 -3.809 -1.852
C 57.504 -3.828 -0.278
C 57.416 -3.859 2.3
C 57.586 -3.752 -4.43
C 58.671 -6.151 -1.884
C 58.639 -6.169 -0.298
C 57.393 -5.349 0.208
C 57.449 -5.314 -2.408
C 58.541 -6.189 2.332
C 57.342 -5.362 1.781
C 58.682 -6.095 -4.511
C 57.463 -5.28 -3.983
C 58.923 -3.102 -2.323
C 58.848 -3.136 0.305
C 58.786 -3.151 1.881
C 58.955 -3.069 -3.9
C 59.957 -5.466 -2.416
C 59.9 -5.502 0.315
C 60.048 -4.043 -1.8
C 60.012 -4.062 -0.246
C 59.84 -5.511 1.879
C 59.912 -4.08 2.458
C 59.97 -5.434 -3.981
C 60.062 -3.989 -4.527
H 57.366 -3.875 3.389
H 57.592 -3.721 -5.519
H 58.508 -6.21 3.422
H 58.692 -6.079 -5.602
H 59.877 -4.098 3.547
H 59.963 -3.996 -5.612
H -61.871 -5.707 -3.892
H -20.977 -5.936 -4.478
H -64.4 -5.68 -3.916
H -66.933 -5.661 -3.984
H 60.829 -6.044 -2.111
H 60.787 -6.07 0.032
H 61.004 -3.697 -2.133
H 60.975 -3.743 0.079
H 61.057 -3.648 -4.356
H 60.687 -6.081 2.269
H 60.888 -3.754 2.183
H 60.831 -5.996 -4.348
C -54.211 -7.313 -0.797
C -54.181 -7.334 1.81
C -54.163 -7.349 3.376
C -54.228 -7.298 -2.364
C -50.37 -8.105 -0.341
C -50.347 -8.116 1.224
C -52.942 -9.584 -0.833
C -52.908 -9.601 1.774
C -51.616 -7.353 1.772
C -52.929 -8.085 -0.3
C -52.909 -8.096 1.265
C -51.653 -7.333 -0.834
C -50.307 -8.136 3.811
C -52.888 -9.613 3.34
C -52.875 -8.117 3.851
C -51.594 -7.367 3.338
C -50.411 -8.087 -2.928
C -52.961 -9.573 -2.399
C -51.675 -7.32 -2.401
C -52.963 -8.065 -2.888
C -49.102 -10.38 -0.378
C -49.078 -10.389 1.187
C -50.346 -9.623 1.734
C -51.66 -10.358 -0.336
C -51.639 -10.366 1.229
C -50.385 -9.607 -0.872
C -49.037 -10.404 3.774
C -51.602 -10.383 3.816
C -50.322 -9.635 3.301
C -49.144 -10.366 -2.964
C -50.408 -9.597 -2.439
C -51.697 -10.342 -2.923
C -49.096 -7.351 -0.878
C -49.053 -7.37 1.728
C -49.028 -7.383 3.294
C -49.121 -7.339 -2.445
C -45.253 -8.138 -0.435
C -45.226 -8.148 1.13
C -47.827 -9.627 -0.916
C -47.785 -9.642 1.689
C -46.493 -7.384 1.68
C -47.812 -8.123 -0.387
C -47.786 -8.133 1.178
C -46.538 -7.366 -0.926
C -45.181 -8.165 3.716
C -47.759 -9.653 3.256
C -47.742 -8.151 3.764
C -46.466 -7.396 3.246
C -45.3 -8.123 -3.02
C -47.853 -9.618 -2.483
C -46.565 -7.355 -2.492
C -47.856 -8.106 -2.973
C -43.985 -10.417 -0.471
C -43.958 -10.425 1.094
C -45.225 -9.659 1.642
C -46.544 -10.4 -0.424
C -46.518 -10.408 1.141
C -45.27 -9.645 -0.963
C -43.914 -10.438 3.68
C -46.474 -10.423 3.727
C -45.198 -9.668 3.208
C -44.031 -10.405 -3.056
C -45.297 -9.636 -2.53
C -46.588 -10.387 -3.009
C -43.98 -7.38 -0.974
C -43.933 -7.396 1.63
C -43.906 -7.407 3.196
C -44.008 -7.37 -2.541
C -40.136 -8.164 -0.531
C -40.109 -8.173 1.034
C -42.711 -9.66 -1.011
C -42.666 -9.673 1.593
C -41.375 -7.407 1.581
C -42.695 -8.152 -0.484
C -42.667 -8.161 1.081
C -41.421 -7.392 -1.023
C -40.064 -8.187 3.619
C -42.639 -9.682 3.16
C -42.621 -8.177 3.667
C -41.348 -7.417 3.148
C -40.181 -8.151 -3.115
C -42.739 -9.652 -2.578
C -41.449 -7.383 -2.589
C -42.741 -8.138 -3.068
C -38.867 -10.446 -0.564
C -38.841 -10.453 1.001
C -40.108 -9.686 1.546
C -41.427 -10.432 -0.518
C -41.4 -10.44 1.047
C -40.152 -9.674 -1.058
C -38.798 -10.465 3.586
C -41.355 -10.452 3.632
C -40.081 -9.694 3.113
C -38.911 -10.436 -3.148
C -40.179 -9.667 -2.624
C -41.472 -10.421 -3.103
C -38.861 -7.403 -1.069
C -38.817 -7.418 1.535
C -38.79 -7.427 3.101
C -38.888 -7.395 -2.636
C -35.016 -8.186 -0.617
C -34.991 -8.194 0.948
C -37.592 -9.686 -1.102
C -37.549 -9.698 1.502
C -36.259 -7.428 1.491
C -37.576 -8.175 -0.576
C -37.55 -8.184 0.989
C -36.301 -7.413 -1.112
C -34.951 -8.207 3.532
C -37.524 -9.706 3.068
C -37.507 -8.198 3.574
C -36.233 -7.437 3.058
C -35.057 -8.174 -3.201
C -37.618 -9.68 -2.668
C -36.327 -7.405 -2.679
C -37.62 -8.163 -3.159
C -33.747 -10.47 -0.646
C -33.722 -10.477 0.919
C -34.991 -9.709 1.46
C -36.307 -10.459 -0.607
C -36.282 -10.465 0.958
C -35.032 -9.698 -1.143
C -33.683 -10.487 3.503
C -36.241 -10.476 3.543
C -34.966 -9.717 3.027
C -33.787 -10.461 -3.23
C -35.057 -9.691 -2.71
C -36.349 -10.449 -3.19
C -33.74 -7.423 -1.152
C -33.7 -7.437 1.451
C -33.676 -7.446 3.017
C -33.765 -7.415 -2.719
C -29.894 -8.207 -0.692
C -29.871 -8.214 0.873
C -32.471 -9.709 -1.181
C -32.431 -9.72 1.422
C -31.14 -7.447 1.414
C -32.456 -8.196 -0.656
C -32.431 -8.204 0.909
C -31.179 -7.433 -1.189
C -29.834 -8.227 3.457
C -32.408 -9.727 2.988
C -32.393 -8.217 3.493
C -31.117 -7.456 2.98
C -29.932 -8.194 -3.275
C -32.495 -9.703 -2.748
C -31.203 -7.425 -2.756
C -32.495 -8.184 -3.239
C -28.624 -10.493 -0.719
C -28.601 -10.498 0.846
C -29.871 -9.731 1.386
C -31.186 -10.482 -0.684
C -31.162 -10.488 0.882
C -29.909 -9.72 -1.217
C -28.564 -10.509 3.43
C -31.125 -10.498 3.465
C -29.848 -9.738 2.952
C -28.662 -10.483 -3.302
C -29.932 -9.713 -2.784
C -31.224 -10.472 -3.266
C -28.618 -7.443 -1.224
C -28.579 -7.457 1.378
C -28.557 -7.465 2.945
C -28.641 -7.435 -2.791
C -24.771 -8.227 -0.762
C -24.747 -8.234 0.803
C -27.347 -9.73 -1.252
C -27.309 -9.741 1.35
C -26.017 -7.467 1.343
C -27.333 -8.217 -0.727
C -27.309 -8.224 0.838
C -26.056 -7.453 -1.259
C -24.708 -8.247 3.386
C -27.286 -9.748 2.917
C -27.272 -8.237 3.421
C -25.994 -7.475 2.91
C -24.809 -8.215 -3.344
C -27.371 -9.724 -2.819
C -26.079 -7.445 -2.826
C -27.371 -8.205 -3.309
C -23.5 -10.514 -0.79
C -23.475 -10.519 0.775
C -24.746 -9.751 1.315
C -26.062 -10.503 -0.754
C -26.039 -10.509 0.811
C -24.785 -9.741 -1.287
C -23.436 -10.53 3.358
C -26.001 -10.52 3.394
C -24.722 -9.759 2.882
C -23.54 -10.504 -3.372
C -24.809 -9.734 -2.854
C -26.1 -10.494 -3.336
C -23.494 -7.463 -1.295
C -23.453 -7.476 1.307
C -23.429 -7.486 2.874
C -23.518 -7.455 -2.861
C -22.223 -9.751 -1.324
C -22.181 -9.762 1.278
C -20.889 -7.486 1.269
C -22.208 -8.237 -0.799
C -22.183 -8.244 0.766
C -20.932 -7.473 -1.333
C -22.157 -9.769 2.844
C -22.142 -8.257 3.348
C -20.863 -7.496 2.835
C -22.249 -9.744 -2.891
C -20.958 -7.465 -2.9
C -22.249 -8.225 -3.381
C -20.937 -10.524 -0.828
C -20.911 -10.529 0.737
C -20.869 -10.54 3.319
C -20.98 -10.514 -3.411
C -59.328 -7.265 -0.751
C -59.32 -7.286 1.855
C -59.311 -7.3 3.421
C -59.33 -7.248 -2.318
C -55.489 -8.062 -0.268
C -55.474 -8.073 1.297
C -58.056 -9.531 -0.778
C -58.04 -9.547 1.828
C -56.749 -7.312 1.838
C -58.049 -8.036 -0.245
C -58.041 -8.046 1.32
C -56.769 -7.29 -0.769
C -55.448 -8.095 3.885
C -58.027 -9.558 3.395
C -58.023 -8.068 3.907
C -56.736 -7.327 3.405
C -55.514 -8.04 -2.856
C -58.064 -9.517 -2.344
C -56.78 -7.274 -2.335
C -58.062 -8.013 -2.833
C -54.219 -10.332 -0.3
C -54.201 -10.341 1.265
C -55.473 -9.576 1.806
C -56.778 -10.304 -0.273
C -56.765 -10.312 1.292
C -55.499 -9.559 -0.801
C -54.171 -10.358 3.852
C -56.742 -10.328 3.879
C -55.457 -9.588 3.372
C -54.248 -10.316 -2.888
C -55.513 -9.547 -2.367
C -56.798 -10.286 -2.861
C -64.452 -7.214 -0.767
C -64.47 -7.234 1.85
C -64.464 -7.239 3.424
C -64.427 -7.191 -2.341
C -60.612 -8.008 -0.234
C -60.61 -8.018 1.331
C -63.178 -9.47 -0.773
C -63.181 -9.486 1.844
C -61.894 -7.259 1.858
C -63.177 -7.981 -0.239
C -63.183 -7.991 1.328
C -61.889 -7.239 -0.749
C -60.6 -8.036 3.919
C -63.167 -9.488 3.418
C -63.175 -8 3.923
C -61.888 -7.27 3.425
C -60.609 -7.984 -2.824
C -63.161 -9.45 -2.347
C -61.879 -7.22 -2.316
C -63.151 -7.952 -2.835
C -59.339 -10.273 -0.255
C -59.332 -10.28 1.309
C -60.61 -9.517 1.84
C -61.902 -10.24 -0.25
C -61.901 -10.248 1.317
C -60.616 -9.501 -0.767
C -59.313 -10.293 3.898
C -61.881 -10.254 3.912
C -60.598 -9.524 3.407
C -59.345 -10.253 -2.844
C -60.612 -9.485 -2.334
C -61.888 -10.217 -2.846
C -65.747 -7.956 -0.266
C -65.757 -7.97 1.317
C -67.021 -7.206 1.863
C -66.995 -7.178 -0.838
C -65.743 -7.969 3.937
C -67.015 -7.207 3.422
C -65.693 -7.918 -2.886
C -66.957 -7.151 -2.397
C -64.472 -10.209 -0.264
C -64.473 -10.22 1.319
C -65.729 -9.448 1.873
C -65.72 -9.426 -0.829
C -64.444 -10.215 3.939
C -65.713 -9.448 3.432
C -64.432 -10.175 -2.884
C -65.693 -9.402 -2.388
H -34.935 -8.211 4.622
H -37.49 -8.201 4.664
H -35.075 -8.167 -4.29
H -37.639 -8.156 -4.249
H -33.668 -10.49 4.593
H -36.224 -10.479 4.633
H -33.804 -10.455 -4.319
H -36.368 -10.443 -4.28
H -29.819 -8.231 4.546
H -32.378 -8.221 4.583
H -29.948 -8.188 -4.364
H -32.511 -8.177 -4.328
H -28.55 -10.512 4.519
H -31.11 -10.501 4.555
H -28.678 -10.478 -4.391
H -31.24 -10.467 -4.356
H -24.694 -8.251 4.475
H -27.258 -8.241 4.511
H -24.825 -8.208 -4.434
H -27.386 -8.198 -4.399
H -23.421 -10.533 4.448
H -25.987 -10.522 4.484
H -23.556 -10.499 -4.462
H -26.116 -10.488 -4.426
H -22.126 -8.261 4.438
H -22.266 -8.218 -4.471
H -20.852 -10.543 4.409
H -63.174 -8.004 5.013
H -63.14 -7.942 -3.926
H -65.753 -7.971 5.027
H -65.679 -7.913 -3.977
H -64.447 -10.217 5.029
H -41.493 -10.416 -4.193
H -55.526 -8.031 -3.946
H -54.262 -10.309 -3.978
H -42.763 -8.13 -4.158
H -44.052 -10.399 -4.146
H -56.807 -10.279 -3.951
H -45.321 -8.115 -4.11
H -46.609 -10.381 -4.099
H -58.07 -8.004 -3.924
H -59.349 -10.246 -3.935
H -47.877 -8.098 -4.062
H -60.609 -7.974 -3.914
H -49.163 -10.359 -4.054
H -50.43 -8.078 -4.018
H -51.714 -10.335 -4.013
H -40.202 -8.144 -4.205
H -38.931 -10.43 -4.238
H -52.979 -8.055 -3.978
H -47.723 -8.158 4.854
H -50.289 -8.143 4.9
H -38.78 -10.468 4.676
H -61.875 -10.256 5.002
H -52.86 -8.125 4.941
H -41.336 -10.456 4.722
H -51.586 -10.39 4.906
H -54.158 -10.365 4.942
H -58.016 -8.077 4.997
H -56.732 -10.335 4.969
H -42.602 -8.181 4.756
H -45.161 -8.17 4.805
H -60.598 -8.044 5.009
H -46.455 -10.427 4.817
H -49.019 -10.41 4.863
H -40.045 -8.192 4.709
H -55.436 -8.104 4.975
H -43.894 -10.442 4.769
H -59.307 -10.299 4.988
C 7.274 -7.544 -2.017
C 7.342 -7.551 0.584
C 7.384 -7.556 2.15
C 7.233 -7.541 -3.583
C 11.133 -8.311 -1.602
C 11.172 -8.315 -0.037
C 8.547 -9.826 -2.056
C 8.614 -9.831 0.546
C 9.906 -7.551 0.516
C 8.568 -8.311 -1.535
C 8.608 -8.315 0.03
C 9.84 -7.545 -2.086
C 11.237 -8.32 2.545
C 8.654 -9.834 2.112
C 8.676 -8.321 2.612
C 9.946 -7.555 2.082
C 11.069 -8.307 -4.183
C 8.507 -9.824 -3.622
C 9.8 -7.542 -3.652
C 8.501 -8.306 -4.116
C 12.406 -10.591 -1.637
C 12.443 -10.593 -0.072
C 11.177 -9.83 0.479
C 9.841 -10.592 -1.572
C 9.88 -10.595 -0.007
C 11.113 -9.826 -2.122
C 12.506 -10.597 2.511
C 9.945 -10.599 2.575
C 11.216 -9.833 2.046
C 12.344 -10.588 -4.218
C 11.074 -9.824 -3.689
C 9.775 -10.589 -4.153
C 12.405 -7.545 -2.151
C 12.469 -7.55 0.45
C 12.507 -7.554 2.017
C 12.368 -7.542 -3.718
C 16.263 -8.308 -1.725
C 16.298 -8.311 -0.161
C 13.678 -9.825 -2.186
C 13.739 -9.828 0.416
C 15.031 -7.548 0.388
C 13.698 -8.31 -1.666
C 13.735 -8.313 -0.101
C 14.971 -7.543 -2.213
C 16.355 -8.315 2.423
C 13.776 -9.831 1.983
C 13.796 -8.318 2.482
C 15.067 -7.551 1.955
C 16.206 -8.305 -4.307
C 13.642 -9.823 -3.752
C 14.936 -7.541 -3.78
C 13.637 -8.307 -4.247
C 17.535 -10.586 -1.755
C 17.568 -10.588 -0.19
C 16.301 -9.826 0.357
C 14.971 -10.589 -1.698
C 15.006 -10.591 -0.133
C 16.244 -9.822 -2.245
C 17.623 -10.591 2.393
C 15.065 -10.594 2.45
C 16.335 -9.828 1.923
C 17.481 -10.585 -4.337
C 16.21 -9.821 -3.811
C 14.912 -10.587 -4.28
C 17.537 -7.541 -2.271
C 17.592 -7.546 0.331
C 17.626 -7.548 1.897
C 17.504 -7.54 -3.838
C 21.393 -8.302 -1.831
C 21.422 -8.304 -0.266
C 18.809 -9.819 -2.3
C 18.862 -9.822 0.302
C 20.153 -7.542 0.278
C 18.828 -8.306 -1.781
C 18.86 -8.308 -0.216
C 20.103 -7.539 -2.324
C 21.47 -8.308 2.318
C 18.894 -9.824 1.869
C 18.913 -8.312 2.368
C 20.184 -7.545 1.844
C 21.345 -8.3 -4.413
C 18.778 -9.819 -3.867
C 20.072 -7.537 -3.891
C 18.776 -8.303 -4.362
C 22.664 -10.578 -1.855
C 22.691 -10.579 -0.29
C 21.422 -9.818 0.252
C 20.1 -10.582 -1.808
C 20.13 -10.584 -0.243
C 21.374 -9.816 -2.351
C 22.736 -10.581 2.294
C 20.18 -10.586 2.341
C 21.451 -9.819 1.819
C 22.619 -10.577 -4.438
C 21.346 -9.815 -3.917
C 20.05 -10.581 -4.39
C 22.668 -7.536 -2.373
C 22.714 -7.539 0.23
C 22.742 -7.541 1.797
C 22.641 -7.534 -3.939
C 26.522 -8.294 -1.917
C 26.545 -8.296 -0.352
C 23.939 -9.811 -2.396
C 23.982 -9.813 0.207
C 25.275 -7.535 0.187
C 23.957 -8.298 -1.877
C 23.983 -8.3 -0.311
C 25.234 -7.532 -2.416
C 26.583 -8.298 2.233
C 24.009 -9.814 1.774
C 24.026 -8.303 2.273
C 25.299 -7.537 1.754
C 26.484 -8.292 -4.5
C 23.914 -9.811 -3.962
C 25.21 -7.531 -3.982
C 23.915 -8.296 -4.459
C 27.791 -10.566 -1.935
C 27.813 -10.567 -0.37
C 26.542 -9.808 0.167
C 25.227 -10.572 -1.898
C 25.252 -10.574 -0.333
C 26.504 -9.806 -2.436
C 27.848 -10.569 2.215
C 25.292 -10.575 2.252
C 26.566 -9.809 1.734
C 27.756 -10.566 -4.519
C 26.482 -9.806 -4.003
C 25.187 -10.572 -4.481
C 27.8 -7.528 -2.454
C 27.835 -7.531 0.15
C 27.857 -7.532 1.716
C 27.778 -7.527 -4.02
C 31.651 -8.283 -1.983
C 31.668 -8.285 -0.417
C 29.069 -9.8 -2.472
C 29.102 -9.802 0.132
C 30.396 -7.526 0.117
C 29.086 -8.289 -1.952
C 29.106 -8.291 -0.387
C 30.365 -7.523 -2.487
C 31.696 -8.288 2.168
C 29.123 -9.803 1.699
C 29.139 -8.293 2.198
C 30.415 -7.528 1.684
C 31.623 -8.281 -4.566
C 29.049 -9.8 -4.038
C 30.347 -7.522 -4.053
C 29.053 -8.287 -4.535
C 32.919 -10.552 -1.997
C 32.934 -10.553 -0.431
C 31.662 -9.796 0.102
C 30.355 -10.559 -1.968
C 30.373 -10.561 -0.403
C 31.634 -9.793 -2.502
C 32.961 -10.555 2.155
C 30.404 -10.562 2.182
C 31.68 -9.797 1.669
C 32.893 -10.551 -4.581
C 31.617 -9.793 -4.069
C 30.324 -10.559 -4.552
C 32.932 -7.518 -2.515
C 32.957 -7.522 0.089
C 32.973 -7.524 1.656
C 32.916 -7.517 -4.082
C 36.782 -8.271 -2.03
C 36.793 -8.274 -0.464
C 34.199 -9.786 -2.528
C 34.223 -9.789 0.076
C 35.519 -7.518 0.066
C 34.216 -8.277 -2.009
C 34.23 -8.28 -0.443
C 35.499 -7.513 -2.538
C 36.811 -8.278 2.122
C 34.237 -9.79 1.643
C 34.253 -8.283 2.143
C 35.531 -7.52 1.633
C 36.765 -8.268 -4.614
C 34.185 -9.785 -4.095
C 35.487 -7.511 -4.105
C 34.193 -8.275 -4.592
C 38.048 -10.534 -2.04
C 38.057 -10.537 -0.475
C 36.783 -9.782 0.055
C 35.483 -10.543 -2.021
C 35.495 -10.545 -0.455
C 36.765 -9.779 -2.55
C 38.073 -10.541 2.112
C 35.517 -10.548 2.131
C 36.795 -9.784 1.622
C 38.031 -10.532 -4.625
C 36.754 -9.777 -4.117
C 35.462 -10.542 -4.605
C 38.067 -7.508 -2.557
C 38.081 -7.513 0.048
C 38.091 -7.516 1.614
C 38.058 -7.506 -4.124
C 39.331 -9.77 -2.567
C 39.344 -9.775 0.038
C 40.645 -7.51 0.035
C 39.35 -8.265 -2.046
C 39.356 -8.269 -0.481
C 40.637 -7.503 -2.57
C 39.352 -9.778 1.605
C 39.369 -8.274 2.106
C 40.65 -7.514 1.602
C 39.323 -9.768 -4.134
C 40.632 -7.499 -4.137
C 39.338 -8.26 -4.63
C 40.613 -10.525 -2.055
C 40.618 -10.529 -0.489
C 40.629 -10.534 2.098
C 40.602 -10.521 -4.64
C 2.142 -7.54 -1.874
C 2.213 -7.548 0.727
C 2.256 -7.554 2.293
C 2.1 -7.535 -3.441
C 6.002 -8.311 -1.466
C 6.044 -8.315 0.099
C 3.416 -9.823 -1.916
C 3.486 -9.83 0.685
C 4.778 -7.55 0.655
C 3.437 -8.309 -1.394
C 3.479 -8.313 0.17
C 4.708 -7.543 -1.946
C 6.113 -8.322 2.681
C 3.528 -9.834 2.251
C 3.549 -8.321 2.752
C 4.82 -7.556 2.221
C 5.933 -8.305 -4.046
C 3.374 -9.82 -3.482
C 4.666 -7.538 -3.512
C 3.367 -8.302 -3.975
C 7.275 -10.592 -1.504
C 7.316 -10.595 0.06
C 6.05 -9.831 0.615
C 4.71 -10.591 -1.435
C 4.752 -10.594 0.13
C 5.981 -9.825 -1.987
C 7.384 -10.6 2.642
C 4.821 -10.6 2.712
C 6.092 -9.835 2.181
C 7.208 -10.588 -4.086
C 5.94 -9.822 -3.553
C 4.641 -10.586 -4.016
C -2.988 -7.531 -1.731
C -2.919 -7.541 0.87
C -2.877 -7.548 2.436
C -3.03 -7.525 -3.297
C 0.871 -8.306 -1.323
C 0.913 -8.31 0.242
C -1.715 -9.816 -1.774
C -1.646 -9.824 0.827
C -0.353 -7.545 0.799
C -1.694 -8.301 -1.251
C -1.652 -8.307 0.314
C -0.423 -7.536 -1.802
C 0.984 -8.319 2.823
C -1.604 -9.829 2.393
C -1.583 -8.316 2.895
C -0.31 -7.552 2.365
C 0.801 -8.298 -3.904
C -1.757 -9.812 -3.34
C -0.465 -7.531 -3.368
C -1.764 -8.293 -3.832
C 2.144 -10.588 -1.364
C 2.186 -10.592 0.201
C 0.92 -9.827 0.756
C -0.421 -10.585 -1.293
C -0.379 -10.589 0.272
C 0.85 -9.82 -1.845
C 2.256 -10.599 2.782
C -0.31 -10.596 2.853
C 0.962 -9.832 2.322
C 2.075 -10.583 -3.945
C 0.808 -9.816 -3.411
C -0.49 -10.579 -3.874
C -8.117 -7.518 -1.595
C -8.053 -7.53 1.006
C -8.015 -7.538 2.572
C -8.155 -7.511 -3.161
C -4.26 -8.296 -1.181
C -4.219 -8.302 0.384
C -6.844 -9.804 -1.637
C -6.78 -9.813 0.964
C -5.486 -7.536 0.939
C -6.825 -8.29 -1.113
C -6.786 -8.296 0.452
C -5.553 -7.525 -1.662
C -4.151 -8.312 2.965
C -6.741 -9.82 2.531
C -6.72 -8.307 3.033
C -5.446 -7.544 2.505
C -4.327 -8.287 -3.762
C -6.883 -9.799 -3.203
C -5.593 -7.519 -3.228
C -6.89 -8.28 -3.694
C -2.986 -10.58 -1.223
C -2.945 -10.585 0.342
C -4.212 -9.819 0.897
C -5.552 -10.575 -1.154
C -5.512 -10.579 0.411
C -4.28 -9.811 -1.704
C -2.877 -10.593 2.923
C -5.446 -10.588 2.992
C -4.172 -9.825 2.463
C -3.055 -10.574 -3.804
C -4.32 -9.806 -3.27
C -5.618 -10.567 -3.736
C -13.244 -7.502 -1.475
C -13.188 -7.514 1.126
C -13.155 -7.523 2.692
C -13.278 -7.494 -3.041
C -9.389 -8.283 -1.049
C -9.352 -8.289 0.516
C -11.972 -9.789 -1.513
C -11.915 -9.799 1.088
C -10.621 -7.522 1.068
C -11.954 -8.275 -0.989
C -11.919 -8.281 0.576
C -10.681 -7.51 -1.533
C -9.291 -8.301 3.097
C -11.88 -9.806 2.654
C -11.862 -8.294 3.157
C -10.585 -7.531 2.635
C -9.451 -8.272 -3.63
C -12.007 -9.783 -3.079
C -10.717 -7.503 -3.099
C -12.011 -8.263 -3.57
C -8.117 -10.568 -1.088
C -8.079 -10.573 0.476
C -9.347 -9.807 1.028
C -10.681 -10.561 -1.027
C -10.646 -10.566 0.538
C -9.408 -9.797 -1.573
C -8.016 -10.582 3.058
C -10.587 -10.576 3.119
C -9.31 -9.814 2.595
C -8.18 -10.56 -3.67
C -9.445 -9.791 -3.139
C -10.741 -10.552 -3.609
C -18.37 -7.483 -1.376
C -18.323 -7.496 1.226
C -18.295 -7.505 2.792
C -18.398 -7.475 -2.942
C -14.518 -8.266 -0.934
C -14.486 -8.273 0.631
C -17.098 -9.771 -1.409
C -17.049 -9.781 1.193
C -15.756 -7.505 1.179
C -17.082 -8.257 -0.884
C -17.052 -8.263 0.681
C -15.807 -7.493 -1.423
C -14.433 -8.285 3.213
C -17.02 -9.789 2.759
C -17.004 -8.277 3.263
C -15.725 -7.515 2.745
C -14.571 -8.254 -3.516
C -17.128 -9.764 -2.975
C -15.838 -7.484 -2.989
C -17.13 -8.245 -3.466
C -13.246 -10.552 -0.97
C -13.213 -10.557 0.595
C -14.482 -9.79 1.143
C -15.81 -10.543 -0.918
C -15.779 -10.549 0.647
C -14.535 -9.78 -1.458
C -13.158 -10.568 3.177
C -15.729 -10.559 3.229
C -14.45 -9.798 2.709
C -13.301 -10.543 -3.552
C -14.567 -9.774 -3.025
C -15.86 -10.534 -3.5
C -19.645 -8.247 -0.839
C -19.618 -8.254 0.726
C -19.574 -8.267 3.308
C -19.69 -8.235 -3.421
C -18.374 -10.534 -0.871
C -18.345 -10.539 0.694
C -19.616 -9.772 1.237
C -19.661 -9.761 -1.364
C -18.299 -10.55 3.276
C -19.589 -9.779 2.804
C -18.42 -10.524 -3.453
C -19.688 -9.754 -2.931
H 26.599 -8.298 3.323
H 24.044 -8.302 3.363
H 26.468 -8.29 -5.589
H 23.896 -8.294 -5.549
H 27.863 -10.568 3.305
H 25.309 -10.575 3.342
H 27.741 -10.564 -5.608
H 25.17 -10.57 -5.57
H 31.708 -8.288 3.258
H 29.153 -8.293 3.288
H 31.611 -8.279 -5.656
H 29.039 -8.285 -5.625
H 32.971 -10.554 3.244
H 30.417 -10.561 3.272
H 32.881 -10.55 -5.671
H 30.311 -10.557 -5.642
H 36.818 -8.278 3.212
H 34.263 -8.283 3.233
H 36.756 -8.266 -5.704
H 34.183 -8.273 -5.682
H 38.08 -10.541 3.202
H 35.526 -10.547 3.221
H 38.023 -10.53 -5.715
H 35.452 -10.541 -5.695
H 39.374 -8.275 3.196
H 39.332 -8.258 -5.72
H 40.634 -10.534 3.188
H 40.596 -10.519 -5.73
H -1.553 -8.319 3.984
H -1.794 -8.288 -4.922
H -4.122 -8.315 4.054
H -6.693 -8.31 4.122
H -4.357 -8.282 -4.851
H -6.918 -8.274 -4.784
H -2.848 -10.595 4.013
H -5.418 -10.59 4.081
H -3.084 -10.57 -4.893
H -5.647 -10.563 -4.825
H -9.265 -8.304 4.187
H -11.838 -8.297 4.247
H -9.478 -8.266 -4.72
H -12.036 -8.257 -4.66
H -7.989 -10.585 4.147
H -10.562 -10.578 4.209
H -8.207 -10.556 -4.76
H -10.766 -10.548 -4.698
H -14.411 -8.289 4.302
H -16.985 -8.28 4.352
H -14.594 -8.248 -4.605
H -17.151 -8.238 -4.556
H -13.135 -10.57 4.266
H -15.709 -10.562 4.319
H -13.325 -10.539 -4.641
H -15.882 -10.529 -4.589
H -19.556 -8.271 4.397
H -19.708 -8.228 -4.511
H -18.281 -10.553 4.366
H -18.439 -10.519 -4.543
H 20.028 -10.58 -5.48
H 5.903 -8.301 -5.136
H 7.179 -10.585 -5.175
H 18.753 -8.301 -5.452
H 17.457 -10.583 -5.427
H 4.611 -10.583 -5.105
H 16.182 -8.303 -5.396
H 14.887 -10.585 -5.369
H 3.336 -8.298 -5.065
H 2.044 -10.58 -5.035
H 13.611 -8.304 -5.336
H 0.77 -8.293 -4.993
H 12.317 -10.586 -5.308
H -0.521 -10.575 -4.964
H 11.041 -8.304 -5.273
H 9.747 -10.586 -5.243
H 21.325 -8.298 -5.503
H 22.599 -10.575 -5.527
H 8.472 -8.303 -5.205
H 13.823 -8.318 3.572
H 11.264 -8.321 3.635
H 22.755 -10.58 3.384
H -0.28 -10.598 3.943
H 8.704 -8.322 3.701
H 20.201 -10.586 3.431
H 9.973 -10.6 3.665
H 7.413 -10.601 3.732
H 3.58 -8.323 3.841
H 4.85 -10.601 3.801
H 18.935 -8.311 3.457
H 16.379 -8.315 3.512
H 1.014 -8.322 3.913
H 15.09 -10.594 3.54
H 12.532 -10.597 3.6
H 21.49 -8.307 3.407
H 6.143 -8.323 3.77
H 17.646 -10.59 3.483
H 2.286 -10.6 3.872
C 41.918 -8.259 -2.056
C 41.921 -8.264 -0.491
C 41.927 -8.271 2.096
C 41.913 -8.252 -4.641
C 43.178 -10.516 -2.064
C 43.18 -10.521 -0.499
C 41.905 -9.769 0.027
C 41.899 -9.762 -2.579
C 43.185 -10.528 2.09
C 41.91 -9.773 1.594
C 43.173 -10.509 -4.65
C 41.894 -9.759 -4.146
C 43.209 -7.497 -2.577
C 43.209 -7.507 0.029
C 43.211 -7.512 1.595
C 43.208 -7.493 -4.143
C 44.467 -9.753 -2.584
C 44.467 -9.763 0.022
C 45.775 -7.505 0.03
C 44.489 -8.252 -2.06
C 44.486 -8.26 -0.494
C 45.783 -7.493 -2.575
C 44.467 -9.768 1.589
C 44.485 -8.269 2.093
C 45.771 -7.512 1.597
C 44.466 -9.748 -4.151
C 45.786 -7.486 -4.142
C 44.49 -8.243 -4.645
C 45.744 -10.507 -2.066
C 45.742 -10.515 -0.501
C 45.74 -10.524 2.087
C 45.746 -10.497 -4.652
H 41.929 -8.272 3.187
H 41.909 -8.249 -5.731
H 43.187 -10.53 3.18
H 43.17 -10.506 -5.74
H 44.484 -8.272 3.184
H 44.489 -8.239 -5.735
H 45.738 -10.527 3.178
H 45.745 -10.493 -5.742
C 47.06 -8.247 -2.055
C 47.053 -8.257 -0.49
C 47.042 -8.27 2.098
C 47.069 -8.233 -4.64
C 48.31 -10.501 -2.061
C 48.303 -10.511 -0.496
C 47.028 -9.76 0.024
C 47.036 -9.746 -2.582
C 48.292 -10.524 2.092
C 47.023 -9.766 1.591
C 48.317 -10.485 -4.648
C 47.038 -9.738 -4.148
C 48.358 -7.489 -2.564
C 48.341 -7.506 0.041
C 48.331 -7.515 1.607
C 48.366 -7.479 -4.131
C 49.604 -9.741 -2.571
C 49.588 -9.76 0.035
C 50.907 -7.512 0.062
C 49.632 -8.245 -2.04
C 49.619 -8.258 -0.476
C 50.934 -7.489 -2.543
C 49.577 -9.768 1.601
C 49.598 -8.274 2.112
C 50.89 -7.522 1.628
C 49.609 -9.729 -4.137
C 50.945 -7.474 -4.109
C 49.648 -8.225 -4.626
C 50.875 -10.499 -2.048
C 50.864 -10.512 -0.483
C 50.84 -10.528 2.106
C 50.885 -10.475 -4.635
H 47.037 -8.274 3.188
H 47.072 -8.228 -5.73
H 48.287 -10.529 3.183
H 48.32 -10.478 -5.738
H 49.589 -8.281 3.202
H 49.655 -8.216 -5.716
H 50.83 -10.535 3.197
H 50.89 -10.465 -5.725
C 52.202 -8.25 -2.016
C 52.184 -8.266 -0.452
C 52.149 -8.286 2.137
C 52.222 -8.221 -4.603
C 53.438 -10.509 -2.027
C 53.423 -10.524 -0.461
C 52.148 -9.768 0.055
C 52.171 -9.744 -2.552
C 53.381 -10.54 2.137
C 52.127 -9.777 1.622
C 53.444 -10.472 -4.623
C 52.176 -9.725 -4.119
C 53.507 -7.499 -2.512
C 53.472 -7.527 0.094
C 53.444 -7.539 1.66
C 53.519 -7.477 -4.078
C 54.735 -9.761 -2.529
C 54.704 -9.789 0.089
C 56.03 -7.565 0.141
C 54.767 -8.272 -1.983
C 54.744 -8.29 -0.417
C 56.072 -7.532 -2.476
C 54.671 -9.797 1.663
C 54.69 -8.31 2.18
C 55.988 -7.576 1.715
C 54.734 -9.733 -4.103
C 56.079 -7.502 -4.05
C 54.784 -8.229 -4.578
C 55.999 -10.537 -2.006
C 55.982 -10.552 -0.423
C 55.917 -10.564 2.2
C 55.994 -10.485 -4.628
H 52.134 -8.295 3.227
H 52.233 -8.208 -5.693
H 53.363 -10.548 3.227
H 53.448 -10.456 -5.713
H 54.665 -8.32 3.27
H 54.793 -8.209 -5.668
H 55.899 -10.579 3.29
H 56.006 -10.467 -5.718
C 57.322 -8.329 -1.949
C 57.297 -8.346 -0.367
C 57.218 -8.363 2.258
C 57.327 -8.272 -4.573
C 57.235 -9.818 0.168
C 57.27 -9.789 -2.536
C 57.194 -9.825 1.727
C 57.267 -9.756 -4.095
C 58.6 -7.604 -2.474
C 58.553 -7.636 0.234
C 58.502 -7.645 1.793
C 58.603 -7.571 -4.032
H 57.194 -8.38 3.348
H 57.344 -8.252 -5.663
H -61.882 -10.208 -3.937
H -20.997 -10.509 -4.5
H -64.425 -10.172 -3.974
C -54.23 -11.831 -0.83
C -54.2 -11.844 1.776
C -54.182 -11.854 3.343
C -54.248 -11.822 -2.397
C -50.392 -12.633 -0.368
C -50.369 -12.64 1.197
C -52.963 -14.107 -0.857
C -52.929 -14.116 1.749
C -51.638 -11.872 1.741
C -52.95 -12.606 -0.33
C -52.93 -12.612 1.235
C -51.673 -11.859 -0.865
C -50.331 -12.653 3.784
C -52.908 -14.123 3.315
C -52.897 -12.625 3.822
C -51.616 -11.882 3.307
C -50.431 -12.622 -2.955
C -52.982 -14.1 -2.424
C -51.695 -11.851 -2.432
C -52.983 -12.594 -2.918
C -49.124 -14.911 -0.398
C -49.1 -14.915 1.167
C -50.368 -14.146 1.711
C -51.682 -14.882 -0.358
C -51.661 -14.886 1.207
C -50.406 -14.136 -0.895
C -49.06 -14.925 3.754
C -51.624 -14.896 3.794
C -50.345 -14.153 3.278
C -49.165 -14.903 -2.985
C -50.429 -14.13 -2.462
C -51.718 -14.873 -2.945
C -49.117 -11.884 -0.906
C -49.076 -11.896 1.7
C -49.052 -11.905 3.266
C -49.141 -11.876 -2.473
C -45.276 -12.679 -0.457
C -45.25 -12.685 1.108
C -47.849 -14.162 -0.937
C -47.807 -14.171 1.668
C -46.516 -11.917 1.654
C -47.834 -12.657 -0.411
C -47.809 -12.664 1.154
C -46.559 -11.905 -0.951
C -45.206 -12.696 3.694
C -47.782 -14.178 3.235
C -47.767 -12.676 3.74
C -46.49 -11.926 3.221
C -45.32 -12.669 -3.043
C -47.874 -14.157 -2.504
C -46.586 -11.898 -2.517
C -47.877 -12.647 -2.998
C -44.007 -14.958 -0.487
C -43.981 -14.963 1.078
C -45.248 -14.194 1.623
C -46.566 -14.936 -0.442
C -46.54 -14.941 1.124
C -45.291 -14.185 -0.982
C -43.938 -14.971 3.664
C -46.498 -14.95 3.71
C -45.222 -14.2 3.19
C -44.052 -14.952 -3.073
C -45.317 -14.18 -2.549
C -46.609 -14.929 -3.028
C -44.001 -11.924 -0.997
C -43.957 -11.935 1.608
C -43.93 -11.943 3.174
C -44.028 -11.918 -2.564
C -40.158 -12.714 -0.549
C -40.132 -12.719 1.016
C -42.732 -14.205 -1.028
C -42.689 -14.213 1.577
C -41.398 -11.951 1.561
C -42.717 -12.697 -0.504
C -42.69 -12.703 1.062
C -41.443 -11.941 -1.044
C -40.088 -12.729 3.601
C -42.662 -14.219 3.144
C -42.646 -12.713 3.647
C -41.372 -11.958 3.127
C -40.202 -12.706 -3.134
C -42.759 -14.201 -2.594
C -41.47 -11.936 -2.61
C -42.762 -12.688 -3.088
C -38.889 -14.995 -0.577
C -38.863 -14.999 0.988
C -40.13 -14.231 1.532
C -41.448 -14.978 -0.533
C -41.422 -14.982 1.033
C -40.173 -14.223 -1.073
C -38.821 -15.006 3.573
C -41.379 -14.99 3.618
C -40.104 -14.236 3.098
C -38.932 -14.99 -3.161
C -40.2 -14.219 -2.639
C -41.492 -14.972 -3.117
C -38.883 -11.956 -1.089
C -38.84 -11.966 1.516
C -38.814 -11.972 3.082
C -38.909 -11.951 -2.655
C -35.038 -12.742 -0.634
C -35.013 -12.747 0.931
C -37.613 -14.239 -1.116
C -37.571 -14.246 1.488
C -36.281 -11.979 1.473
C -37.598 -12.728 -0.593
C -37.573 -12.734 0.972
C -36.323 -11.97 -1.131
C -34.973 -12.756 3.516
C -37.546 -14.251 3.055
C -37.531 -12.743 3.557
C -36.256 -11.985 3.039
C -35.078 -12.735 -3.217
C -37.639 -14.235 -2.683
C -36.348 -11.965 -2.697
C -37.641 -12.721 -3.177
C -33.768 -15.025 -0.658
C -33.743 -15.029 0.907
C -35.012 -14.26 1.447
C -36.328 -15.011 -0.619
C -36.303 -15.015 0.946
C -35.052 -14.253 -1.157
C -33.705 -15.035 3.491
C -36.263 -15.021 3.531
C -34.988 -14.265 3.014
C -33.807 -15.02 -3.242
C -35.077 -14.25 -2.723
C -36.37 -15.006 -3.203
C -33.762 -11.982 -1.17
C -33.722 -11.991 1.433
C -33.698 -11.997 3
C -33.786 -11.978 -2.737
C -29.915 -12.766 -0.708
C -29.892 -12.771 0.857
C -32.491 -14.267 -1.195
C -32.452 -14.273 1.409
C -31.162 -12.003 1.396
C -32.477 -12.755 -0.672
C -32.453 -12.759 0.893
C -31.2 -11.994 -1.207
C -29.855 -12.779 3.441
C -32.429 -14.278 2.975
C -32.415 -12.768 3.477
C -31.139 -12.009 2.962
C -29.953 -12.76 -3.291
C -32.515 -14.263 -2.761
C -31.224 -11.99 -2.774
C -32.516 -12.748 -3.255
C -28.644 -15.051 -0.731
C -28.621 -15.054 0.835
C -29.891 -14.285 1.373
C -31.206 -15.038 -0.695
C -31.183 -15.042 0.87
C -29.93 -14.279 -1.231
C -28.584 -15.06 3.418
C -31.145 -15.048 3.454
C -29.868 -14.29 2.939
C -28.682 -15.046 -3.314
C -29.953 -14.276 -2.797
C -31.244 -15.034 -3.279
C -28.639 -12.006 -1.243
C -28.6 -12.014 1.36
C -28.578 -12.02 2.927
C -28.662 -12.001 -2.809
C -24.791 -12.789 -0.779
C -24.767 -12.793 0.786
C -27.367 -14.291 -1.266
C -27.329 -14.297 1.337
C -26.038 -12.025 1.325
C -27.354 -12.778 -0.743
C -27.33 -12.782 0.822
C -26.077 -12.017 -1.277
C -24.729 -12.801 3.369
C -27.306 -14.302 2.904
C -27.293 -12.791 3.405
C -26.015 -12.031 2.892
C -24.83 -12.782 -3.361
C -27.391 -14.288 -2.832
C -26.1 -12.012 -2.844
C -27.391 -12.771 -3.326
C -23.519 -15.073 -0.802
C -23.495 -15.076 0.763
C -24.766 -14.308 1.302
C -26.082 -15.062 -0.766
C -26.058 -15.065 0.799
C -24.805 -14.302 -1.301
C -23.455 -15.083 3.346
C -26.021 -15.071 3.383
C -24.742 -14.313 2.868
C -23.559 -15.069 -3.385
C -24.829 -14.299 -2.867
C -26.12 -15.058 -3.349
C -23.514 -12.027 -1.313
C -23.474 -12.036 1.289
C -23.45 -12.042 2.855
C -23.539 -12.022 -2.88
C -22.243 -14.313 -1.338
C -22.201 -14.319 1.265
C -20.909 -12.046 1.25
C -22.228 -12.799 -0.816
C -22.203 -12.804 0.749
C -20.952 -12.038 -1.352
C -22.176 -14.324 2.831
C -22.162 -12.812 3.332
C -20.883 -12.052 2.817
C -22.268 -14.309 -2.904
C -20.978 -12.033 -2.918
C -22.269 -12.793 -3.398
C -20.956 -15.084 -0.84
C -20.93 -15.087 0.725
C -20.888 -15.093 3.307
C -20.999 -15.079 -3.423
C -59.346 -11.767 -0.785
C -59.332 -11.779 1.822
C -59.315 -11.784 3.389
C -59.348 -11.755 -2.352
C -55.509 -12.575 -0.299
C -55.493 -12.581 1.266
C -58.079 -14.038 -0.802
C -58.058 -14.046 1.805
C -56.765 -11.813 1.803
C -58.069 -12.541 -0.275
C -58.058 -12.547 1.289
C -56.787 -11.801 -0.803
C -55.464 -12.593 3.853
C -58.037 -14.049 3.371
C -58.032 -12.555 3.877
C -56.748 -11.821 3.37
C -55.534 -12.562 -2.887
C -58.085 -14.028 -2.369
C -56.799 -11.79 -2.369
C -58.082 -12.526 -2.864
C -54.241 -14.849 -0.323
C -54.223 -14.853 1.242
C -55.493 -14.083 1.78
C -56.801 -14.813 -0.295
C -56.786 -14.817 1.27
C -55.52 -14.074 -0.826
C -54.19 -14.862 3.829
C -56.755 -14.822 3.858
C -55.473 -14.088 3.346
C -54.27 -14.84 -2.91
C -55.534 -14.066 -2.392
C -56.82 -14.802 -2.883
C -64.451 -11.681 -0.825
C -64.447 -11.699 1.876
C -64.424 -11.695 3.435
C -64.431 -11.66 -2.384
C -60.632 -12.505 -0.262
C -60.625 -12.511 1.305
C -63.185 -13.942 -0.826
C -63.171 -13.956 1.875
C -61.901 -11.744 1.835
C -63.201 -12.467 -0.266
C -63.196 -12.476 1.317
C -61.908 -11.732 -0.782
C -60.596 -12.512 3.899
C -63.143 -13.95 3.434
C -63.157 -12.468 3.936
C -61.88 -11.744 3.409
C -60.628 -12.486 -2.858
C -63.17 -13.924 -2.384
C -61.897 -11.715 -2.356
C -63.173 -12.438 -2.885
C -59.365 -14.774 -0.275
C -59.353 -14.778 1.292
C -60.626 -14.007 1.825
C -61.934 -14.732 -0.27
C -61.924 -14.738 1.313
C -60.642 -13.999 -0.791
C -59.317 -14.776 3.886
C -61.876 -14.727 3.931
C -60.6 -14.005 3.399
C -59.367 -14.758 -2.87
C -60.636 -13.984 -2.365
C -61.914 -14.707 -2.889
H -34.957 -12.757 4.605
H -37.514 -12.745 4.647
H -35.096 -12.731 -4.307
H -37.66 -12.717 -4.267
H -33.689 -15.036 4.581
H -36.247 -15.023 4.621
H -33.824 -15.018 -4.332
H -36.388 -15.003 -4.293
H -29.841 -12.781 4.53
H -32.4 -12.769 4.567
H -29.969 -12.756 -4.381
H -32.533 -12.744 -4.345
H -28.57 -15.061 4.508
H -31.131 -15.049 4.544
H -28.698 -15.043 -4.404
H -31.261 -15.031 -4.368
H -24.714 -12.803 4.459
H -27.279 -12.792 4.495
H -24.846 -12.778 -4.451
H -27.407 -12.767 -4.416
H -23.44 -15.083 4.436
H -26.007 -15.072 4.473
H -23.576 -15.066 -4.475
H -26.136 -15.055 -4.439
H -22.147 -12.814 4.422
H -22.287 -12.789 -4.488
H -20.871 -15.094 4.397
H -63.155 -12.469 5.027
H -63.171 -12.436 -3.976
H -41.512 -14.969 -4.207
H -55.546 -12.557 -3.977
H -54.284 -14.837 -4
H -42.783 -12.684 -4.178
H -44.072 -14.949 -4.162
H -56.83 -14.799 -3.973
H -45.341 -12.664 -4.132
H -46.629 -14.925 -4.118
H -58.089 -12.522 -3.954
H -59.368 -14.754 -3.96
H -47.896 -12.642 -4.087
H -60.625 -12.479 -3.948
H -49.183 -14.899 -4.075
H -50.449 -12.617 -4.045
H -51.735 -14.87 -4.035
H -40.222 -12.702 -4.223
H -38.951 -14.987 -4.251
H -52.999 -12.589 -4.008
H -47.749 -12.68 4.83
H -50.314 -12.658 4.873
H -38.803 -15.008 4.663
H -61.87 -14.727 5.022
H -52.882 -12.631 4.912
H -41.36 -14.992 4.708
H -51.609 -14.9 4.884
H -54.177 -14.866 4.919
H -58.023 -12.56 4.967
H -56.744 -14.825 4.948
H -42.627 -12.716 4.737
H -45.187 -12.7 4.784
H -60.587 -12.513 4.989
H -46.48 -14.953 4.8
H -49.043 -14.929 4.844
H -40.07 -12.731 4.691
H -55.453 -12.598 4.943
H -43.919 -14.974 4.754
H -59.304 -14.775 4.976
C 7.255 -12.106 -2.025
C 7.322 -12.11 0.577
C 7.363 -12.113 2.143
C 7.214 -12.105 -3.591
C 11.114 -12.871 -1.607
C 11.152 -12.873 -0.042
C 8.529 -14.385 -2.06
C 8.595 -14.388 0.542
C 9.886 -12.11 0.51
C 8.549 -12.872 -1.541
C 8.588 -12.874 0.024
C 9.82 -12.106 -2.092
C 11.215 -12.876 2.541
C 8.634 -14.39 2.108
C 8.655 -12.877 2.606
C 9.925 -12.112 2.076
C 11.05 -12.869 -4.188
C 8.489 -14.385 -3.627
C 9.781 -12.105 -3.658
C 8.483 -12.869 -4.122
C 12.387 -15.148 -1.639
C 12.424 -15.149 -0.074
C 11.158 -14.387 0.476
C 9.822 -15.149 -1.575
C 9.861 -15.151 -0.011
C 11.094 -14.385 -2.126
C 12.486 -15.151 2.509
C 9.926 -15.153 2.572
C 11.196 -14.388 2.042
C 12.326 -15.147 -4.221
C 11.056 -14.384 -3.692
C 9.758 -15.149 -4.157
C 12.386 -12.105 -2.156
C 12.448 -12.108 0.446
C 12.486 -12.11 2.012
C 12.349 -12.104 -3.723
C 16.243 -12.866 -1.728
C 16.277 -12.867 -0.163
C 13.659 -14.383 -2.188
C 13.719 -14.384 0.414
C 15.01 -12.105 0.385
C 13.679 -12.869 -1.669
C 13.715 -12.871 -0.104
C 14.951 -12.103 -2.217
C 16.333 -12.87 2.42
C 13.756 -14.386 1.98
C 13.775 -12.873 2.479
C 15.045 -12.107 1.951
C 16.187 -12.865 -4.31
C 13.623 -14.382 -3.755
C 14.916 -12.102 -3.784
C 13.618 -12.868 -4.251
C 17.516 -15.141 -1.756
C 17.548 -15.142 -0.191
C 16.281 -14.381 0.356
C 14.952 -15.145 -1.7
C 14.986 -15.146 -0.135
C 16.224 -14.379 -2.247
C 17.602 -15.144 2.393
C 15.045 -15.148 2.449
C 16.315 -14.382 1.922
C 17.462 -15.141 -4.339
C 16.19 -14.38 -3.813
C 14.894 -15.145 -4.282
C 17.516 -12.1 -2.274
C 17.571 -12.102 0.328
C 17.604 -12.103 1.895
C 17.484 -12.1 -3.841
C 21.371 -12.857 -1.832
C 21.4 -12.858 -0.267
C 18.789 -14.375 -2.301
C 18.841 -14.376 0.302
C 20.131 -12.097 0.276
C 18.807 -12.862 -1.783
C 18.838 -12.863 -0.218
C 20.081 -12.096 -2.327
C 21.447 -12.86 2.317
C 18.872 -14.377 1.868
C 18.891 -12.865 2.366
C 20.161 -12.098 1.843
C 21.324 -12.857 -4.415
C 18.758 -14.375 -3.868
C 20.051 -12.096 -3.893
C 18.755 -12.862 -4.365
C 22.642 -15.13 -1.855
C 22.669 -15.13 -0.29
C 21.401 -14.371 0.252
C 20.079 -15.136 -1.808
C 20.109 -15.137 -0.243
C 21.353 -14.37 -2.351
C 22.714 -15.131 2.295
C 20.159 -15.138 2.342
C 21.429 -14.371 1.819
C 22.598 -15.13 -4.438
C 21.325 -14.37 -3.918
C 20.03 -15.136 -4.391
C 22.646 -12.09 -2.374
C 22.691 -12.092 0.229
C 22.718 -12.093 1.795
C 22.619 -12.091 -3.941
C 26.497 -12.844 -1.917
C 26.52 -12.845 -0.352
C 23.917 -14.363 -2.396
C 23.96 -14.364 0.208
C 25.251 -12.086 0.187
C 23.934 -12.851 -1.877
C 23.96 -12.852 -0.312
C 25.21 -12.084 -2.417
C 26.558 -12.846 2.233
C 23.986 -14.364 1.774
C 24.003 -12.853 2.273
C 25.275 -12.086 1.753
C 26.46 -12.844 -4.5
C 23.892 -14.364 -3.962
C 25.186 -12.085 -3.983
C 23.892 -12.851 -4.46
C 27.768 -15.113 -1.934
C 27.789 -15.114 -0.369
C 26.519 -14.356 0.168
C 25.205 -15.122 -1.897
C 25.229 -15.123 -0.332
C 26.481 -14.355 -2.436
C 27.825 -15.115 2.217
C 25.27 -15.124 2.253
C 26.542 -14.356 1.735
C 27.732 -15.114 -4.518
C 26.458 -14.356 -4.002
C 25.165 -15.123 -4.481
C 27.774 -12.077 -2.454
C 27.81 -12.079 0.149
C 27.832 -12.079 1.716
C 27.753 -12.078 -4.021
C 31.623 -12.827 -1.983
C 31.64 -12.828 -0.417
C 29.044 -14.347 -2.471
C 29.077 -14.347 0.134
C 30.369 -12.071 0.117
C 29.06 -12.836 -1.952
C 29.081 -12.837 -0.387
C 30.338 -12.07 -2.487
C 31.669 -12.829 2.169
C 29.098 -14.347 1.7
C 29.114 -12.838 2.199
C 30.388 -12.072 1.684
C 31.595 -12.827 -4.567
C 29.024 -14.347 -4.037
C 30.32 -12.07 -4.054
C 29.027 -12.836 -4.536
C 32.891 -15.092 -1.995
C 32.907 -15.093 -0.43
C 31.636 -14.337 0.103
C 30.33 -15.103 -1.967
C 30.348 -15.104 -0.402
C 31.607 -14.337 -2.502
C 32.934 -15.094 2.156
C 30.379 -15.105 2.184
C 31.653 -14.338 1.67
C 32.865 -15.093 -4.58
C 31.589 -14.337 -4.068
C 30.299 -15.104 -4.551
C 32.902 -12.061 -2.516
C 32.928 -12.062 0.089
C 32.944 -12.063 1.655
C 32.886 -12.061 -4.083
C 36.749 -12.806 -2.031
C 36.76 -12.808 -0.466
C 34.169 -14.326 -2.528
C 34.194 -14.326 0.077
C 35.487 -12.053 0.065
C 34.186 -12.817 -2.009
C 34.2 -12.818 -0.444
C 35.466 -12.051 -2.54
C 36.78 -12.81 2.121
C 34.209 -14.327 1.644
C 34.225 -12.82 2.143
C 35.501 -12.055 1.632
C 36.729 -12.806 -4.616
C 34.155 -14.326 -4.095
C 35.453 -12.051 -4.107
C 34.162 -12.817 -4.594
C 38.014 -15.066 -2.04
C 38.025 -15.068 -0.475
C 36.752 -14.315 0.055
C 35.453 -15.08 -2.02
C 35.466 -15.081 -0.454
C 36.732 -14.313 -2.551
C 38.043 -15.07 2.112
C 35.489 -15.082 2.133
C 36.764 -14.316 1.622
C 37.996 -15.066 -4.626
C 36.72 -14.313 -4.118
C 35.43 -15.08 -4.605
C 38.03 -12.041 -2.56
C 38.047 -12.044 0.045
C 38.057 -12.046 1.612
C 38.019 -12.04 -4.127
C 39.294 -14.3 -2.57
C 39.31 -14.303 0.037
C 40.606 -12.034 0.03
C 39.311 -12.795 -2.049
C 39.32 -12.797 -0.484
C 40.594 -12.03 -2.576
C 39.32 -14.304 1.603
C 39.335 -12.801 2.104
C 40.613 -12.037 1.597
C 39.284 -14.299 -4.136
C 40.587 -12.028 -4.143
C 39.296 -12.793 -4.635
C 40.575 -15.052 -2.057
C 40.583 -15.054 -0.492
C 40.597 -15.057 2.096
C 40.561 -15.05 -4.644
C 2.124 -12.103 -1.885
C 2.193 -12.108 0.716
C 2.235 -12.112 2.283
C 2.082 -12.1 -3.451
C 5.983 -12.871 -1.473
C 6.024 -12.873 0.092
C 3.398 -14.384 -1.923
C 3.467 -14.387 0.679
C 4.758 -12.11 0.646
C 3.418 -12.87 -1.403
C 3.46 -12.872 0.162
C 4.689 -12.105 -1.955
C 6.092 -12.878 2.674
C 3.508 -14.39 2.245
C 3.529 -12.877 2.744
C 4.8 -12.113 2.212
C 5.916 -12.868 -4.054
C 3.356 -14.382 -3.489
C 4.648 -12.103 -3.522
C 3.349 -12.866 -3.984
C 7.257 -15.15 -1.509
C 7.297 -15.151 0.056
C 6.031 -14.388 0.609
C 4.692 -15.149 -1.44
C 4.733 -15.151 0.125
C 5.963 -14.385 -1.992
C 7.364 -15.154 2.639
C 4.801 -15.154 2.707
C 6.072 -14.39 2.175
C 7.191 -15.149 -4.09
C 5.923 -14.384 -3.559
C 4.624 -15.147 -4.022
C -3.007 -12.095 -1.744
C -2.939 -12.101 0.857
C -2.898 -12.106 2.423
C -3.048 -12.091 -3.311
C 0.853 -12.867 -1.332
C 0.894 -12.87 0.232
C -1.733 -14.377 -1.783
C -1.665 -14.381 0.819
C -0.372 -12.105 0.787
C -1.713 -12.863 -1.262
C -1.672 -12.866 0.302
C -0.442 -12.099 -1.814
C 0.963 -12.875 2.814
C -1.623 -14.385 2.385
C -1.603 -12.872 2.884
C -0.331 -12.109 2.353
C 0.783 -12.863 -3.914
C -1.774 -14.375 -3.349
C -0.483 -12.096 -3.38
C -1.781 -12.859 -3.844
C 2.127 -15.147 -1.37
C 2.168 -15.149 0.195
C 0.901 -14.385 0.749
C -0.439 -15.144 -1.3
C -0.398 -15.146 0.265
C 0.832 -14.381 -1.853
C 2.237 -15.153 2.777
C -0.329 -15.15 2.847
C 0.943 -14.388 2.315
C 2.058 -15.145 -3.952
C 0.791 -14.379 -3.419
C -0.507 -15.141 -3.882
C -8.136 -12.082 -1.611
C -8.073 -12.089 0.99
C -8.035 -12.095 2.557
C -8.174 -12.078 -3.177
C -4.278 -12.858 -1.193
C -4.238 -12.861 0.371
C -6.862 -14.366 -1.648
C -6.798 -14.371 0.954
C -5.506 -12.096 0.925
C -6.843 -12.852 -1.127
C -6.805 -12.856 0.438
C -5.571 -12.089 -1.676
C -4.172 -12.868 2.953
C -6.76 -14.375 2.52
C -6.741 -12.863 3.02
C -5.466 -12.101 2.491
C -4.345 -12.853 -3.775
C -6.901 -14.363 -3.214
C -5.611 -12.085 -3.242
C -6.908 -12.847 -3.708
C -3.004 -15.14 -1.231
C -2.964 -15.142 0.334
C -4.231 -14.377 0.887
C -5.569 -15.134 -1.163
C -5.53 -15.137 0.401
C -4.298 -14.372 -1.714
C -2.897 -15.147 2.916
C -5.465 -15.142 2.983
C -4.191 -14.38 2.454
C -3.072 -15.137 -3.813
C -4.338 -14.37 -3.28
C -5.635 -15.131 -3.745
C -13.263 -12.067 -1.493
C -13.208 -12.074 1.109
C -13.175 -12.08 2.675
C -13.297 -12.062 -3.059
C -9.408 -12.845 -1.063
C -9.372 -12.849 0.502
C -11.991 -14.351 -1.526
C -11.934 -14.357 1.076
C -10.641 -12.082 1.052
C -11.973 -12.837 -1.004
C -11.939 -12.841 0.561
C -10.7 -12.075 -1.55
C -9.311 -12.856 3.083
C -11.9 -14.361 2.642
C -11.882 -12.849 3.142
C -10.605 -12.088 2.618
C -9.469 -12.839 -3.645
C -12.025 -14.348 -3.092
C -10.735 -12.07 -3.116
C -12.03 -12.831 -3.586
C -8.135 -15.128 -1.099
C -8.097 -15.131 0.466
C -9.366 -14.364 1.017
C -10.7 -15.121 -1.038
C -10.664 -15.123 0.527
C -9.427 -14.359 -1.585
C -8.035 -15.136 3.048
C -10.606 -15.129 3.109
C -9.33 -14.369 2.583
C -8.197 -15.124 -3.681
C -9.463 -14.356 -3.151
C -10.758 -15.117 -3.62
C -18.389 -12.048 -1.394
C -18.343 -12.056 1.208
C -18.315 -12.062 2.774
C -18.418 -12.043 -2.961
C -14.537 -12.829 -0.95
C -14.506 -12.833 0.615
C -17.117 -14.333 -1.423
C -17.069 -14.339 1.18
C -15.776 -12.065 1.161
C -17.101 -12.82 -0.901
C -17.072 -12.823 0.664
C -15.827 -12.057 -1.441
C -14.453 -12.841 3.197
C -17.04 -14.344 2.746
C -17.024 -12.832 3.246
C -15.745 -12.072 2.727
C -14.59 -12.822 -3.532
C -17.147 -14.33 -2.989
C -15.857 -12.052 -3.007
C -17.15 -12.813 -3.483
C -13.264 -15.113 -0.981
C -13.231 -15.115 0.584
C -14.501 -14.348 1.13
C -15.829 -15.104 -0.929
C -15.798 -15.106 0.636
C -14.554 -14.343 -1.472
C -13.177 -15.121 3.166
C -15.748 -15.113 3.218
C -14.47 -14.353 2.697
C -13.319 -15.108 -3.563
C -14.586 -14.339 -3.038
C -15.879 -15.099 -3.512
C -19.665 -12.81 -0.856
C -19.638 -12.814 0.709
C -19.594 -12.822 3.291
C -19.709 -12.803 -3.439
C -18.392 -15.094 -0.883
C -18.364 -15.097 0.682
C -19.635 -14.329 1.224
C -19.68 -14.323 -1.378
C -18.319 -15.103 3.265
C -19.609 -14.334 2.791
C -18.439 -15.089 -3.465
C -19.707 -14.32 -2.945
H 26.574 -12.845 3.323
H 24.021 -12.852 3.363
H 26.444 -12.844 -5.59
H 23.874 -12.85 -5.55
H 27.839 -15.114 3.306
H 25.286 -15.123 3.343
H 27.717 -15.114 -5.608
H 25.148 -15.122 -5.57
H 31.681 -12.828 3.259
H 29.127 -12.837 3.289
H 31.582 -12.827 -5.657
H 29.013 -12.836 -5.626
H 32.945 -15.093 3.246
H 30.392 -15.104 3.274
H 32.853 -15.093 -5.67
H 30.285 -15.104 -5.641
H 36.788 -12.81 3.211
H 34.234 -12.819 3.233
H 36.72 -12.805 -5.706
H 34.151 -12.816 -5.683
H 38.051 -15.069 3.203
H 35.498 -15.081 3.223
H 37.987 -15.065 -5.716
H 35.42 -15.08 -5.695
H 39.341 -12.8 3.194
H 39.289 -12.792 -5.725
H 40.603 -15.057 3.186
H 40.554 -15.049 -5.734
H -1.574 -12.873 3.974
H -1.811 -12.856 -4.933
H -4.143 -12.869 4.043
H -6.714 -12.864 4.109
H -4.374 -12.85 -4.864
H -6.936 -12.844 -4.798
H -2.868 -15.147 4.005
H -5.438 -15.143 4.073
H -3.101 -15.135 -4.902
H -5.663 -15.129 -4.835
H -9.286 -12.858 4.173
H -11.859 -12.851 4.232
H -9.496 -12.836 -4.735
H -12.055 -12.828 -4.676
H -8.009 -15.137 4.138
H -10.581 -15.13 4.199
H -8.224 -15.122 -4.77
H -10.784 -15.114 -4.709
H -14.432 -12.843 4.287
H -17.005 -12.834 4.336
H -14.613 -12.819 -4.622
H -17.17 -12.809 -4.573
H -13.155 -15.122 4.256
H -15.728 -15.114 4.307
H -13.342 -15.106 -4.653
H -15.9 -15.097 -4.602
H -19.577 -12.824 4.381
H -19.728 -12.799 -4.528
H -18.3 -15.104 4.355
H -18.458 -15.087 -4.555
H 20.009 -15.136 -5.48
H 5.886 -12.866 -5.144
H 7.162 -15.147 -5.18
H 18.733 -12.86 -5.455
H 17.439 -15.14 -5.428
H 4.594 -15.146 -5.111
H 16.163 -12.864 -5.4
H 14.869 -15.144 -5.371
H 3.319 -12.864 -5.074
H 2.028 -15.144 -5.041
H 13.593 -12.866 -5.341
H 0.753 -12.861 -5.003
H 12.299 -15.146 -5.311
H -0.537 -15.14 -4.971
H 11.023 -12.868 -5.278
H 9.73 -15.148 -5.247
H 21.303 -12.856 -5.505
H 22.578 -15.13 -5.528
H 8.454 -12.868 -5.212
H 13.801 -12.873 3.568
H 11.243 -12.876 3.631
H 22.733 -15.131 3.385
H -0.3 -15.151 3.936
H 8.683 -12.878 3.696
H 20.179 -15.137 3.431
H 9.953 -15.153 3.662
H 7.393 -15.154 3.728
H 3.558 -12.878 3.833
H 4.83 -15.154 3.797
H 18.912 -12.865 3.456
H 16.357 -12.869 3.51
H 0.993 -12.876 3.903
H 15.069 -15.148 3.539
H 12.512 -15.151 3.599
H 21.467 -12.859 3.407
H 6.121 -12.878 3.764
H 17.625 -15.143 3.483
H 2.266 -15.153 3.866
C 41.874 -12.783 -2.063
C 41.88 -12.786 -0.497
C 41.889 -12.791 2.091
C 41.864 -12.779 -4.649
C 43.136 -15.037 -2.07
C 43.141 -15.041 -0.505
C 41.867 -14.291 0.022
C 41.857 -14.286 -2.584
C 43.15 -15.045 2.084
C 41.874 -14.293 1.589
C 43.126 -15.033 -4.657
C 41.849 -14.284 -4.151
C 43.159 -12.018 -2.587
C 43.165 -12.025 0.02
C 43.169 -12.029 1.586
C 43.154 -12.015 -4.153
C 44.419 -14.272 -2.594
C 44.425 -14.279 0.013
C 45.723 -12.017 0.015
C 44.437 -12.771 -2.071
C 44.439 -12.776 -0.506
C 45.723 -12.007 -2.591
C 44.428 -14.282 1.579
C 44.443 -12.783 2.083
C 45.723 -12.023 1.582
C 44.414 -14.268 -4.161
C 45.722 -12.001 -4.158
C 44.432 -12.764 -4.657
C 45.697 -15.022 -2.078
C 45.699 -15.028 -0.513
C 45.702 -15.034 2.076
C 45.69 -15.014 -4.665
H 41.893 -12.792 3.181
H 41.859 -12.777 -5.739
H 43.154 -15.046 3.174
H 43.12 -15.031 -5.747
H 44.444 -12.785 3.173
H 44.429 -12.761 -5.747
H 45.703 -15.036 3.166
H 45.686 -15.012 -5.755
C 47 -12.76 -2.073
C 46.998 -12.767 -0.508
C 46.994 -12.777 2.081
C 46.999 -12.748 -4.66
C 48.259 -15.009 -2.081
C 48.258 -15.017 -0.516
C 46.982 -14.269 0.008
C 46.981 -14.258 -2.598
C 48.251 -15.025 2.074
C 46.98 -14.273 1.574
C 48.252 -14.995 -4.669
C 46.977 -14.251 -4.165
C 48.288 -11.998 -2.589
C 48.281 -12.012 0.017
C 48.275 -12.019 1.584
C 48.288 -11.988 -4.155
C 49.544 -14.248 -2.598
C 49.539 -14.262 0.01
C 50.839 -12.013 0.027
C 49.562 -12.752 -2.069
C 49.557 -12.762 -0.504
C 50.852 -11.993 -2.58
C 49.53 -14.267 1.576
C 49.542 -12.774 2.086
C 50.824 -12.019 1.594
C 49.538 -14.235 -4.165
C 50.851 -11.978 -4.147
C 49.563 -12.733 -4.657
C 50.822 -15 -2.08
C 50.818 -15.01 -0.513
C 50.796 -15.016 2.084
C 50.809 -14.975 -4.675
H 46.993 -12.781 3.171
H 46.998 -12.744 -5.75
H 48.249 -15.028 3.164
H 48.25 -14.99 -5.759
H 49.537 -12.779 3.176
H 49.564 -12.726 -5.747
H 50.787 -15.019 3.175
H 50.804 -14.966 -5.765
C 52.125 -12.752 -2.059
C 52.116 -12.764 -0.492
C 52.085 -12.775 2.105
C 52.121 -12.721 -4.654
C 53.389 -14.998 -2.08
C 53.383 -15.008 -0.497
C 52.099 -14.261 0.022
C 52.108 -14.242 -2.596
C 53.34 -15.01 2.125
C 52.078 -14.263 1.596
C 53.363 -14.958 -4.7
C 52.096 -14.222 -4.17
C 53.416 -11.998 -2.569
C 53.397 -12.022 0.049
C 53.37 -12.027 1.623
C 53.409 -11.974 -4.143
C 54.65 -14.23 -2.626
C 54.637 -14.251 0.077
C 55.933 -12.027 0.116
C 54.69 -12.762 -2.049
C 54.679 -12.775 -0.466
C 55.956 -12.001 -2.588
C 54.609 -14.252 1.636
C 54.626 -12.781 2.156
C 55.898 -12.031 1.674
C 54.635 -14.204 -4.185
C 55.946 -11.972 -4.147
C 54.674 -12.716 -4.67
H 52.072 -12.781 3.195
H 52.12 -12.708 -5.745
H 53.333 -15.018 3.215
H 53.364 -14.948 -5.79
H 54.614 -12.793 3.246
H 54.68 -12.702 -5.76
H -61.916 -14.706 -3.979
H -21.017 -15.077 -4.513
C -54.254 -16.349 -0.848
C -54.222 -16.355 1.758
C -54.2 -16.359 3.324
C -54.27 -16.343 -2.414
C -50.414 -17.159 -0.383
C -50.391 -17.162 1.181
C -52.987 -18.626 -0.869
C -52.951 -18.63 1.737
C -51.659 -16.39 1.723
C -52.973 -17.125 -0.346
C -52.953 -17.128 1.219
C -51.696 -16.384 -0.883
C -50.353 -17.169 3.768
C -52.927 -18.632 3.303
C -52.917 -17.134 3.806
C -51.636 -16.395 3.29
C -50.453 -17.153 -2.971
C -53.005 -18.622 -2.435
C -51.717 -16.379 -2.449
C -53.006 -17.119 -2.933
C -49.146 -19.437 -0.408
C -49.122 -19.439 1.157
C -50.389 -18.666 1.699
C -51.706 -19.402 -0.368
C -51.683 -19.404 1.197
C -50.428 -18.661 -0.907
C -49.081 -19.444 3.744
C -51.644 -19.408 3.784
C -50.365 -18.67 3.265
C -49.186 -19.433 -2.995
C -50.451 -18.658 -2.473
C -51.741 -19.398 -2.955
C -49.138 -16.414 -0.923
C -49.098 -16.421 1.683
C -49.074 -16.427 3.25
C -49.162 -16.41 -2.489
C -45.297 -17.215 -0.469
C -45.271 -17.219 1.096
C -47.87 -18.693 -0.948
C -47.828 -18.698 1.657
C -46.538 -16.448 1.64
C -47.856 -17.189 -0.425
C -47.831 -17.192 1.14
C -46.58 -16.441 -0.966
C -45.229 -17.225 3.682
C -47.804 -18.702 3.224
C -47.79 -17.199 3.727
C -46.513 -16.453 3.207
C -45.341 -17.21 -3.055
C -47.895 -18.691 -2.515
C -46.606 -16.438 -2.532
C -47.897 -17.184 -3.012
C -44.027 -19.494 -0.495
C -44.002 -19.497 1.07
C -45.269 -18.726 1.614
C -46.587 -19.467 -0.451
C -46.562 -19.47 1.114
C -45.311 -18.721 -0.992
C -43.959 -19.502 3.656
C -46.52 -19.475 3.701
C -45.243 -18.729 3.18
C -44.071 -19.492 -3.081
C -45.337 -18.719 -2.559
C -46.629 -19.464 -3.037
C -44.022 -16.465 -1.01
C -43.979 -16.472 1.595
C -43.953 -16.476 3.161
C -44.048 -16.462 -2.577
C -40.178 -17.259 -0.559
C -40.153 -17.262 1.006
C -42.752 -18.745 -1.036
C -42.709 -18.75 1.569
C -41.42 -16.492 1.549
C -42.738 -17.238 -0.514
C -42.712 -17.242 1.051
C -41.463 -16.486 -1.055
C -40.11 -17.267 3.592
C -42.684 -18.753 3.135
C -42.669 -17.248 3.637
C -41.394 -16.496 3.116
C -40.222 -17.255 -3.144
C -42.778 -18.744 -2.603
C -41.489 -16.483 -2.622
C -42.782 -17.234 -3.1
C -38.908 -19.539 -0.582
C -38.883 -19.541 0.983
C -40.15 -18.771 1.525
C -41.468 -19.518 -0.539
C -41.442 -19.52 1.026
C -40.193 -18.767 -1.08
C -38.841 -19.545 3.568
C -41.4 -19.525 3.612
C -40.125 -18.774 3.091
C -38.95 -19.537 -3.167
C -40.218 -18.766 -2.647
C -41.511 -19.516 -3.125
C -38.903 -16.505 -1.099
C -38.861 -16.51 1.505
C -38.836 -16.514 3.072
C -38.929 -16.502 -2.666
C -35.058 -17.293 -0.642
C -35.033 -17.295 0.923
C -37.632 -18.786 -1.122
C -37.591 -18.79 1.482
C -36.302 -16.526 1.464
C -37.618 -17.277 -0.601
C -37.593 -17.279 0.964
C -36.343 -16.521 -1.14
C -34.994 -17.3 3.508
C -37.566 -18.792 3.049
C -37.552 -17.285 3.549
C -36.277 -16.53 3.03
C -35.098 -17.29 -3.226
C -37.657 -18.785 -2.689
C -36.368 -16.519 -2.707
C -37.66 -17.273 -3.186
C -33.786 -19.574 -0.662
C -33.762 -19.576 0.903
C -35.031 -18.806 1.442
C -36.347 -19.557 -0.624
C -36.323 -19.559 0.942
C -35.071 -18.803 -1.162
C -33.724 -19.579 3.488
C -36.283 -19.563 3.527
C -35.007 -18.809 3.008
C -33.825 -19.573 -3.247
C -35.096 -18.802 -2.729
C -36.388 -19.556 -3.208
C -33.781 -16.536 -1.18
C -33.742 -16.541 1.424
C -33.718 -16.544 2.991
C -33.806 -16.534 -2.746
C -29.935 -17.321 -0.716
C -29.911 -17.323 0.849
C -32.51 -18.819 -1.2
C -32.471 -18.821 1.404
C -31.181 -16.555 1.387
C -32.496 -17.307 -0.68
C -32.473 -17.31 0.885
C -31.22 -16.55 -1.216
C -29.874 -17.327 3.434
C -32.448 -18.824 2.97
C -32.435 -17.314 3.47
C -31.158 -16.558 2.954
C -29.972 -17.318 -3.299
C -32.533 -18.818 -2.767
C -31.243 -16.548 -2.783
C -32.535 -17.305 -3.264
C -28.662 -19.602 -0.735
C -28.639 -19.604 0.831
C -29.909 -18.835 1.368
C -31.224 -19.589 -0.699
C -31.201 -19.59 0.866
C -29.948 -18.833 -1.236
C -28.602 -19.606 3.415
C -31.164 -19.593 3.451
C -29.887 -18.837 2.934
C -28.7 -19.602 -3.318
C -29.971 -18.832 -2.803
C -31.262 -19.588 -3.283
C -28.658 -16.563 -1.252
C -28.62 -16.567 1.352
C -28.597 -16.57 2.918
C -28.681 -16.561 -2.818
C -24.81 -17.345 -0.786
C -24.785 -17.347 0.779
C -27.385 -18.845 -1.271
C -27.347 -18.848 1.333
C -26.057 -16.579 1.316
C -27.372 -17.334 -0.751
C -27.349 -17.336 0.814
C -26.096 -16.575 -1.287
C -24.747 -17.352 3.362
C -27.324 -18.85 2.899
C -27.312 -17.34 3.398
C -26.034 -16.582 2.883
C -24.849 -17.343 -3.37
C -27.409 -18.845 -2.838
C -26.119 -16.573 -2.853
C -27.41 -17.331 -3.334
C -23.536 -19.627 -0.806
C -23.512 -19.628 0.759
C -24.783 -18.86 1.297
C -26.1 -19.615 -0.77
C -26.076 -19.616 0.795
C -24.823 -18.858 -1.306
C -23.472 -19.631 3.343
C -26.038 -19.619 3.379
C -24.76 -18.862 2.863
C -23.576 -19.626 -3.39
C -24.847 -18.856 -2.873
C -26.138 -19.614 -3.354
C -23.533 -16.586 -1.323
C -23.493 -16.59 1.28
C -23.468 -16.594 2.847
C -23.558 -16.584 -2.889
C -22.26 -18.869 -1.344
C -22.218 -18.871 1.259
C -20.927 -16.601 1.241
C -22.247 -17.356 -0.824
C -22.221 -17.358 0.741
C -20.97 -16.597 -1.361
C -22.194 -18.874 2.826
C -22.181 -17.363 3.325
C -20.902 -16.605 2.808
C -22.285 -18.868 -2.91
C -20.996 -16.595 -2.928
C -22.288 -17.354 -3.407
C -20.973 -19.638 -0.845
C -20.947 -19.639 0.72
C -20.905 -19.642 3.304
C -21.016 -19.637 -3.428
C -59.376 -16.269 -0.802
C -59.354 -16.275 1.814
C -59.324 -16.27 3.388
C -59.374 -16.257 -2.376
C -55.534 -17.087 -0.313
C -55.516 -17.09 1.251
C -58.111 -18.543 -0.813
C -58.083 -18.546 1.802
C -56.786 -16.316 1.787
C -58.098 -17.046 -0.288
C -58.083 -17.048 1.279
C -56.813 -16.311 -0.819
C -55.48 -17.092 3.839
C -58.05 -18.54 3.376
C -58.041 -17.044 3.873
C -56.763 -16.317 3.354
C -55.558 -17.079 -2.901
C -58.112 -18.532 -2.387
C -56.822 -16.303 -2.386
C -58.107 -17.033 -2.883
C -54.267 -19.363 -0.332
C -54.247 -19.365 1.232
C -55.516 -18.59 1.77
C -56.831 -19.32 -0.302
C -56.813 -19.322 1.265
C -55.547 -18.586 -0.836
C -54.207 -19.365 3.82
C -56.766 -19.316 3.858
C -55.489 -18.589 3.337
C -54.295 -19.357 -2.92
C -55.559 -18.58 -2.403
C -56.845 -19.31 -2.896
C -60.668 -17.001 -0.276
C -60.654 -17.005 1.307
C -61.899 -16.218 1.872
C -61.92 -16.209 -0.828
C -60.599 -16.991 3.924
C -61.866 -16.211 3.43
C -60.655 -16.979 -2.895
C -61.91 -16.193 -2.387
C -59.402 -19.273 -0.284
C -59.385 -19.276 1.299
C -60.628 -18.486 1.866
C -60.655 -18.48 -0.833
C -59.324 -19.26 3.916
C -60.591 -18.477 3.425
C -59.395 -19.253 -2.902
C -60.648 -18.466 -2.392
H -34.978 -17.301 4.598
H -37.535 -17.285 4.639
H -35.115 -17.288 -4.316
H -37.679 -17.272 -4.276
H -33.709 -19.579 4.578
H -36.266 -19.563 4.617
H -33.842 -19.572 -4.337
H -36.406 -19.555 -4.298
H -29.86 -17.328 4.523
H -32.42 -17.315 4.56
H -29.988 -17.317 -4.389
H -32.552 -17.303 -4.353
H -28.588 -19.606 4.505
H -31.149 -19.593 4.54
H -28.716 -19.601 -4.408
H -31.278 -19.587 -4.373
H -24.733 -17.352 4.452
H -27.298 -17.34 4.488
H -24.865 -17.341 -4.46
H -27.426 -17.329 -4.424
H -23.457 -19.631 4.432
H -26.024 -19.619 4.469
H -23.593 -19.625 -4.479
H -26.154 -19.613 -4.443
H -22.165 -17.363 4.414
H -22.305 -17.352 -4.497
H -20.888 -19.642 4.393
H -41.53 -19.515 -4.215
H -55.57 -17.078 -3.991
H -54.308 -19.357 -4.01
H -42.802 -17.232 -4.19
H -44.091 -19.491 -4.171
H -56.851 -19.308 -3.987
H -45.36 -17.208 -4.145
H -46.648 -19.463 -4.127
H -58.111 -17.03 -3.973
H -59.403 -19.255 -3.992
H -47.916 -17.182 -4.102
H -60.66 -16.979 -3.985
H -49.204 -19.432 -4.085
H -50.47 -17.151 -4.06
H -51.758 -19.397 -4.045
H -40.241 -17.253 -4.233
H -38.969 -19.536 -4.257
H -53.022 -17.117 -4.023
H -47.772 -17.202 4.816
H -50.336 -17.172 4.858
H -38.824 -19.546 4.658
H -52.902 -17.137 4.896
H -41.382 -19.526 4.702
H -51.628 -19.41 4.874
H -54.192 -19.367 4.91
H -58.026 -17.042 4.963
H -56.749 -19.313 4.948
H -42.651 -17.249 4.727
H -45.21 -17.227 4.772
H -60.59 -16.99 5.015
H -46.502 -19.477 4.791
H -49.064 -19.446 4.834
H -40.093 -17.269 4.682
H -55.467 -17.094 4.929
H -43.941 -19.503 4.746
H -59.312 -19.259 5.006
C 7.238 -16.663 -2.028
C 7.305 -16.665 0.574
C 7.345 -16.667 2.141
C 7.198 -16.663 -3.594
C 11.097 -17.425 -1.608
C 11.134 -17.426 -0.043
C 8.513 -18.939 -2.062
C 8.579 -18.94 0.541
C 9.868 -16.664 0.508
C 8.532 -17.427 -1.543
C 8.571 -17.428 0.022
C 9.803 -16.663 -2.094
C 11.197 -17.428 2.54
C 8.618 -18.941 2.107
C 8.637 -17.43 2.605
C 9.907 -16.666 2.074
C 11.034 -17.426 -4.19
C 8.474 -18.94 -3.628
C 9.764 -16.663 -3.66
C 8.467 -17.427 -4.125
C 12.372 -19.699 -1.639
C 12.408 -19.7 -0.074
C 11.141 -18.939 0.476
C 9.807 -19.701 -1.576
C 9.846 -19.702 -0.011
C 11.078 -18.938 -2.127
C 12.47 -19.701 2.51
C 9.91 -19.704 2.573
C 11.179 -18.94 2.042
C 12.31 -19.7 -4.222
C 11.04 -18.938 -3.693
C 9.743 -19.702 -4.158
C 12.368 -16.661 -2.158
C 12.43 -16.662 0.445
C 12.467 -16.663 2.011
C 12.331 -16.661 -3.724
C 16.225 -17.419 -1.728
C 16.259 -17.42 -0.163
C 13.643 -18.935 -2.189
C 13.703 -18.936 0.414
C 14.991 -16.659 0.384
C 13.661 -17.423 -1.67
C 13.697 -17.424 -0.105
C 14.933 -16.658 -2.218
C 16.314 -17.421 2.421
C 13.739 -18.937 1.981
C 13.757 -17.425 2.479
C 15.026 -16.66 1.951
C 16.169 -17.42 -4.311
C 13.607 -18.936 -3.755
C 14.898 -16.658 -3.785
C 13.602 -17.423 -4.252
C 17.499 -19.691 -1.755
C 17.531 -19.692 -0.19
C 16.263 -18.932 0.356
C 14.936 -19.696 -1.699
C 14.97 -19.697 -0.134
C 16.208 -18.931 -2.247
C 17.585 -19.693 2.394
C 15.028 -19.698 2.45
C 16.297 -18.932 1.923
C 17.446 -19.692 -4.339
C 16.174 -18.932 -3.813
C 14.878 -19.697 -4.282
C 17.498 -16.654 -2.275
C 17.552 -16.654 0.328
C 17.584 -16.655 1.895
C 17.465 -16.654 -3.841
C 21.352 -17.408 -1.831
C 21.38 -17.408 -0.266
C 18.772 -18.926 -2.301
C 18.823 -18.926 0.303
C 20.111 -16.649 0.277
C 18.789 -17.414 -1.782
C 18.82 -17.415 -0.217
C 20.062 -16.648 -2.327
C 21.427 -17.409 2.318
C 18.855 -18.927 1.869
C 18.871 -17.416 2.367
C 20.141 -16.649 1.843
C 21.305 -17.409 -4.415
C 18.741 -18.927 -3.867
C 20.032 -16.649 -3.893
C 18.737 -17.415 -4.365
C 22.625 -19.677 -1.854
C 22.652 -19.677 -0.289
C 21.382 -18.919 0.254
C 20.062 -19.685 -1.807
C 20.092 -19.685 -0.242
C 21.335 -18.919 -2.35
C 22.696 -19.678 2.297
C 20.141 -19.686 2.343
C 21.411 -18.919 1.82
C 22.58 -19.678 -4.438
C 21.307 -18.92 -3.917
C 20.013 -19.686 -4.391
C 22.626 -16.641 -2.374
C 22.671 -16.642 0.23
C 22.698 -16.642 1.797
C 22.599 -16.642 -3.94
C 26.476 -17.39 -1.915
C 26.499 -17.391 -0.35
C 23.898 -18.91 -2.395
C 23.941 -18.911 0.209
C 25.229 -16.633 0.188
C 23.914 -17.4 -1.876
C 23.94 -17.4 -0.311
C 25.189 -16.633 -2.416
C 26.537 -17.392 2.236
C 23.967 -18.911 1.776
C 23.982 -17.401 2.275
C 25.253 -16.634 1.755
C 26.439 -17.392 -4.499
C 23.873 -18.912 -3.961
C 25.165 -16.634 -3.982
C 23.872 -17.401 -4.46
C 27.748 -19.656 -1.932
C 27.77 -19.656 -0.367
C 26.499 -18.901 0.17
C 25.187 -19.667 -1.895
C 25.211 -19.668 -0.33
C 26.461 -18.9 -2.434
C 27.805 -19.657 2.219
C 25.251 -19.668 2.255
C 26.522 -18.901 1.737
C 27.713 -19.657 -4.517
C 26.438 -18.902 -4.001
C 25.147 -19.669 -4.48
C 27.752 -16.624 -2.453
C 27.787 -16.624 0.151
C 27.809 -16.624 1.718
C 27.73 -16.625 -4.02
C 31.599 -17.368 -1.98
C 31.617 -17.368 -0.415
C 29.023 -18.889 -2.469
C 29.057 -18.889 0.136
C 30.345 -16.613 0.119
C 29.038 -17.38 -1.95
C 29.058 -17.38 -0.385
C 30.314 -16.613 -2.486
C 31.646 -17.369 2.171
C 29.077 -18.889 1.703
C 29.091 -17.381 2.201
C 30.364 -16.613 1.686
C 31.57 -17.369 -4.566
C 29.003 -18.89 -4.036
C 30.295 -16.614 -4.052
C 29.005 -17.381 -4.535
C 32.869 -19.628 -1.993
C 32.886 -19.629 -0.428
C 31.614 -18.876 0.106
C 30.309 -19.643 -1.965
C 30.328 -19.643 -0.399
C 31.584 -18.876 -2.5
C 32.913 -19.629 2.159
C 30.359 -19.644 2.187
C 31.631 -18.876 1.673
C 32.842 -19.63 -4.579
C 31.567 -18.877 -4.066
C 30.278 -19.645 -4.55
C 32.876 -16.601 -2.514
C 32.903 -16.601 0.091
C 32.919 -16.601 1.658
C 32.86 -16.601 -4.081
C 36.72 -17.339 -2.03
C 36.733 -17.34 -0.464
C 34.145 -18.861 -2.526
C 34.171 -18.861 0.08
C 35.46 -16.588 0.067
C 34.16 -17.354 -2.007
C 34.175 -17.355 -0.442
C 35.437 -16.587 -2.539
C 36.754 -17.341 2.123
C 34.186 -18.862 1.647
C 34.2 -17.355 2.146
C 35.474 -16.588 1.633
C 36.699 -17.339 -4.616
C 34.13 -18.862 -4.093
C 35.423 -16.588 -4.106
C 34.135 -17.355 -4.592
C 37.989 -19.594 -2.039
C 38.001 -19.595 -0.473
C 36.728 -18.845 0.057
C 35.429 -19.612 -2.017
C 35.444 -19.613 -0.452
C 36.706 -18.845 -2.549
C 38.021 -19.596 2.115
C 35.467 -19.613 2.135
C 36.741 -18.846 1.624
C 37.969 -19.595 -4.625
C 36.693 -18.845 -4.116
C 35.406 -19.613 -4.604
C 37.998 -16.572 -2.56
C 38.017 -16.573 0.046
C 38.029 -16.574 1.613
C 37.987 -16.572 -4.127
C 39.266 -18.826 -2.569
C 39.284 -18.828 0.038
C 40.574 -16.558 0.029
C 39.28 -17.322 -2.049
C 39.291 -17.324 -0.484
C 40.559 -16.556 -2.578
C 39.295 -18.829 1.604
C 39.308 -17.326 2.104
C 40.583 -16.56 1.596
C 39.255 -18.827 -4.136
C 40.55 -16.555 -4.145
C 39.263 -17.322 -4.636
C 40.549 -19.574 -2.057
C 40.559 -19.576 -0.492
C 40.575 -19.578 2.097
C 40.531 -19.574 -4.644
C 2.107 -16.661 -1.89
C 2.176 -16.663 0.712
C 2.217 -16.665 2.278
C 2.066 -16.66 -3.456
C 5.967 -17.427 -1.475
C 6.007 -17.428 0.089
C 3.383 -18.938 -1.925
C 3.451 -18.939 0.677
C 4.741 -16.665 0.643
C 3.402 -17.425 -1.406
C 3.443 -17.427 0.158
C 4.673 -16.662 -1.959
C 6.075 -17.43 2.672
C 3.492 -18.941 2.243
C 3.511 -17.429 2.741
C 4.782 -16.666 2.209
C 5.9 -17.426 -4.057
C 3.341 -18.938 -3.491
C 4.632 -16.662 -3.525
C 3.333 -17.425 -3.988
C 7.242 -19.702 -1.509
C 7.282 -19.703 0.055
C 6.015 -18.94 0.608
C 4.677 -19.702 -1.441
C 4.718 -19.702 0.124
C 5.948 -18.939 -1.994
C 7.348 -19.705 2.639
C 4.785 -19.704 2.707
C 6.056 -18.942 2.174
C 7.176 -19.703 -4.092
C 5.907 -18.939 -3.56
C 4.609 -19.702 -4.024
C -3.023 -16.653 -1.751
C -2.956 -16.656 0.851
C -2.916 -16.659 2.417
C -3.064 -16.652 -3.317
C 0.836 -17.423 -1.337
C 0.877 -17.424 0.228
C -1.748 -18.932 -1.786
C -1.68 -18.934 0.816
C -0.39 -16.66 0.782
C -1.729 -17.419 -1.267
C -1.689 -17.421 0.298
C -0.458 -16.657 -1.82
C 0.946 -17.427 2.811
C -1.64 -18.936 2.382
C -1.621 -17.424 2.88
C -0.349 -16.663 2.348
C 0.768 -17.422 -3.919
C -1.789 -18.932 -3.352
C -0.499 -16.656 -3.386
C -1.797 -17.418 -3.849
C 2.112 -19.7 -1.372
C 2.153 -19.701 0.193
C 0.886 -18.937 0.747
C -0.454 -19.697 -1.302
C -0.413 -19.698 0.262
C 0.817 -18.936 -1.856
C 2.221 -19.703 2.776
C -0.345 -19.7 2.845
C 0.927 -18.939 2.313
C 2.043 -19.7 -3.954
C 0.776 -18.935 -3.422
C -0.522 -19.697 -3.885
C -8.153 -16.641 -1.619
C -8.091 -16.645 0.983
C -8.053 -16.648 2.549
C -8.19 -16.639 -3.185
C -4.295 -17.415 -1.199
C -4.255 -17.416 0.366
C -6.878 -18.922 -1.652
C -6.814 -18.924 0.95
C -5.523 -16.651 0.918
C -6.86 -17.409 -1.133
C -6.822 -17.41 0.432
C -5.588 -16.648 -1.683
C -4.189 -17.42 2.948
C -6.776 -18.926 2.516
C -6.759 -17.414 3.014
C -5.484 -16.654 2.485
C -4.361 -17.413 -3.781
C -6.916 -18.921 -3.219
C -5.627 -16.646 -3.25
C -6.924 -17.407 -3.715
C -3.019 -19.693 -1.233
C -2.979 -19.694 0.331
C -4.247 -18.929 0.884
C -5.585 -19.688 -1.166
C -5.546 -19.689 0.398
C -4.313 -18.927 -1.718
C -2.912 -19.696 2.914
C -5.481 -19.691 2.981
C -4.207 -18.931 2.45
C -3.086 -19.692 -3.816
C -4.353 -18.927 -3.284
C -5.65 -19.687 -3.749
C -13.281 -16.626 -1.502
C -13.226 -16.63 1.1
C -13.193 -16.633 2.667
C -13.314 -16.624 -3.068
C -9.425 -17.402 -1.07
C -9.389 -17.404 0.495
C -12.007 -18.907 -1.531
C -11.95 -18.909 1.071
C -10.658 -16.638 1.044
C -11.99 -17.395 -1.011
C -11.956 -17.396 0.553
C -10.717 -16.634 -1.558
C -9.329 -17.408 3.077
C -11.916 -18.912 2.638
C -11.9 -17.4 3.136
C -10.623 -16.641 2.61
C -9.486 -17.4 -3.653
C -12.041 -18.906 -3.098
C -10.752 -16.632 -3.124
C -12.047 -17.392 -3.594
C -8.15 -19.682 -1.102
C -8.113 -19.682 0.463
C -9.382 -18.917 1.013
C -10.715 -19.674 -1.041
C -10.68 -19.675 0.523
C -9.442 -18.915 -1.59
C -8.051 -19.685 3.045
C -10.622 -19.678 3.106
C -9.346 -18.919 2.579
C -8.212 -19.681 -3.685
C -9.479 -18.914 -3.156
C -10.774 -19.673 -3.625
C -18.407 -16.607 -1.404
C -18.361 -16.611 1.199
C -18.333 -16.615 2.765
C -18.436 -16.605 -2.97
C -14.555 -17.386 -0.957
C -14.523 -17.388 0.608
C -17.134 -18.889 -1.428
C -17.085 -18.892 1.174
C -15.794 -16.621 1.152
C -17.119 -17.377 -0.908
C -17.09 -17.379 0.657
C -15.844 -16.617 -1.45
C -14.471 -17.392 3.19
C -17.056 -18.894 2.741
C -17.042 -17.383 3.239
C -15.764 -16.624 2.719
C -14.607 -17.383 -3.54
C -17.163 -18.888 -2.995
C -15.875 -16.615 -3.017
C -17.167 -17.374 -3.491
C -13.28 -19.666 -0.985
C -13.247 -19.667 0.58
C -14.518 -18.901 1.125
C -15.845 -19.658 -0.934
C -15.814 -19.658 0.631
C -14.57 -18.899 -1.477
C -13.193 -19.67 3.162
C -15.765 -19.661 3.214
C -14.486 -18.904 2.692
C -13.334 -19.665 -3.568
C -14.602 -18.897 -3.044
C -15.895 -19.656 -3.517
C -19.683 -17.367 -0.864
C -19.656 -17.369 0.701
C -19.612 -17.373 3.284
C -19.727 -17.364 -3.447
C -18.409 -19.648 -0.887
C -18.381 -19.649 0.678
C -19.652 -18.882 1.219
C -19.697 -18.879 -1.384
C -18.335 -19.652 3.261
C -19.626 -18.884 2.785
C -18.455 -19.647 -3.47
C -19.724 -18.878 -2.95
H 26.552 -17.391 3.325
H 24 -17.4 3.364
H 26.422 -17.392 -5.589
H 23.854 -17.401 -5.549
H 27.819 -19.656 3.309
H 25.267 -19.668 3.345
H 27.698 -19.658 -5.607
H 25.13 -19.668 -5.57
H 31.657 -17.368 3.261
H 29.105 -17.38 3.291
H 31.558 -17.369 -5.655
H 28.99 -17.381 -5.625
H 32.923 -19.629 3.25
H 30.371 -19.643 3.277
H 32.831 -19.63 -5.669
H 30.265 -19.645 -5.64
H 36.762 -17.34 3.213
H 34.21 -17.354 3.236
H 36.689 -17.34 -5.706
H 34.124 -17.355 -5.682
H 38.029 -19.596 3.205
H 35.476 -19.613 3.226
H 37.96 -19.595 -5.715
H 35.396 -19.614 -5.694
H 39.315 -17.326 3.195
H 39.254 -17.322 -5.726
H 40.581 -19.578 3.187
H 40.523 -19.574 -5.734
H -1.592 -17.424 3.969
H -1.827 -17.417 -4.939
H -4.161 -17.42 4.038
H -6.732 -17.415 4.104
H -4.39 -17.412 -4.871
H -6.952 -17.406 -4.805
H -2.884 -19.696 4.003
H -5.454 -19.691 4.07
H -3.115 -19.692 -4.906
H -5.678 -19.687 -4.839
H -9.304 -17.408 4.166
H -11.877 -17.401 4.225
H -9.512 -17.399 -4.742
H -12.071 -17.391 -4.684
H -8.025 -19.685 4.135
H -10.598 -19.678 4.196
H -8.239 -19.68 -4.775
H -10.799 -19.673 -4.714
H -14.45 -17.393 4.28
H -17.023 -17.383 4.329
H -14.63 -17.382 -4.63
H -17.188 -17.373 -4.581
H -13.171 -19.67 4.252
H -15.744 -19.661 4.304
H -13.358 -19.665 -4.658
H -15.916 -19.656 -4.607
H -19.595 -17.374 4.374
H -19.746 -17.363 -4.537
H -18.317 -19.652 4.351
H -18.475 -19.646 -4.56
H 19.992 -19.685 -5.48
H 5.87 -17.426 -5.147
H 7.147 -19.702 -5.182
H 18.715 -17.414 -5.455
H 17.422 -19.692 -5.428
H 4.58 -19.702 -5.113
H 16.145 -17.419 -5.401
H 14.853 -19.696 -5.372
H 3.304 -17.424 -5.078
H 2.014 -19.7 -5.044
H 13.576 -17.423 -5.342
H 0.738 -17.421 -5.008
H 12.284 -19.7 -5.312
H -0.551 -19.696 -4.974
H 11.007 -17.425 -5.28
H 9.715 -19.702 -5.248
H 21.284 -17.408 -5.505
H 22.561 -19.678 -5.527
H 8.438 -17.426 -5.215
H 13.782 -17.425 3.568
H 11.224 -17.428 3.63
H 22.715 -19.678 3.387
H -0.316 -19.7 3.935
H 8.665 -17.43 3.695
H 20.162 -19.686 3.433
H 9.937 -19.703 3.662
H 7.377 -19.704 3.728
H 3.54 -17.429 3.831
H 4.814 -19.704 3.796
H 18.893 -17.415 3.457
H 16.338 -17.421 3.511
H 0.975 -17.427 3.9
H 15.052 -19.697 3.539
H 12.495 -19.701 3.599
H 21.447 -17.409 3.408
H 6.103 -17.43 3.762
H 17.608 -19.692 3.484
H 2.25 -19.703 3.865
C 41.841 -17.305 -2.065
C 41.848 -17.307 -0.5
C 41.861 -17.31 2.089
C 41.826 -17.303 -4.652
C 43.109 -19.554 -2.072
C 43.116 -19.556 -0.507
C 41.841 -18.81 0.021
C 41.826 -18.807 -2.586
C 43.128 -19.559 2.081
C 41.849 -18.811 1.588
C 43.093 -19.551 -4.659
C 41.816 -18.806 -4.152
C 43.12 -16.539 -2.592
C 43.131 -16.543 0.015
C 43.137 -16.546 1.582
C 43.112 -16.536 -4.158
C 44.387 -18.787 -2.599
C 44.398 -18.792 0.007
C 45.688 -16.529 0.005
C 44.401 -17.287 -2.077
C 44.406 -17.291 -0.512
C 45.682 -16.521 -2.601
C 44.402 -18.793 1.574
C 44.414 -17.295 2.077
C 45.69 -16.532 1.572
C 44.377 -18.783 -4.165
C 45.674 -16.516 -4.168
C 44.388 -17.282 -4.664
C 45.67 -19.533 -2.084
C 45.676 -19.536 -0.52
C 45.679 -19.538 2.069
C 45.652 -19.525 -4.672
H 41.867 -17.311 3.179
H 41.819 -17.303 -5.742
H 43.133 -19.559 3.172
H 43.086 -19.551 -5.75
H 44.417 -17.296 3.167
H 44.383 -17.281 -5.754
H 45.682 -19.539 3.16
H 45.646 -19.523 -5.763
C 46.962 -17.27 -2.085
C 46.965 -17.275 -0.521
C 46.964 -17.28 2.069
C 46.949 -17.259 -4.673
C 48.234 -19.512 -2.095
C 48.238 -19.517 -0.528
C 46.957 -18.774 -0.002
C 46.949 -18.767 -2.61
C 48.228 -19.516 2.068
C 46.955 -18.774 1.565
C 48.208 -19.496 -4.69
C 46.936 -18.759 -4.176
C 48.244 -16.506 -2.607
C 48.246 -16.516 0
C 48.241 -16.518 1.567
C 48.234 -16.496 -4.174
C 49.514 -18.748 -2.621
C 49.519 -18.758 -0.004
C 50.807 -16.506 0.004
C 49.525 -17.254 -2.091
C 49.526 -17.261 -0.524
C 50.808 -16.492 -2.613
C 49.506 -18.755 1.57
C 49.511 -17.263 2.073
C 50.791 -16.506 1.578
C 49.494 -18.733 -4.195
C 50.792 -16.475 -4.187
C 49.506 -17.234 -4.686
C 50.803 -19.494 -2.11
C 50.805 -19.5 -0.526
C 50.776 -19.491 2.094
C 50.763 -19.464 -4.728
H 46.965 -17.281 3.159
H 46.944 -17.256 -5.763
H 48.225 -19.515 3.158
H 48.198 -19.49 -5.78
H 49.505 -17.265 3.163
H 49.498 -17.227 -5.776
H 50.776 -19.495 3.184
H 50.757 -19.459 -5.819
C 52.094 -17.243 -2.099
C 52.092 -17.251 -0.516
C 52.057 -17.247 2.105
C 52.06 -17.209 -4.719
C 52.06 -18.728 0.035
C 52.058 -18.716 -2.667
C 52.041 -18.724 1.594
C 52.033 -18.697 -4.226
C 53.351 -16.469 -2.652
C 53.347 -16.486 0.05
C 53.324 -16.484 1.609
C 53.331 -16.447 -4.211
H 52.054 -17.252 3.195
H 52.057 -17.201 -5.809
H -21.033 -19.636 -4.518
C -54.28 -20.863 -0.854
C -54.245 -20.865 1.752
C -54.216 -20.863 3.319
C -54.294 -20.858 -2.42
C -50.437 -21.68 -0.39
C -50.413 -21.681 1.175
C -53.012 -23.141 -0.872
C -52.974 -23.142 1.734
C -51.681 -20.906 1.715
C -52.999 -21.64 -0.351
C -52.977 -21.641 1.213
C -51.719 -20.904 -0.89
C -50.372 -21.684 3.762
C -52.944 -23.139 3.3
C -52.934 -21.641 3.8
C -51.655 -20.908 3.282
C -50.475 -21.677 -2.977
C -53.028 -23.136 -2.439
C -51.739 -20.901 -2.456
C -53.03 -21.636 -2.938
C -49.167 -23.957 -0.412
C -49.143 -23.958 1.153
C -50.41 -23.183 1.694
C -51.73 -23.918 -0.371
C -51.706 -23.918 1.194
C -50.45 -23.181 -0.911
C -49.1 -23.96 3.74
C -51.661 -23.917 3.78
C -50.383 -23.184 3.26
C -49.207 -23.956 -2.998
C -50.472 -23.179 -2.477
C -51.763 -23.914 -2.958
C -49.159 -20.94 -0.93
C -49.119 -20.943 1.676
C -49.094 -20.946 3.242
C -49.183 -20.938 -2.496
C -45.317 -21.746 -0.475
C -45.291 -21.748 1.09
C -47.89 -23.218 -0.953
C -47.848 -23.22 1.653
C -46.558 -20.975 1.633
C -47.877 -21.715 -0.431
C -47.852 -21.716 1.133
C -46.6 -20.972 -0.973
C -45.249 -21.752 3.677
C -47.822 -23.222 3.219
C -47.81 -21.72 3.72
C -46.533 -20.978 3.2
C -45.36 -21.745 -3.061
C -47.914 -23.217 -2.519
C -46.626 -20.971 -2.539
C -47.918 -21.713 -3.018
C -44.046 -24.024 -0.498
C -44.021 -24.025 1.067
C -45.288 -23.253 1.61
C -46.606 -23.993 -0.454
C -46.581 -23.994 1.111
C -45.33 -23.251 -0.996
C -43.978 -24.028 3.654
C -46.539 -23.997 3.697
C -45.262 -23.255 3.176
C -44.089 -24.024 -3.084
C -45.356 -23.25 -2.563
C -46.648 -23.992 -3.041
C -44.041 -21 -1.017
C -43.998 -21.003 1.589
C -43.973 -21.006 3.156
C -44.067 -20.999 -2.583
C -40.197 -21.797 -0.562
C -40.172 -21.799 1.003
C -42.77 -23.279 -1.04
C -42.728 -23.281 1.566
C -41.439 -21.028 1.545
C -42.757 -21.773 -0.519
C -42.731 -21.775 1.046
C -41.481 -21.025 -1.06
C -40.13 -21.802 3.589
C -42.702 -23.283 3.133
C -42.689 -21.779 3.633
C -41.414 -21.031 3.112
C -40.239 -21.797 -3.148
C -42.796 -23.279 -2.606
C -41.507 -21.025 -2.627
C -42.8 -21.772 -3.105
C -38.925 -24.076 -0.583
C -38.9 -24.077 0.982
C -40.168 -23.306 1.523
C -41.486 -24.052 -0.541
C -41.46 -24.053 1.024
C -40.21 -23.304 -1.082
C -38.86 -24.079 3.568
C -41.419 -24.055 3.61
C -40.143 -23.308 3.089
C -38.966 -24.076 -3.169
C -40.235 -23.305 -2.649
C -41.528 -24.052 -3.127
C -38.921 -21.047 -1.103
C -38.88 -21.05 1.502
C -38.855 -21.052 3.069
C -38.947 -21.047 -2.67
C -35.075 -21.837 -0.644
C -35.051 -21.838 0.922
C -37.649 -23.327 -1.124
C -37.608 -23.328 1.481
C -36.32 -21.069 1.461
C -37.636 -21.819 -0.604
C -37.611 -21.82 0.961
C -36.36 -21.067 -1.144
C -35.012 -21.84 3.507
C -37.584 -23.329 3.048
C -37.571 -21.822 3.547
C -36.296 -21.07 3.028
C -35.115 -21.837 -3.228
C -37.674 -23.327 -2.69
C -36.385 -21.066 -2.71
C -37.677 -21.818 -3.189
C -33.802 -24.116 -0.662
C -33.779 -24.116 0.903
C -35.048 -23.347 1.442
C -36.364 -24.097 -0.624
C -36.34 -24.098 0.942
C -35.087 -23.346 -1.163
C -33.741 -24.117 3.489
C -36.3 -24.099 3.527
C -35.025 -23.348 3.008
C -33.841 -24.117 -3.247
C -35.112 -23.347 -2.73
C -36.404 -24.098 -3.209
C -33.799 -21.084 -1.182
C -33.76 -21.086 1.422
C -33.736 -21.087 2.989
C -33.823 -21.084 -2.749
C -29.951 -21.869 -0.717
C -29.928 -21.869 0.848
C -32.526 -23.363 -1.2
C -32.487 -23.364 1.404
C -31.199 -21.101 1.385
C -32.514 -21.854 -0.681
C -32.49 -21.855 0.884
C -31.237 -21.099 -1.219
C -29.891 -21.871 3.433
C -32.464 -23.365 2.971
C -32.453 -21.856 3.469
C -31.176 -21.102 2.952
C -29.989 -21.869 -3.301
C -32.549 -23.364 -2.767
C -31.26 -21.099 -2.785
C -32.552 -21.854 -3.266
C -28.678 -24.147 -0.733
C -28.654 -24.147 0.832
C -29.925 -23.379 1.368
C -31.24 -24.132 -0.698
C -31.217 -24.132 0.867
C -29.963 -23.379 -1.236
C -28.618 -24.148 3.417
C -31.18 -24.133 3.452
C -29.903 -23.38 2.935
C -28.715 -24.148 -3.318
C -29.987 -23.379 -2.802
C -31.278 -24.134 -3.283
C -28.675 -21.113 -1.254
C -28.637 -21.115 1.35
C -28.614 -21.116 2.916
C -28.698 -21.113 -2.821
C -24.826 -21.895 -0.788
C -24.802 -21.895 0.777
C -27.401 -23.393 -1.271
C -27.363 -23.393 1.333
C -26.073 -21.127 1.315
C -27.389 -21.882 -0.752
C -27.365 -21.883 0.813
C -26.112 -21.126 -1.289
C -24.763 -21.897 3.362
C -27.34 -23.394 2.9
C -27.328 -21.884 3.397
C -26.05 -21.129 2.881
C -24.865 -21.895 -3.372
C -27.424 -23.393 -2.838
C -26.136 -21.126 -2.856
C -27.427 -21.883 -3.336
C -23.551 -24.172 -0.805
C -23.526 -24.172 0.76
C -24.798 -23.405 1.297
C -26.115 -24.16 -0.769
C -26.091 -24.16 0.796
C -24.838 -23.405 -1.307
C -23.487 -24.173 3.344
C -26.053 -24.161 3.381
C -24.775 -23.406 2.864
C -23.591 -24.174 -3.39
C -24.862 -23.406 -2.873
C -26.153 -24.162 -3.353
C -23.549 -21.138 -1.325
C -23.509 -21.139 1.278
C -23.485 -21.141 2.845
C -23.574 -21.138 -2.892
C -22.275 -23.417 -1.344
C -22.233 -23.417 1.26
C -20.943 -21.15 1.239
C -22.262 -21.906 -0.825
C -22.237 -21.907 0.74
C -20.986 -21.149 -1.364
C -22.208 -23.418 2.826
C -22.196 -21.908 3.324
C -20.917 -21.152 2.806
C -22.3 -23.417 -2.91
C -21.012 -21.149 -2.931
C -22.303 -21.907 -3.409
C -20.987 -24.184 -0.844
C -20.961 -24.183 0.721
C -20.919 -24.184 3.305
C -21.03 -24.185 -3.429
C -59.389 -20.754 -0.84
C -59.357 -20.758 1.859
C -59.318 -20.748 3.417
C -59.386 -20.741 -2.399
C -55.564 -21.596 -0.317
C -55.543 -21.597 1.249
C -58.122 -23.03 -0.85
C -58.086 -23.032 1.848
C -56.812 -20.82 1.789
C -58.135 -21.548 -0.294
C -58.115 -21.55 1.288
C -56.844 -20.818 -0.826
C -55.493 -21.59 3.843
C -58.044 -23.022 3.407
C -58.049 -21.533 3.905
C -56.777 -20.813 3.363
C -55.582 -21.587 -2.911
C -58.122 -23.018 -2.409
C -56.849 -20.809 -2.4
C -58.133 -21.53 -2.912
C -54.295 -23.873 -0.334
C -54.273 -23.874 1.233
C -55.541 -23.096 1.774
C -56.867 -23.825 -0.307
C -56.845 -23.826 1.276
C -55.577 -23.095 -0.841
C -54.219 -23.866 3.826
C -56.775 -23.808 3.892
C -55.503 -23.088 3.348
C -54.316 -23.865 -2.928
C -55.583 -23.086 -2.415
C -56.869 -23.808 -2.924
H -34.996 -21.84 4.597
H -37.554 -21.823 4.637
H -35.132 -21.837 -4.318
H -37.695 -21.818 -4.279
H -33.725 -24.117 4.579
H -36.284 -24.099 4.617
H -33.857 -24.118 -4.337
H -36.421 -24.098 -4.299
H -29.877 -21.871 4.523
H -32.438 -21.856 4.559
H -30.005 -21.869 -4.391
H -32.568 -21.854 -4.355
H -28.603 -24.147 4.506
H -31.165 -24.133 4.542
H -28.731 -24.149 -4.408
H -31.294 -24.134 -4.373
H -24.748 -21.896 4.451
H -27.314 -21.884 4.487
H -24.881 -21.895 -4.462
H -27.442 -21.883 -4.426
H -23.472 -24.172 4.434
H -26.039 -24.16 4.471
H -23.608 -24.174 -4.48
H -26.169 -24.162 -4.443
H -22.18 -21.908 4.414
H -22.321 -21.907 -4.499
H -20.902 -24.184 4.395
H -41.547 -24.052 -4.217
H -55.59 -21.586 -4.001
H -54.326 -23.864 -4.018
H -42.819 -21.772 -4.195
H -44.108 -24.024 -4.174
H -56.881 -23.809 -4.014
H -45.379 -21.744 -4.151
H -46.667 -23.992 -4.131
H -58.143 -21.532 -4.002
H -47.937 -21.713 -4.108
H -49.225 -23.956 -4.088
H -50.492 -21.677 -4.067
H -51.779 -23.915 -4.048
H -40.258 -21.797 -4.238
H -38.984 -24.077 -4.259
H -53.045 -21.636 -4.028
H -47.792 -21.722 4.81
H -50.355 -21.685 4.852
H -38.842 -24.079 4.658
H -52.917 -21.642 4.89
H -41.401 -24.056 4.7
H -51.643 -23.918 4.87
H -54.198 -23.864 4.916
H -58.035 -21.532 4.995
H -56.759 -23.807 4.982
H -42.671 -21.78 4.723
H -45.231 -21.753 4.767
H -46.521 -23.998 4.787
H -49.082 -23.962 4.83
H -40.112 -21.803 4.679
H -55.473 -21.588 4.933
H -43.96 -24.029 4.744
C 7.224 -21.214 -2.028
C 7.291 -21.214 0.575
C 7.331 -21.215 2.141
C 7.184 -21.214 -3.594
C 11.083 -21.974 -1.608
C 11.121 -21.974 -0.043
C 8.501 -23.486 -2.062
C 8.567 -23.486 0.542
C 9.853 -21.213 0.508
C 8.519 -21.975 -1.543
C 8.558 -21.976 0.022
C 9.789 -21.213 -2.095
C 11.183 -21.976 2.541
C 8.606 -23.487 2.108
C 8.623 -21.977 2.606
C 9.892 -21.214 2.075
C 11.021 -21.975 -4.191
C 8.462 -23.487 -3.628
C 9.751 -21.214 -3.661
C 8.453 -21.976 -4.126
C 12.36 -24.244 -1.639
C 12.397 -24.245 -0.074
C 11.129 -23.485 0.477
C 9.796 -24.246 -1.575
C 9.834 -24.247 -0.01
C 11.066 -23.484 -2.127
C 12.458 -24.246 2.511
C 9.898 -24.248 2.574
C 11.167 -23.485 2.043
C 12.299 -24.245 -4.222
C 11.029 -23.485 -3.693
C 9.732 -24.248 -4.159
C 12.354 -21.211 -2.158
C 12.415 -21.211 0.445
C 12.452 -21.212 2.011
C 12.317 -21.212 -3.724
C 16.211 -21.966 -1.728
C 16.244 -21.967 -0.163
C 13.631 -23.481 -2.189
C 13.691 -23.481 0.415
C 14.976 -21.207 0.385
C 13.647 -21.971 -1.67
C 13.683 -21.972 -0.105
C 14.919 -21.207 -2.218
C 16.3 -21.968 2.422
C 13.726 -23.482 1.981
C 13.742 -21.973 2.48
C 15.011 -21.208 1.951
C 16.155 -21.968 -4.311
C 13.595 -23.482 -3.755
C 14.884 -21.208 -3.785
C 13.588 -21.972 -4.253
C 17.487 -24.235 -1.755
C 17.519 -24.235 -0.19
C 16.251 -23.477 0.357
C 14.924 -24.24 -1.699
C 14.958 -24.241 -0.134
C 16.195 -23.476 -2.247
C 17.573 -24.236 2.395
C 15.016 -24.242 2.451
C 16.285 -23.477 1.923
C 17.434 -24.236 -4.339
C 16.162 -23.478 -3.813
C 14.866 -24.241 -4.283
C 17.483 -21.202 -2.274
C 17.537 -21.202 0.329
C 17.569 -21.203 1.896
C 17.45 -21.203 -3.841
C 21.336 -21.953 -1.831
C 21.365 -21.953 -0.266
C 18.759 -23.47 -2.301
C 18.81 -23.47 0.303
C 20.096 -21.195 0.278
C 18.774 -21.96 -1.782
C 18.805 -21.961 -0.217
C 20.046 -21.195 -2.326
C 21.412 -21.954 2.32
C 18.841 -23.471 1.87
C 18.856 -21.962 2.369
C 20.125 -21.196 1.844
C 21.29 -21.954 -4.415
C 18.728 -23.471 -3.867
C 20.017 -21.196 -3.893
C 18.723 -21.962 -4.365
C 22.612 -24.218 -1.853
C 22.639 -24.218 -0.288
C 21.369 -23.462 0.254
C 20.05 -24.227 -1.807
C 20.079 -24.228 -0.242
C 21.322 -23.462 -2.35
C 22.683 -24.219 2.298
C 20.128 -24.229 2.344
C 21.397 -23.462 1.821
C 22.567 -24.219 -4.438
C 21.294 -23.463 -3.917
C 20.001 -24.228 -4.391
C 22.609 -21.187 -2.373
C 22.654 -21.187 0.231
C 22.681 -21.187 1.798
C 22.583 -21.188 -3.939
C 26.46 -21.932 -1.914
C 26.483 -21.932 -0.349
C 23.885 -23.452 -2.394
C 23.927 -23.452 0.211
C 25.212 -21.177 0.19
C 23.898 -21.943 -1.875
C 23.924 -21.943 -0.31
C 25.172 -21.177 -2.415
C 26.52 -21.933 2.238
C 23.952 -23.452 1.777
C 23.966 -21.944 2.276
C 25.236 -21.177 1.757
C 26.422 -21.933 -4.499
C 23.859 -23.453 -3.961
C 25.148 -21.178 -3.981
C 23.856 -21.944 -4.459
C 27.734 -24.193 -1.931
C 27.756 -24.193 -0.366
C 26.484 -23.44 0.172
C 25.173 -24.206 -1.895
C 25.197 -24.207 -0.33
C 26.447 -23.44 -2.434
C 27.791 -24.194 2.221
C 25.237 -24.208 2.257
C 26.507 -23.44 1.738
C 27.699 -24.194 -4.517
C 26.424 -23.441 -4
C 25.134 -24.208 -4.48
C 27.734 -21.165 -2.452
C 27.77 -21.165 0.153
C 27.791 -21.165 1.72
C 27.713 -21.166 -4.018
C 31.581 -21.903 -1.978
C 31.599 -21.903 -0.413
C 29.008 -23.426 -2.468
C 29.041 -23.425 0.138
C 30.327 -21.151 0.121
C 29.021 -21.918 -1.948
C 29.041 -21.919 -0.383
C 30.295 -21.151 -2.484
C 31.628 -21.904 2.174
C 29.062 -23.426 1.704
C 29.074 -21.919 2.204
C 30.346 -21.151 1.688
C 31.552 -21.904 -4.564
C 28.988 -23.427 -4.035
C 30.277 -21.152 -4.051
C 28.988 -21.92 -4.534
C 32.855 -24.159 -1.991
C 32.871 -24.159 -0.426
C 31.598 -23.409 0.108
C 30.295 -24.177 -1.963
C 30.314 -24.177 -0.398
C 31.569 -23.409 -2.498
C 32.899 -24.16 2.162
C 30.345 -24.178 2.189
C 31.616 -23.409 1.675
C 32.827 -24.16 -4.578
C 31.551 -23.411 -4.065
C 30.264 -24.178 -4.549
C 32.856 -21.135 -2.512
C 32.884 -21.135 0.094
C 32.9 -21.135 1.66
C 32.84 -21.137 -4.079
C 36.701 -21.866 -2.027
C 36.714 -21.867 -0.462
C 34.129 -23.391 -2.524
C 34.155 -23.391 0.082
C 35.44 -21.118 0.069
C 34.141 -21.885 -2.005
C 34.157 -21.886 -0.439
C 35.416 -21.118 -2.537
C 36.736 -21.868 2.126
C 34.171 -23.391 1.649
C 34.182 -21.887 2.148
C 35.455 -21.118 1.636
C 36.678 -21.867 -4.614
C 34.114 -23.392 -4.091
C 35.402 -21.119 -4.104
C 34.116 -21.887 -4.591
C 37.974 -24.115 -2.037
C 37.987 -24.116 -0.472
C 36.712 -23.37 0.059
C 35.414 -24.138 -2.016
C 35.429 -24.139 -0.45
C 36.689 -23.37 -2.547
C 38.007 -24.117 2.117
C 35.453 -24.139 2.138
C 36.725 -23.371 1.626
C 37.952 -24.116 -4.624
C 36.675 -23.371 -4.114
C 35.39 -24.14 -4.603
C 37.976 -21.098 -2.559
C 37.997 -21.099 0.048
C 38.009 -21.099 1.615
C 37.964 -21.099 -4.125
C 39.249 -23.347 -2.568
C 39.269 -23.348 0.039
C 40.554 -21.078 0.029
C 39.26 -21.845 -2.047
C 39.272 -21.846 -0.482
C 40.536 -21.077 -2.577
C 39.28 -23.348 1.606
C 39.29 -21.847 2.106
C 40.564 -21.079 1.596
C 39.236 -23.347 -4.134
C 40.525 -21.076 -4.144
C 39.24 -21.845 -4.635
C 40.534 -24.091 -2.056
C 40.545 -24.092 -0.491
C 40.562 -24.092 2.097
C 40.513 -24.09 -4.643
C 2.094 -21.212 -1.891
C 2.162 -21.212 0.712
C 2.203 -21.214 2.278
C 2.052 -21.212 -3.457
C 5.954 -21.976 -1.475
C 5.994 -21.976 0.089
C 3.371 -23.485 -1.925
C 3.439 -23.485 0.678
C 4.727 -21.214 0.643
C 3.388 -21.975 -1.406
C 3.429 -21.975 0.158
C 4.659 -21.213 -1.96
C 6.061 -21.977 2.673
C 3.48 -23.486 2.244
C 3.497 -21.976 2.742
C 4.767 -21.215 2.209
C 5.887 -21.976 -4.058
C 3.33 -23.486 -3.491
C 4.618 -21.214 -3.526
C 3.32 -21.975 -3.989
C 7.231 -24.247 -1.509
C 7.271 -24.248 0.056
C 6.003 -23.486 0.609
C 4.666 -24.247 -1.441
C 4.706 -24.247 0.124
C 5.936 -23.486 -1.994
C 7.337 -24.249 2.64
C 4.774 -24.248 2.708
C 6.044 -23.487 2.175
C 7.165 -24.248 -4.092
C 5.896 -23.487 -3.56
C 4.598 -24.248 -4.024
C -3.037 -21.205 -1.752
C -2.97 -21.205 0.85
C -2.93 -21.207 2.416
C -3.078 -21.205 -3.319
C 0.823 -21.972 -1.337
C 0.864 -21.973 0.228
C -1.76 -23.479 -1.786
C -1.693 -23.48 0.816
C -0.404 -21.209 0.781
C -1.743 -21.969 -1.268
C -1.702 -21.969 0.297
C -0.472 -21.209 -1.821
C 0.932 -21.974 2.811
C -1.652 -23.481 2.383
C -1.635 -21.971 2.88
C -0.363 -21.211 2.348
C 0.755 -21.973 -3.92
C -1.801 -23.48 -3.353
C -0.513 -21.209 -3.387
C -1.81 -21.969 -3.851
C 2.1 -24.245 -1.371
C 2.141 -24.245 0.193
C 0.873 -23.483 0.747
C -0.465 -24.242 -1.302
C -0.425 -24.242 0.263
C 0.805 -23.483 -1.856
C 2.209 -24.246 2.777
C -0.357 -24.244 2.846
C 0.915 -23.484 2.313
C 2.032 -24.246 -3.955
C 0.764 -23.483 -3.422
C -0.533 -24.243 -3.885
C -8.167 -21.193 -1.621
C -8.105 -21.194 0.981
C -8.068 -21.196 2.548
C -8.204 -21.193 -3.187
C -4.308 -21.964 -1.2
C -4.269 -21.965 0.365
C -6.891 -23.469 -1.653
C -6.827 -23.469 0.95
C -5.538 -21.2 0.917
C -6.874 -21.959 -1.134
C -6.836 -21.959 0.431
C -5.602 -21.199 -1.685
C -4.203 -21.966 2.948
C -6.789 -23.471 2.516
C -6.773 -21.961 3.014
C -5.499 -21.202 2.483
C -4.374 -21.965 -3.783
C -6.929 -23.469 -3.219
C -5.641 -21.199 -3.252
C -6.937 -21.959 -3.717
C -3.031 -24.238 -1.233
C -2.991 -24.238 0.332
C -4.26 -23.475 0.884
C -5.597 -24.233 -1.166
C -5.558 -24.233 0.399
C -4.325 -23.475 -1.719
C -2.925 -24.239 2.915
C -5.494 -24.234 2.982
C -4.22 -23.476 2.451
C -3.098 -24.239 -3.817
C -4.365 -23.475 -3.285
C -5.662 -24.234 -3.75
C -13.296 -21.178 -1.504
C -13.241 -21.179 1.098
C -13.208 -21.181 2.665
C -13.329 -21.178 -3.071
C -9.439 -21.952 -1.071
C -9.403 -21.952 0.493
C -12.02 -23.455 -1.532
C -11.963 -23.455 1.071
C -10.673 -21.187 1.042
C -12.005 -21.944 -1.013
C -11.971 -21.945 0.552
C -10.731 -21.186 -1.561
C -9.343 -21.954 3.076
C -11.93 -23.457 2.638
C -11.915 -21.947 3.135
C -10.638 -21.189 2.608
C -9.5 -21.952 -3.655
C -12.054 -23.455 -3.098
C -10.767 -21.186 -3.127
C -12.061 -21.945 -3.597
C -8.162 -24.227 -1.102
C -8.125 -24.227 0.463
C -9.395 -23.463 1.013
C -10.728 -24.22 -1.041
C -10.693 -24.22 0.524
C -9.455 -23.462 -1.59
C -8.064 -24.228 3.046
C -10.635 -24.221 3.107
C -9.359 -23.464 2.579
C -8.224 -24.228 -3.686
C -9.492 -23.463 -3.157
C -10.786 -24.221 -3.625
C -18.423 -21.16 -1.406
C -18.376 -21.161 1.197
C -18.349 -21.163 2.763
C -18.451 -21.159 -2.973
C -14.569 -21.936 -0.959
C -14.538 -21.936 0.606
C -17.148 -23.437 -1.429
C -17.099 -23.438 1.174
C -15.809 -21.17 1.15
C -17.134 -21.927 -0.91
C -17.105 -21.927 0.655
C -15.859 -21.169 -1.453
C -14.486 -21.938 3.189
C -17.07 -23.439 2.741
C -17.057 -21.929 3.238
C -15.779 -21.172 2.716
C -14.622 -21.936 -3.543
C -17.177 -23.438 -2.995
C -15.89 -21.169 -3.019
C -17.182 -21.927 -3.494
C -13.293 -24.212 -0.985
C -13.26 -24.212 0.58
C -14.532 -23.447 1.125
C -15.858 -24.203 -0.933
C -15.828 -24.203 0.632
C -14.584 -23.447 -1.478
C -13.207 -24.213 3.163
C -15.778 -24.204 3.215
C -14.5 -23.448 2.692
C -13.348 -24.213 -3.569
C -14.616 -23.447 -3.044
C -15.908 -24.204 -3.518
C -19.698 -21.917 -0.866
C -19.671 -21.917 0.7
C -19.627 -21.919 3.283
C -19.743 -21.917 -3.449
C -18.423 -24.194 -0.887
C -18.395 -24.194 0.678
C -19.667 -23.428 1.219
C -19.712 -23.428 -1.384
C -18.349 -24.195 3.262
C -19.64 -23.429 2.786
C -18.469 -24.195 -3.471
C -19.739 -23.428 -2.951
H 26.535 -21.933 3.328
H 23.983 -21.944 3.366
H 26.406 -21.933 -5.589
H 23.838 -21.944 -5.549
H 27.805 -24.194 3.311
H 25.253 -24.208 3.347
H 27.684 -24.194 -5.607
H 25.117 -24.208 -5.57
H 31.639 -21.904 3.264
H 29.087 -21.919 3.294
H 31.539 -21.905 -5.654
H 28.973 -21.92 -5.624
H 32.909 -24.16 3.252
H 30.357 -24.178 3.279
H 32.816 -24.161 -5.668
H 30.25 -24.179 -5.639
H 36.744 -21.868 3.216
H 34.192 -21.886 3.238
H 36.668 -21.868 -5.704
H 34.104 -21.887 -5.681
H 38.015 -24.117 3.207
H 35.462 -24.14 3.228
H 37.943 -24.117 -5.714
H 35.38 -24.14 -5.693
H 39.297 -21.847 3.196
H 39.231 -21.846 -5.725
H 40.569 -24.093 3.188
H 40.505 -24.091 -5.733
H -1.606 -21.971 3.969
H -1.84 -21.969 -4.94
H -4.175 -21.966 4.037
H -6.746 -21.961 4.103
H -4.403 -21.965 -4.872
H -6.965 -21.959 -4.807
H -2.896 -24.239 4.005
H -5.466 -24.234 4.071
H -3.127 -24.24 -4.906
H -5.69 -24.235 -4.839
H -9.318 -21.954 4.166
H -11.891 -21.946 4.224
H -9.526 -21.952 -4.744
H -12.085 -21.945 -4.686
H -8.038 -24.228 4.136
H -10.611 -24.221 4.196
H -8.251 -24.229 -4.775
H -10.812 -24.222 -4.715
H -14.465 -21.938 4.279
H -17.038 -21.929 4.328
H -14.644 -21.936 -4.632
H -17.203 -21.927 -4.584
H -13.184 -24.213 4.253
H -15.758 -24.204 4.305
H -13.371 -24.214 -4.659
H -15.93 -24.205 -4.607
H -19.61 -21.919 4.373
H -19.761 -21.917 -4.539
H -18.331 -24.194 4.352
H -18.489 -24.196 -4.561
H 19.98 -24.228 -5.481
H 5.857 -21.977 -5.148
H 7.136 -24.249 -5.182
H 18.7 -21.961 -5.455
H 17.411 -24.236 -5.429
H 4.569 -24.248 -5.114
H 16.131 -21.967 -5.401
H 14.841 -24.241 -5.372
H 3.291 -21.975 -5.079
H 2.002 -24.247 -5.044
H 13.562 -21.972 -5.342
H 0.725 -21.973 -5.009
H 12.273 -24.245 -5.312
H -0.563 -24.244 -4.975
H 10.993 -21.975 -5.28
H 9.704 -24.248 -5.248
H 21.27 -21.954 -5.505
H 22.548 -24.219 -5.528
H 8.425 -21.976 -5.215
H 13.768 -21.973 3.569
H 11.21 -21.976 3.631
H 22.701 -24.219 3.388
H -0.328 -24.244 3.936
H 8.651 -21.977 3.696
H 20.149 -24.229 3.434
H 9.926 -24.248 3.664
H 7.365 -24.249 3.729
H 3.526 -21.976 3.831
H 4.803 -24.248 3.797
H 18.878 -21.962 3.458
H 16.323 -21.968 3.512
H 0.961 -21.974 3.9
H 15.04 -24.242 3.541
H 12.484 -24.246 3.6
H 21.431 -21.954 3.41
H 6.089 -21.977 3.763
H 17.595 -24.236 3.485
H 2.239 -24.247 3.867
C 41.82 -21.822 -2.065
C 41.83 -21.823 -0.5
C 41.844 -21.825 2.089
C 41.801 -21.82 -4.652
C 43.096 -24.064 -2.073
C 43.106 -24.066 -0.508
C 41.827 -23.324 0.021
C 41.81 -23.322 -2.585
C 43.115 -24.065 2.081
C 41.835 -23.324 1.587
C 43.073 -24.06 -4.661
C 41.796 -23.32 -4.152
C 43.097 -21.054 -2.593
C 43.112 -21.057 0.013
C 43.118 -21.057 1.58
C 43.085 -21.052 -4.159
C 44.372 -23.296 -2.602
C 44.387 -23.299 0.005
C 45.671 -21.035 0
C 44.381 -21.798 -2.08
C 44.389 -21.8 -0.515
C 45.659 -21.03 -2.607
C 44.389 -23.297 1.572
C 44.397 -21.8 2.074
C 45.671 -21.034 1.567
C 44.355 -23.291 -4.168
C 45.644 -21.024 -4.174
C 44.361 -21.792 -4.668
C 45.66 -24.036 -2.089
C 45.669 -24.039 -0.522
C 45.667 -24.033 2.073
C 45.628 -24.025 -4.684
H 41.85 -21.825 3.179
H 41.793 -21.821 -5.742
H 43.12 -24.065 3.171
H 43.064 -24.06 -5.751
H 44.401 -21.801 3.164
H 44.353 -21.791 -5.758
H 45.666 -24.031 3.163
H 45.615 -24.022 -5.774
C 46.946 -21.773 -2.094
C 46.952 -21.776 -0.527
C 46.947 -21.772 2.069
C 46.917 -21.76 -4.688
C 48.23 -24.009 -2.111
C 48.238 -24.012 -0.528
C 46.95 -23.273 -0.004
C 46.937 -23.269 -2.62
C 48.217 -23.997 2.091
C 46.943 -23.267 1.57
C 48.182 -23.986 -4.729
C 46.913 -23.258 -4.194
C 48.224 -21.007 -2.623
C 48.233 -21.013 -0.006
C 48.224 -21.009 1.568
C 48.201 -20.994 -4.197
C 49.481 -23.227 -2.675
C 49.494 -23.232 0.026
C 50.776 -20.978 0.027
C 49.515 -21.75 -2.113
C 49.521 -21.754 -0.53
C 50.768 -20.969 -2.674
C 49.479 -23.224 1.585
C 49.497 -21.742 2.09
C 50.76 -20.971 1.586
C 49.452 -23.212 -4.233
C 50.74 -20.952 -4.233
C 49.47 -21.724 -4.731
H 46.945 -21.771 3.159
H 46.905 -21.756 -5.779
H 48.22 -23.999 3.182
H 48.174 -23.984 -5.82
H 49.498 -21.744 3.18
H 49.463 -21.721 -5.822
H -21.048 -24.185 -4.518
C -54.308 -25.372 -0.857
C -54.27 -25.373 1.757
C -54.23 -25.365 3.331
C -54.316 -25.364 -2.431
C -50.46 -26.195 -0.391
C -50.435 -26.196 1.173
C -53.038 -27.65 -0.876
C -52.998 -27.651 1.739
C -51.703 -25.419 1.714
C -53.026 -26.151 -0.352
C -53.002 -26.151 1.214
C -51.743 -25.418 -0.892
C -50.388 -26.194 3.76
C -52.957 -27.643 3.312
C -52.946 -26.144 3.807
C -51.671 -25.417 3.28
C -50.494 -26.192 -2.979
C -53.047 -27.642 -2.45
C -51.76 -25.414 -2.458
C -53.049 -26.143 -2.946
C -49.188 -28.472 -0.413
C -49.163 -28.473 1.151
C -50.431 -27.696 1.693
C -51.755 -28.428 -0.372
C -51.73 -28.429 1.194
C -50.472 -27.695 -0.912
C -49.115 -28.472 3.738
C -51.672 -28.422 3.787
C -50.398 -27.694 3.26
C -49.224 -28.469 -3
C -50.49 -27.691 -2.479
C -51.78 -28.42 -2.966
C -49.18 -25.459 -0.932
C -49.139 -25.461 1.673
C -49.111 -25.461 3.239
C -49.202 -25.458 -2.499
C -45.335 -26.27 -0.477
C -45.31 -26.271 1.088
C -47.909 -27.736 -0.954
C -47.867 -27.738 1.651
C -46.577 -25.498 1.63
C -47.897 -26.235 -0.434
C -47.871 -26.236 1.131
C -46.619 -25.496 -0.975
C -45.267 -26.274 3.675
C -47.839 -27.738 3.217
C -47.828 -26.237 3.718
C -46.551 -25.499 3.197
C -45.377 -26.27 -3.063
C -47.932 -27.735 -2.52
C -46.644 -25.495 -2.542
C -47.937 -26.234 -3.02
C -44.063 -28.547 -0.498
C -44.038 -28.548 1.066
C -45.305 -27.774 1.608
C -46.625 -28.511 -0.455
C -46.599 -28.512 1.109
C -45.347 -27.773 -0.997
C -43.995 -28.55 3.653
C -46.555 -28.514 3.696
C -45.279 -27.776 3.175
C -44.104 -28.547 -3.085
C -45.372 -27.773 -2.564
C -46.665 -28.51 -3.042
C -44.058 -25.529 -1.019
C -44.016 -25.53 1.587
C -43.991 -25.532 3.154
C -44.084 -25.529 -2.585
C -40.213 -26.329 -0.562
C -40.188 -26.33 1.003
C -42.786 -27.805 -1.04
C -42.744 -27.807 1.566
C -41.456 -25.558 1.544
C -42.774 -26.302 -0.52
C -42.749 -26.302 1.045
C -41.498 -25.557 -1.061
C -40.148 -26.332 3.59
C -42.719 -27.808 3.132
C -42.707 -26.305 3.632
C -41.431 -25.56 3.111
C -40.255 -26.33 -3.148
C -42.811 -27.806 -2.607
C -41.523 -25.558 -2.628
C -42.816 -26.302 -3.106
C -38.94 -28.605 -0.582
C -38.916 -28.606 0.984
C -40.184 -27.835 1.524
C -41.502 -28.578 -0.541
C -41.477 -28.579 1.024
C -40.225 -27.834 -1.082
C -38.876 -28.607 3.57
C -41.436 -28.581 3.611
C -40.16 -27.836 3.091
C -38.98 -28.606 -3.168
C -40.25 -27.835 -2.649
C -41.543 -28.579 -3.127
C -38.937 -25.582 -1.103
C -38.896 -25.583 1.502
C -38.872 -25.584 3.069
C -38.962 -25.583 -2.67
C -35.091 -26.374 -0.642
C -35.067 -26.374 0.924
C -37.664 -27.859 -1.122
C -37.624 -27.859 1.484
C -36.336 -25.605 1.462
C -37.652 -26.353 -0.603
C -37.628 -26.354 0.962
C -36.376 -25.604 -1.143
C -35.029 -26.375 3.51
C -37.6 -27.86 3.05
C -37.588 -26.355 3.549
C -36.312 -25.606 3.029
C -35.129 -26.376 -3.227
C -37.688 -27.86 -2.689
C -36.4 -25.605 -2.71
C -37.692 -26.354 -3.189
C -33.817 -28.649 -0.658
C -33.793 -28.649 0.907
C -35.063 -27.88 1.445
C -36.379 -28.629 -0.621
C -36.355 -28.629 0.944
C -35.102 -27.881 -1.161
C -33.756 -28.649 3.493
C -36.316 -28.63 3.531
C -35.04 -27.881 3.011
C -33.855 -28.652 -3.244
C -35.126 -27.882 -2.727
C -36.418 -28.631 -3.207
C -33.814 -25.624 -1.181
C -33.775 -25.624 1.424
C -33.752 -25.624 2.991
C -33.838 -25.625 -2.747
C -29.966 -26.409 -0.714
C -29.943 -26.408 0.851
C -32.54 -27.9 -1.197
C -32.502 -27.899 1.408
C -31.214 -25.64 1.388
C -32.529 -26.392 -0.679
C -32.505 -26.392 0.887
C -31.252 -25.641 -1.217
C -29.906 -26.408 3.436
C -32.479 -27.899 2.975
C -32.468 -26.393 3.472
C -31.191 -25.641 2.954
C -30.003 -26.411 -3.299
C -32.563 -27.901 -2.764
C -31.275 -25.642 -2.784
C -32.566 -26.395 -3.264
C -28.692 -28.683 -0.729
C -28.668 -28.682 0.836
C -29.94 -27.915 1.372
C -31.254 -28.667 -0.694
C -31.231 -28.667 0.871
C -29.977 -27.916 -1.233
C -28.632 -28.682 3.421
C -31.195 -28.667 3.457
C -29.917 -27.916 2.939
C -28.729 -28.686 -3.315
C -30 -27.918 -2.799
C -31.292 -28.67 -3.28
C -28.689 -25.656 -1.252
C -28.651 -25.655 1.352
C -28.629 -25.656 2.919
C -28.712 -25.657 -2.819
C -24.84 -26.436 -0.785
C -24.815 -26.435 0.78
C -27.414 -27.931 -1.268
C -27.376 -27.93 1.337
C -26.088 -25.669 1.317
C -27.403 -26.423 -0.749
C -27.38 -26.423 0.816
C -26.126 -25.67 -1.287
C -24.777 -26.435 3.365
C -27.354 -27.93 2.904
C -27.343 -26.423 3.401
C -26.064 -25.669 2.884
C -24.879 -26.438 -3.37
C -27.438 -27.932 -2.834
C -26.15 -25.671 -2.854
C -27.441 -26.425 -3.334
C -23.564 -28.709 -0.802
C -23.539 -28.708 0.764
C -24.812 -27.943 1.301
C -26.128 -28.697 -0.765
C -26.104 -28.696 0.8
C -24.851 -27.944 -1.304
C -23.5 -28.708 3.349
C -26.067 -28.696 3.386
C -24.788 -27.943 2.868
C -23.604 -28.712 -3.387
C -24.875 -27.945 -2.87
C -26.166 -28.699 -3.35
C -23.563 -25.682 -1.324
C -23.523 -25.681 1.28
C -23.498 -25.682 2.847
C -23.588 -25.683 -2.89
C -22.288 -27.956 -1.341
C -22.246 -27.955 1.263
C -20.957 -25.692 1.241
C -22.276 -26.448 -0.823
C -22.25 -26.447 0.742
C -21 -25.693 -1.363
C -22.221 -27.955 2.83
C -22.21 -26.447 3.327
C -20.931 -25.693 2.808
C -22.313 -27.957 -2.908
C -21.026 -25.694 -2.929
C -22.317 -26.45 -3.408
C -21 -28.72 -0.841
C -20.973 -28.719 0.724
C -20.931 -28.719 3.309
C -21.043 -28.723 -3.426
C -55.598 -26.103 -0.322
C -55.574 -26.104 1.261
C -56.815 -25.309 1.835
C -56.854 -25.308 -0.863
C -55.501 -26.086 3.877
C -56.771 -25.298 3.393
C -55.603 -26.085 -2.939
C -56.856 -25.296 -2.422
C -54.327 -28.381 -0.34
C -54.302 -28.382 1.243
C -55.543 -27.587 1.819
C -55.584 -27.586 -0.879
C -54.227 -28.364 3.859
C -55.497 -27.576 3.378
C -54.334 -28.363 -2.957
C -55.587 -27.574 -2.438
H -35.013 -26.375 4.599
H -37.572 -26.355 4.639
H -35.146 -26.377 -4.317
H -37.71 -26.355 -4.279
H -33.741 -28.649 4.583
H -36.3 -28.63 4.621
H -33.871 -28.653 -4.334
H -36.434 -28.632 -4.297
H -29.892 -26.408 4.526
H -32.453 -26.392 4.562
H -30.019 -26.412 -4.389
H -32.582 -26.396 -4.354
H -28.617 -28.681 4.511
H -31.18 -28.666 4.547
H -28.744 -28.687 -4.405
H -31.307 -28.672 -4.37
H -24.762 -26.435 4.455
H -27.328 -26.422 4.491
H -24.895 -26.439 -4.46
H -27.456 -26.427 -4.424
H -23.484 -28.707 4.438
H -26.052 -28.695 4.475
H -23.621 -28.713 -4.477
H -26.182 -28.701 -4.44
H -22.193 -26.447 4.417
H -22.334 -26.451 -4.498
H -20.914 -28.719 4.399
H -41.561 -28.58 -4.217
H -55.616 -26.087 -4.029
H -54.348 -28.364 -4.047
H -42.835 -26.303 -4.196
H -44.123 -28.548 -4.175
H -45.396 -26.271 -4.153
H -46.683 -28.512 -4.132
H -47.955 -26.235 -4.11
H -49.241 -28.469 -4.09
H -50.511 -26.192 -4.069
H -51.791 -28.418 -4.056
H -40.273 -26.331 -4.238
H -38.998 -28.608 -4.258
H -53.06 -26.141 -4.036
H -47.81 -26.239 4.808
H -50.369 -26.196 4.85
H -38.859 -28.607 4.66
H -52.923 -26.142 4.897
H -41.418 -28.582 4.701
H -51.648 -28.42 4.877
H -54.208 -28.364 4.949
H -42.689 -26.306 4.722
H -45.249 -26.275 4.765
H -46.537 -28.516 4.786
H -49.096 -28.473 4.828
H -40.13 -26.332 4.68
H -55.483 -26.085 4.967
H -43.977 -28.551 4.743
C 7.215 -25.757 -2.028
C 7.281 -25.757 0.576
C 7.321 -25.757 2.142
C 7.175 -25.757 -3.594
C 11.074 -26.515 -1.607
C 11.112 -26.515 -0.042
C 8.494 -28.024 -2.062
C 8.559 -28.024 0.542
C 9.844 -25.756 0.509
C 8.509 -26.516 -1.542
C 8.548 -26.517 0.023
C 9.78 -25.756 -2.094
C 11.174 -26.516 2.542
C 8.599 -28.025 2.109
C 8.614 -26.518 2.607
C 9.882 -25.756 2.076
C 11.011 -26.516 -4.191
C 8.455 -28.025 -3.628
C 9.741 -25.757 -3.661
C 8.444 -26.518 -4.126
C 12.354 -28.781 -1.639
C 12.39 -28.781 -0.074
C 11.122 -28.023 0.477
C 9.789 -28.783 -1.575
C 9.827 -28.783 -0.01
C 11.059 -28.023 -2.127
C 12.451 -28.782 2.511
C 9.891 -28.784 2.575
C 11.16 -28.024 2.044
C 12.292 -28.782 -4.223
C 11.021 -28.024 -3.693
C 9.725 -28.784 -4.159
C 12.345 -25.753 -2.158
C 12.406 -25.753 0.446
C 12.443 -25.754 2.012
C 12.308 -25.754 -3.725
C 16.202 -26.507 -1.728
C 16.235 -26.507 -0.163
C 13.624 -28.02 -2.189
C 13.683 -28.02 0.415
C 14.966 -25.749 0.386
C 13.638 -26.512 -1.669
C 13.674 -26.512 -0.105
C 14.909 -25.749 -2.219
C 16.291 -26.508 2.423
C 13.719 -28.02 1.982
C 13.733 -26.513 2.481
C 15.001 -25.75 1.952
C 16.146 -26.508 -4.312
C 13.588 -28.021 -3.756
C 14.874 -25.75 -3.785
C 13.579 -26.513 -4.254
C 17.481 -28.771 -1.756
C 17.513 -28.771 -0.191
C 16.244 -28.015 0.357
C 14.917 -28.777 -1.699
C 14.952 -28.777 -0.134
C 16.188 -28.015 -2.248
C 17.566 -28.772 2.396
C 15.009 -28.778 2.451
C 16.277 -28.015 1.923
C 17.427 -28.772 -4.341
C 16.154 -28.016 -3.814
C 14.86 -28.778 -4.284
C 17.473 -25.743 -2.275
C 17.526 -25.744 0.33
C 17.559 -25.744 1.896
C 17.44 -25.745 -3.841
C 21.327 -26.491 -1.831
C 21.355 -26.491 -0.266
C 18.751 -28.007 -2.302
C 18.803 -28.007 0.303
C 20.085 -25.736 0.278
C 18.764 -26.5 -1.782
C 18.795 -26.5 -0.217
C 20.036 -25.736 -2.326
C 21.402 -26.492 2.321
C 18.834 -28.008 1.87
C 18.847 -26.501 2.369
C 20.115 -25.736 1.845
C 21.28 -26.492 -4.416
C 18.72 -28.009 -3.868
C 20.006 -25.737 -3.893
C 18.713 -26.501 -4.366
C 22.605 -28.752 -1.854
C 22.632 -28.752 -0.289
C 21.361 -27.998 0.254
C 20.043 -28.762 -1.807
C 20.072 -28.763 -0.242
C 21.314 -27.998 -2.351
C 22.676 -28.753 2.298
C 20.121 -28.764 2.344
C 21.389 -27.998 1.821
C 22.561 -28.753 -4.439
C 21.286 -28 -3.918
C 19.994 -28.764 -4.392
C 22.599 -25.726 -2.373
C 22.643 -25.726 0.232
C 22.67 -25.726 1.799
C 22.572 -25.727 -3.94
C 26.449 -26.466 -1.914
C 26.472 -26.466 -0.349
C 23.877 -27.986 -2.395
C 23.919 -27.986 0.211
C 25.201 -25.714 0.191
C 23.888 -26.48 -1.875
C 23.914 -26.48 -0.31
C 25.161 -25.714 -2.415
C 26.509 -26.467 2.239
C 23.944 -27.987 1.777
C 23.956 -26.481 2.277
C 25.225 -25.714 1.757
C 26.412 -26.468 -4.499
C 23.851 -27.988 -3.962
C 25.137 -25.715 -3.981
C 23.846 -26.481 -4.46
C 27.727 -28.722 -1.932
C 27.748 -28.722 -0.366
C 26.476 -27.972 0.172
C 25.166 -28.738 -1.895
C 25.19 -28.738 -0.33
C 26.438 -27.972 -2.434
C 27.783 -28.723 2.221
C 25.23 -28.739 2.257
C 26.499 -27.972 1.739
C 27.692 -28.724 -4.518
C 26.416 -27.974 -4.001
C 25.127 -28.74 -4.481
C 27.722 -25.699 -2.451
C 27.758 -25.699 0.154
C 27.779 -25.7 1.721
C 27.701 -25.701 -4.018
C 31.57 -26.431 -1.978
C 31.588 -26.431 -0.412
C 28.999 -27.955 -2.468
C 29.033 -27.955 0.138
C 30.315 -25.682 0.123
C 29.01 -26.45 -1.948
C 29.03 -26.45 -0.383
C 30.283 -25.683 -2.484
C 31.617 -26.432 2.176
C 29.053 -27.955 1.705
C 29.063 -26.451 2.205
C 30.334 -25.683 1.689
C 31.541 -26.433 -4.564
C 28.979 -27.957 -4.035
C 30.264 -25.684 -4.05
C 28.977 -26.452 -4.534
C 32.847 -28.681 -1.991
C 32.864 -28.681 -0.426
C 31.59 -27.935 0.109
C 30.287 -28.703 -1.963
C 30.306 -28.703 -0.398
C 31.56 -27.935 -2.498
C 32.892 -28.682 2.163
C 30.337 -28.704 2.19
C 31.608 -27.935 1.675
C 32.82 -28.683 -4.578
C 31.542 -27.937 -4.065
C 30.256 -28.705 -4.55
C 32.844 -25.663 -2.511
C 32.872 -25.663 0.095
C 32.888 -25.664 1.662
C 32.827 -25.665 -4.078
C 36.69 -26.386 -2.026
C 36.704 -26.387 -0.461
C 34.121 -27.913 -2.524
C 34.147 -27.913 0.083
C 35.429 -25.642 0.071
C 34.13 -26.41 -2.003
C 34.146 -26.41 -0.438
C 35.404 -25.642 -2.536
C 36.726 -26.387 2.127
C 34.163 -27.913 1.65
C 34.171 -26.411 2.15
C 35.443 -25.642 1.638
C 36.667 -26.387 -4.614
C 34.105 -27.914 -4.091
C 35.389 -25.643 -4.103
C 34.104 -26.411 -4.591
C 37.968 -28.629 -2.037
C 37.982 -28.629 -0.472
C 36.705 -27.888 0.06
C 35.408 -28.657 -2.015
C 35.423 -28.657 -0.45
C 36.681 -27.888 -2.547
C 38.002 -28.63 2.117
C 35.446 -28.657 2.139
C 36.718 -27.888 1.627
C 37.944 -28.629 -4.624
C 36.666 -27.888 -4.113
C 35.382 -28.658 -4.603
C 37.964 -25.617 -2.557
C 37.986 -25.618 0.049
C 37.998 -25.618 1.616
C 37.95 -25.618 -4.124
C 39.242 -27.86 -2.567
C 39.264 -27.86 0.039
C 40.545 -25.592 0.03
C 39.25 -26.36 -2.046
C 39.263 -26.36 -0.482
C 40.525 -25.591 -2.576
C 39.273 -27.86 1.606
C 39.281 -26.361 2.107
C 40.553 -25.591 1.596
C 39.227 -27.859 -4.133
C 40.51 -25.59 -4.143
C 39.228 -26.359 -4.634
C 40.531 -28.599 -2.056
C 40.543 -28.6 -0.492
C 40.556 -28.598 2.097
C 40.504 -28.596 -4.644
C 2.084 -25.754 -1.89
C 2.152 -25.754 0.713
C 2.193 -25.755 2.279
C 2.042 -25.755 -3.456
C 5.944 -26.517 -1.475
C 5.984 -26.517 0.09
C 3.363 -28.023 -1.925
C 3.431 -28.023 0.679
C 4.717 -25.756 0.644
C 3.379 -26.515 -1.406
C 3.42 -26.516 0.159
C 4.649 -25.756 -1.96
C 6.052 -26.518 2.674
C 3.472 -28.024 2.245
C 3.488 -26.517 2.743
C 4.758 -25.757 2.21
C 5.877 -26.518 -4.058
C 3.322 -28.024 -3.491
C 4.608 -25.757 -3.526
C 3.311 -26.517 -3.989
C 7.224 -28.784 -1.508
C 7.264 -28.784 0.056
C 5.996 -28.025 0.61
C 4.658 -28.783 -1.44
C 4.699 -28.783 0.125
C 5.929 -28.024 -1.994
C 7.33 -28.785 2.641
C 4.767 -28.784 2.71
C 6.036 -28.025 2.176
C 7.158 -28.785 -4.093
C 5.888 -28.025 -3.56
C 4.591 -28.784 -4.024
C -3.048 -25.747 -1.752
C -2.981 -25.747 0.851
C -2.941 -25.748 2.418
C -3.088 -25.748 -3.318
C 0.813 -26.513 -1.336
C 0.854 -26.513 0.229
C -1.769 -28.017 -1.786
C -1.702 -28.017 0.818
C -0.414 -25.751 0.783
C -1.753 -26.509 -1.267
C -1.712 -26.509 0.298
C -0.482 -25.751 -1.821
C 0.922 -26.514 2.813
C -1.661 -28.018 2.384
C -1.645 -26.51 2.882
C -0.373 -25.752 2.349
C 0.745 -26.514 -3.92
C -1.81 -28.018 -3.352
C -0.523 -25.752 -3.387
C -1.82 -26.511 -3.851
C 2.093 -28.781 -1.37
C 2.133 -28.781 0.195
C 0.865 -28.021 0.749
C -0.473 -28.778 -1.301
C -0.433 -28.778 0.264
C 0.797 -28.021 -1.855
C 2.202 -28.782 2.779
C -0.365 -28.779 2.849
C 0.906 -28.022 2.315
C 2.024 -28.782 -3.955
C 0.756 -28.022 -3.421
C -0.542 -28.779 -3.885
C -8.178 -25.736 -1.621
C -8.117 -25.736 0.983
C -8.079 -25.737 2.549
C -8.216 -25.737 -3.187
C -4.319 -26.505 -1.199
C -4.279 -26.505 0.366
C -6.9 -28.007 -1.652
C -6.837 -28.007 0.952
C -5.549 -25.742 0.918
C -6.885 -26.499 -1.133
C -6.847 -26.499 0.432
C -5.613 -25.742 -1.685
C -4.214 -26.506 2.95
C -6.799 -28.008 2.518
C -6.784 -26.5 3.016
C -5.51 -25.743 2.485
C -4.385 -26.506 -3.783
C -6.939 -28.008 -3.218
C -5.652 -25.743 -3.251
C -6.948 -26.501 -3.717
C -3.04 -28.774 -1.232
C -3 -28.774 0.333
C -4.269 -28.012 0.886
C -5.606 -28.769 -1.164
C -5.567 -28.768 0.4
C -4.335 -28.013 -1.717
C -2.933 -28.775 2.917
C -5.503 -28.769 2.984
C -4.229 -28.013 2.453
C -3.107 -28.775 -3.816
C -4.375 -28.013 -3.284
C -5.671 -28.77 -3.749
C -13.308 -25.721 -1.504
C -13.253 -25.721 1.1
C -13.221 -25.722 2.666
C -13.341 -25.722 -3.07
C -9.451 -26.493 -1.07
C -9.414 -26.492 0.495
C -12.031 -27.993 -1.53
C -11.974 -27.993 1.074
C -10.685 -25.729 1.043
C -12.016 -26.485 -1.012
C -11.982 -26.485 0.553
C -10.743 -25.729 -1.56
C -9.355 -26.493 3.078
C -11.94 -27.993 2.64
C -11.926 -26.486 3.137
C -10.65 -25.73 2.61
C -9.511 -26.494 -3.655
C -12.065 -27.994 -3.097
C -10.779 -25.73 -3.126
C -12.073 -26.487 -3.596
C -8.172 -28.763 -1.1
C -8.135 -28.762 0.465
C -9.405 -28 1.015
C -10.738 -28.756 -1.039
C -10.703 -28.755 0.526
C -9.466 -28.001 -1.589
C -8.073 -28.763 3.049
C -10.645 -28.756 3.11
C -9.369 -28.001 2.581
C -8.234 -28.764 -3.685
C -9.502 -28.001 -3.155
C -10.797 -28.758 -3.624
C -18.436 -25.703 -1.405
C -18.389 -25.703 1.199
C -18.361 -25.704 2.765
C -18.464 -25.704 -2.972
C -14.582 -26.477 -0.958
C -14.55 -26.477 0.607
C -17.16 -27.976 -1.427
C -17.111 -27.975 1.177
C -15.822 -25.712 1.152
C -17.147 -26.468 -0.908
C -17.117 -26.468 0.657
C -15.872 -25.713 -1.452
C -14.498 -26.477 3.191
C -17.082 -27.976 2.744
C -17.07 -26.468 3.241
C -15.791 -25.713 2.718
C -14.634 -26.479 -3.542
C -17.189 -27.977 -2.993
C -15.903 -25.713 -3.019
C -17.195 -26.47 -3.493
C -13.304 -28.748 -0.983
C -13.271 -28.747 0.582
C -14.543 -27.984 1.128
C -15.87 -28.74 -0.931
C -15.839 -28.739 0.634
C -14.595 -27.985 -1.476
C -13.217 -28.748 3.166
C -15.789 -28.739 3.218
C -14.511 -27.985 2.694
C -13.358 -28.75 -3.568
C -14.627 -27.986 -3.043
C -15.92 -28.742 -3.516
C -19.711 -26.458 -0.864
C -19.684 -26.458 0.702
C -19.64 -26.458 3.286
C -19.756 -26.46 -3.448
C -18.435 -28.73 -0.884
C -18.406 -28.729 0.681
C -19.679 -27.965 1.222
C -19.724 -27.966 -1.382
C -18.36 -28.73 3.266
C -19.652 -27.966 2.789
C -18.481 -28.732 -3.469
C -19.751 -27.967 -2.949
H 26.524 -26.468 3.329
H 23.973 -26.482 3.367
H 26.396 -26.468 -5.589
H 23.828 -26.481 -5.55
H 27.797 -28.724 3.311
H 25.246 -28.74 3.347
H 27.677 -28.725 -5.608
H 25.109 -28.741 -5.571
H 31.628 -26.433 3.266
H 29.076 -26.452 3.295
H 31.529 -26.433 -5.654
H 28.963 -26.452 -5.624
H 32.902 -28.683 3.253
H 30.349 -28.705 3.28
H 32.808 -28.684 -5.668
H 30.243 -28.706 -5.64
H 36.735 -26.388 3.218
H 34.181 -26.412 3.24
H 36.657 -26.388 -5.704
H 34.093 -26.412 -5.681
H 38.01 -28.631 3.207
H 35.455 -28.659 3.229
H 37.935 -28.63 -5.714
H 35.372 -28.659 -5.693
H 39.288 -26.362 3.197
H 39.219 -26.36 -5.724
H 40.562 -28.599 3.188
H 40.494 -28.597 -5.734
H -1.616 -26.511 3.971
H -1.85 -26.512 -4.94
H -4.185 -26.506 4.039
H -6.757 -26.5 4.105
H -4.413 -26.507 -4.872
H -6.976 -26.502 -4.807
H -2.904 -28.775 4.007
H -5.475 -28.77 4.074
H -3.136 -28.777 -4.906
H -5.699 -28.772 -4.839
H -9.329 -26.493 4.168
H -11.903 -26.486 4.227
H -9.537 -26.495 -4.744
H -12.097 -26.488 -4.686
H -8.047 -28.763 4.139
H -10.62 -28.756 4.199
H -8.261 -28.766 -4.774
H -10.822 -28.759 -4.714
H -14.476 -26.477 4.281
H -17.05 -26.468 4.331
H -14.656 -26.48 -4.632
H -17.215 -26.471 -4.583
H -13.194 -28.748 4.256
H -15.768 -28.739 4.308
H -13.382 -28.751 -4.658
H -15.941 -28.743 -4.606
H -19.622 -26.458 4.376
H -19.774 -26.461 -4.538
H -18.342 -28.729 4.356
H -18.501 -28.734 -4.559
H 19.973 -28.764 -5.482
H 5.848 -26.518 -5.148
H 7.129 -28.786 -5.182
H 18.691 -26.501 -5.456
H 17.404 -28.772 -5.43
H 4.561 -28.785 -5.114
H 16.122 -26.508 -5.402
H 14.835 -28.778 -5.374
H 3.281 -26.517 -5.079
H 1.995 -28.783 -5.044
H 13.553 -26.513 -5.343
H 0.715 -26.515 -5.009
H 12.266 -28.782 -5.313
H -0.571 -28.78 -4.974
H 10.984 -26.516 -5.281
H 9.697 -28.785 -5.249
H 21.26 -26.492 -5.505
H 22.541 -28.754 -5.529
H 8.416 -26.518 -5.216
H 13.759 -26.514 3.57
H 11.201 -26.517 3.632
H 22.694 -28.754 3.388
H -0.336 -28.779 3.938
H 8.642 -26.518 3.697
H 20.142 -28.764 3.434
H 9.919 -28.785 3.665
H 7.358 -28.786 3.731
H 3.517 -26.517 3.833
H 4.796 -28.785 3.799
H 18.868 -26.502 3.459
H 16.314 -26.509 3.513
H 0.951 -26.514 3.902
H 15.034 -28.779 3.541
H 12.477 -28.783 3.601
H 21.421 -26.493 3.411
H 6.08 -26.518 3.764
H 17.589 -28.773 3.485
H 2.231 -28.783 3.869
C 41.812 -26.331 -2.065
C 41.823 -26.332 -0.5
C 41.835 -26.331 2.089
C 41.787 -26.328 -4.653
C 43.096 -28.568 -2.075
C 43.107 -28.569 -0.508
C 41.825 -27.831 0.021
C 41.805 -27.83 -2.586
C 43.109 -28.562 2.087
C 41.829 -27.828 1.588
C 43.06 -28.558 -4.67
C 41.786 -27.826 -4.153
C 43.088 -25.562 -2.594
C 43.105 -25.564 0.013
C 43.108 -25.562 1.58
C 43.069 -25.558 -4.161
C 44.371 -27.798 -2.608
C 44.389 -27.8 0.008
C 45.669 -25.535 0.001
C 44.377 -26.301 -2.083
C 44.387 -26.303 -0.516
C 45.653 -25.532 -2.615
C 44.383 -27.792 1.582
C 44.387 -26.296 2.079
C 45.663 -25.528 1.575
C 44.344 -27.789 -4.182
C 45.627 -25.523 -4.189
C 44.343 -26.291 -4.677
C 45.667 -28.535 -2.101
C 45.677 -28.536 -0.517
C 45.661 -28.52 2.101
C 45.615 -28.515 -4.718
H 41.841 -26.332 3.179
H 41.778 -26.328 -5.743
H 43.11 -28.56 3.177
H 43.046 -28.556 -5.76
H 44.387 -26.295 3.17
H 44.33 -26.289 -5.767
H 45.665 -28.521 3.192
H 45.604 -28.514 -5.809
C 46.948 -26.271 -2.107
C 46.957 -26.273 -0.524
C 46.939 -26.257 2.095
C 46.897 -26.25 -4.725
C 46.933 -27.752 0.034
C 46.915 -27.75 -2.666
C 46.921 -27.742 1.593
C 46.883 -27.737 -4.225
C 48.197 -25.487 -2.672
C 48.213 -25.491 0.029
C 48.2 -25.481 1.588
C 48.166 -25.473 -4.23
H 46.942 -26.258 3.186
H 46.888 -26.249 -5.815
H -21.06 -28.724 -4.516
C -54.313 -29.864 -0.897
C -54.27 -29.865 1.801
C -54.223 -29.854 3.359
C -54.317 -29.852 -2.456
C -50.483 -30.705 -0.394
C -50.457 -30.706 1.173
C -53.041 -32.141 -0.918
C -52.997 -32.143 1.78
C -51.725 -29.928 1.718
C -53.055 -30.658 -0.36
C -53.029 -30.659 1.223
C -51.767 -29.927 -0.896
C -50.399 -30.699 3.766
C -52.95 -32.132 3.338
C -52.953 -30.642 3.839
C -51.684 -29.921 3.292
C -50.508 -30.696 -2.987
C -53.045 -32.129 -2.477
C -51.777 -29.919 -2.47
C -53.063 -30.64 -2.977
C -49.21 -32.981 -0.416
C -49.184 -32.982 1.151
C -50.452 -32.205 1.696
C -51.782 -32.935 -0.382
C -51.756 -32.936 1.201
C -50.495 -32.203 -0.918
C -49.125 -32.977 3.744
C -51.679 -32.921 3.817
C -50.41 -32.198 3.27
C -49.236 -32.97 -3.01
C -50.505 -32.194 -2.492
C -51.791 -32.916 -2.999
C -49.2 -29.972 -0.934
C -49.158 -29.973 1.672
C -49.125 -29.971 3.238
C -49.219 -29.968 -2.501
C -45.352 -30.787 -0.477
C -45.327 -30.788 1.087
C -47.928 -32.247 -0.956
C -47.885 -32.25 1.649
C -46.594 -30.014 1.629
C -47.916 -30.748 -0.435
C -47.891 -30.749 1.13
C -46.637 -30.012 -0.976
C -45.283 -30.79 3.674
C -47.852 -32.248 3.216
C -47.842 -30.749 3.717
C -46.566 -30.015 3.195
C -45.392 -30.786 -3.064
C -47.946 -32.243 -2.523
C -46.659 -30.011 -2.542
C -47.952 -30.744 -3.022
C -44.079 -33.061 -0.499
C -44.054 -33.063 1.066
C -45.322 -32.29 1.607
C -46.643 -33.023 -0.457
C -46.618 -33.025 1.107
C -45.363 -32.287 -0.998
C -44.011 -33.066 3.653
C -46.57 -33.025 3.694
C -45.294 -32.29 3.173
C -44.118 -33.059 -3.086
C -45.386 -32.286 -2.564
C -46.678 -33.018 -3.045
C -44.074 -30.049 -1.019
C -44.033 -30.05 1.587
C -44.007 -30.052 3.153
C -44.099 -30.049 -2.585
C -40.228 -30.853 -0.56
C -40.204 -30.854 1.005
C -42.801 -32.323 -1.04
C -42.76 -32.325 1.566
C -41.472 -30.082 1.545
C -42.79 -30.822 -0.519
C -42.765 -30.823 1.045
C -41.513 -30.081 -1.061
C -40.164 -30.856 3.592
C -42.735 -32.327 3.132
C -42.724 -30.825 3.633
C -41.447 -30.084 3.112
C -40.268 -30.854 -3.148
C -42.825 -32.323 -2.607
C -41.538 -30.082 -2.627
C -42.831 -30.822 -3.107
C -38.955 -33.126 -0.579
C -38.931 -33.127 0.986
C -40.199 -32.357 1.526
C -41.517 -33.096 -0.54
C -41.492 -33.097 1.025
C -40.239 -32.355 -1.081
C -38.892 -33.129 3.573
C -41.452 -33.1 3.613
C -40.175 -32.358 3.092
C -38.993 -33.126 -3.167
C -40.263 -32.355 -2.647
C -41.556 -33.095 -3.127
C -38.951 -30.109 -1.101
C -38.912 -30.11 1.505
C -38.888 -30.111 3.071
C -38.976 -30.11 -2.668
C -35.105 -30.903 -0.638
C -35.081 -30.903 0.928
C -37.677 -32.383 -1.119
C -37.639 -32.384 1.487
C -36.351 -30.134 1.466
C -37.667 -30.879 -0.6
C -37.643 -30.88 0.965
C -36.39 -30.134 -1.14
C -35.044 -30.903 3.514
C -37.616 -32.385 3.054
C -37.604 -30.881 3.552
C -36.328 -30.135 3.033
C -35.143 -30.905 -3.224
C -37.701 -32.384 -2.686
C -36.413 -30.135 -2.707
C -37.706 -30.881 -3.187
C -33.831 -33.174 -0.653
C -33.808 -33.174 0.912
C -35.078 -32.407 1.45
C -36.393 -33.152 -0.617
C -36.37 -33.153 0.948
C -35.116 -32.407 -1.157
C -33.772 -33.175 3.499
C -36.332 -33.154 3.535
C -35.055 -32.407 3.016
C -33.868 -33.176 -3.24
C -35.139 -32.408 -2.723
C -36.431 -33.153 -3.204
C -33.828 -30.155 -1.177
C -33.79 -30.155 1.429
C -33.767 -30.155 2.995
C -33.851 -30.157 -2.744
C -29.98 -30.94 -0.709
C -29.957 -30.939 0.856
C -32.553 -32.427 -1.192
C -32.516 -32.427 1.414
C -31.228 -30.172 1.393
C -32.543 -30.922 -0.674
C -32.52 -30.922 0.891
C -31.265 -30.173 -1.213
C -29.92 -30.939 3.442
C -32.494 -32.427 2.98
C -32.483 -30.922 3.478
C -31.206 -30.173 2.959
C -30.017 -30.942 -3.296
C -32.576 -32.429 -2.759
C -31.288 -30.175 -2.779
C -32.58 -30.925 -3.26
C -28.705 -33.209 -0.724
C -28.682 -33.209 0.841
C -29.954 -32.443 1.378
C -31.268 -33.193 -0.689
C -31.245 -33.193 0.877
C -29.991 -32.444 -1.228
C -28.645 -33.208 3.428
C -31.209 -33.193 3.463
C -29.931 -32.444 2.945
C -28.742 -33.212 -3.311
C -30.013 -32.446 -2.794
C -31.305 -33.195 -3.276
C -28.703 -30.189 -1.248
C -28.665 -30.188 1.358
C -28.642 -30.188 2.924
C -28.726 -30.191 -2.814
C -24.852 -30.967 -0.78
C -24.828 -30.967 0.785
C -27.427 -32.459 -1.263
C -27.39 -32.458 1.343
C -26.101 -30.202 1.322
C -27.416 -30.954 -0.744
C -27.393 -30.954 0.821
C -26.139 -30.203 -1.283
C -24.79 -30.966 3.37
C -27.367 -32.458 2.91
C -27.356 -30.953 3.407
C -26.077 -30.202 2.889
C -24.891 -30.97 -3.367
C -27.451 -32.461 -2.829
C -26.163 -30.205 -2.85
C -27.454 -30.957 -3.331
C -23.576 -33.235 -0.797
C -23.551 -33.234 0.769
C -24.824 -32.471 1.307
C -26.141 -33.223 -0.759
C -26.117 -33.222 0.806
C -24.864 -32.472 -1.299
C -23.512 -33.234 3.354
C -26.08 -33.222 3.392
C -24.8 -32.471 2.873
C -23.616 -33.238 -3.383
C -24.888 -32.474 -2.866
C -26.179 -33.226 -3.346
C -23.576 -30.216 -1.32
C -23.535 -30.214 1.285
C -23.511 -30.214 2.852
C -23.601 -30.217 -2.887
C -22.3 -32.484 -1.337
C -22.258 -32.483 1.268
C -20.968 -30.225 1.245
C -22.288 -30.979 -0.819
C -22.262 -30.978 0.747
C -21.012 -30.227 -1.359
C -22.232 -32.483 2.835
C -22.221 -30.978 3.332
C -20.942 -30.226 2.812
C -22.325 -32.485 -2.904
C -21.038 -30.228 -2.926
C -22.329 -30.982 -3.405
C -21.011 -33.246 -0.837
C -20.984 -33.245 0.729
C -20.942 -33.245 3.314
C -21.054 -33.248 -3.423
H -35.028 -30.903 4.604
H -37.588 -30.882 4.642
H -35.159 -30.907 -4.314
H -37.722 -30.883 -4.277
H -33.756 -33.175 4.589
H -36.316 -33.155 4.625
H -33.883 -33.178 -4.33
H -36.446 -33.155 -4.294
H -29.906 -30.938 4.532
H -32.468 -30.922 4.568
H -30.032 -30.945 -4.385
H -32.595 -30.927 -4.35
H -28.631 -33.208 4.518
H -31.195 -33.193 4.553
H -28.757 -33.214 -4.401
H -31.32 -33.198 -4.366
H -24.774 -30.966 4.46
H -27.341 -30.953 4.496
H -24.907 -30.972 -4.456
H -27.469 -30.959 -4.42
H -23.495 -33.234 4.444
H -26.064 -33.222 4.482
H -23.633 -33.24 -4.473
H -26.195 -33.228 -4.436
H -22.205 -30.978 4.422
H -22.346 -30.984 -4.494
H -20.924 -33.245 4.404
H -41.573 -33.097 -4.217
H -42.848 -30.823 -4.197
H -44.136 -33.061 -4.176
H -45.41 -30.787 -4.154
H -46.695 -33.019 -4.135
H -47.969 -30.745 -4.112
H -49.247 -32.968 -4.1
H -50.52 -30.694 -4.077
H -51.807 -32.916 -4.089
H -40.286 -30.855 -4.237
H -39.01 -33.128 -4.257
H -53.078 -30.641 -4.067
H -47.823 -30.751 4.806
H -50.374 -30.699 4.856
H -38.876 -33.13 4.663
H -52.933 -30.643 4.929
H -41.434 -33.102 4.702
H -51.658 -32.922 4.907
H -42.706 -30.827 4.723
H -45.265 -30.792 4.764
H -46.55 -33.027 4.784
H -49.101 -32.976 4.834
H -40.147 -30.856 4.682
H -43.993 -33.068 4.743
C 7.209 -30.29 -2.028
C 7.275 -30.29 0.576
C 7.315 -30.291 2.142
C 7.169 -30.291 -3.594
C 11.07 -31.047 -1.608
C 11.107 -31.047 -0.043
C 8.491 -32.553 -2.062
C 8.556 -32.553 0.543
C 9.839 -30.29 0.51
C 8.505 -31.048 -1.542
C 8.544 -31.048 0.023
C 9.775 -30.289 -2.095
C 11.17 -31.048 2.543
C 8.596 -32.554 2.109
C 8.609 -31.05 2.608
C 9.877 -30.29 2.076
C 11.007 -31.048 -4.193
C 8.452 -32.554 -3.629
C 9.736 -30.291 -3.661
C 8.439 -31.049 -4.127
C 12.352 -33.308 -1.64
C 12.388 -33.308 -0.075
C 11.119 -32.552 0.477
C 9.787 -33.31 -1.576
C 9.825 -33.31 -0.011
C 11.057 -32.552 -2.128
C 12.449 -33.309 2.512
C 9.889 -33.311 2.575
C 11.157 -32.552 2.043
C 12.291 -33.31 -4.225
C 11.019 -32.553 -3.694
C 9.723 -33.311 -4.161
C 12.34 -30.287 -2.159
C 12.401 -30.287 0.446
C 12.438 -30.288 2.012
C 12.303 -30.289 -3.725
C 16.198 -31.039 -1.729
C 16.231 -31.039 -0.164
C 13.622 -32.549 -2.19
C 13.681 -32.549 0.415
C 14.962 -30.283 0.385
C 13.634 -31.044 -1.67
C 13.67 -31.044 -0.105
C 14.904 -30.283 -2.22
C 16.286 -31.04 2.423
C 13.717 -32.549 1.981
C 13.729 -31.045 2.481
C 14.997 -30.284 1.952
C 16.142 -31.041 -4.314
C 13.586 -32.551 -3.757
C 14.87 -30.285 -3.786
C 13.575 -31.045 -4.255
C 17.48 -33.298 -1.756
C 17.512 -33.298 -0.191
C 16.242 -32.544 0.357
C 14.916 -33.304 -1.7
C 14.951 -33.304 -0.135
C 16.186 -32.544 -2.249
C 17.565 -33.298 2.396
C 15.008 -33.305 2.452
C 16.275 -32.544 1.923
C 17.427 -33.301 -4.342
C 16.153 -32.546 -3.815
C 14.859 -33.306 -4.286
C 17.468 -30.277 -2.276
C 17.522 -30.277 0.329
C 17.554 -30.277 1.896
C 17.436 -30.279 -3.842
C 21.323 -31.022 -1.832
C 21.351 -31.022 -0.266
C 18.75 -32.537 -2.303
C 18.801 -32.536 0.303
C 20.08 -30.268 0.278
C 18.761 -31.032 -1.783
C 18.791 -31.032 -0.217
C 20.031 -30.269 -2.328
C 21.397 -31.022 2.321
C 18.832 -32.536 1.869
C 18.842 -31.032 2.369
C 20.11 -30.268 1.844
C 21.276 -31.024 -4.417
C 18.719 -32.539 -3.869
C 20.002 -30.27 -3.894
C 18.71 -31.034 -4.368
C 22.604 -33.278 -1.854
C 22.631 -33.277 -0.289
C 21.359 -32.526 0.254
C 20.042 -33.29 -1.808
C 20.072 -33.289 -0.243
C 21.313 -32.527 -2.352
C 22.675 -33.277 2.299
C 20.12 -33.289 2.345
C 21.387 -32.525 1.821
C 22.56 -33.281 -4.44
C 21.285 -32.529 -3.919
C 19.994 -33.293 -4.394
C 22.594 -30.258 -2.374
C 22.638 -30.257 0.232
C 22.665 -30.257 1.798
C 22.567 -30.259 -3.941
C 26.445 -30.993 -1.914
C 26.468 -30.993 -0.349
C 23.875 -32.514 -2.396
C 23.917 -32.512 0.211
C 25.196 -30.243 0.19
C 23.884 -31.009 -1.875
C 23.91 -31.009 -0.31
C 25.156 -30.244 -2.416
C 26.505 -30.993 2.239
C 23.942 -32.512 1.777
C 23.951 -31.009 2.277
C 25.22 -30.243 1.757
C 26.408 -30.996 -4.501
C 23.85 -32.516 -3.962
C 25.132 -30.246 -3.982
C 23.843 -31.011 -4.462
C 27.726 -33.244 -1.931
C 27.748 -33.243 -0.366
C 26.474 -32.495 0.172
C 25.165 -33.263 -1.895
C 25.189 -33.262 -0.33
C 26.437 -32.497 -2.435
C 27.782 -33.242 2.223
C 25.229 -33.261 2.258
C 26.497 -32.495 1.739
C 27.691 -33.248 -4.518
C 26.414 -32.5 -4.001
C 25.126 -33.266 -4.482
C 27.717 -30.227 -2.452
C 27.753 -30.226 0.154
C 27.774 -30.226 1.721
C 27.696 -30.229 -4.019
C 31.566 -30.952 -1.978
C 31.584 -30.951 -0.412
C 28.998 -32.477 -2.469
C 29.031 -32.475 0.138
C 30.31 -30.206 0.123
C 29.006 -30.974 -1.948
C 29.026 -30.974 -0.383
C 30.278 -30.207 -2.484
C 31.613 -30.952 2.176
C 29.051 -32.475 1.705
C 29.059 -30.974 2.206
C 30.329 -30.206 1.69
C 31.537 -30.954 -4.565
C 28.978 -32.48 -4.035
C 30.259 -30.209 -4.051
C 28.973 -30.977 -4.535
C 32.847 -33.196 -1.991
C 32.865 -33.195 -0.426
C 31.589 -32.452 0.109
C 30.287 -33.222 -1.963
C 30.306 -33.22 -0.398
C 31.559 -32.454 -2.498
C 32.892 -33.194 2.164
C 30.337 -33.22 2.191
C 31.606 -32.452 1.676
C 32.819 -33.199 -4.578
C 31.54 -32.456 -4.065
C 30.255 -33.225 -4.551
C 32.839 -30.184 -2.512
C 32.867 -30.183 0.095
C 32.884 -30.183 1.662
C 32.822 -30.185 -4.078
C 36.688 -30.898 -2.026
C 36.702 -30.898 -0.462
C 34.12 -32.427 -2.524
C 34.147 -32.426 0.083
C 35.425 -30.157 0.071
C 34.127 -30.927 -2.003
C 34.143 -30.926 -0.438
C 35.4 -30.158 -2.536
C 36.724 -30.898 2.127
C 34.162 -32.425 1.649
C 34.168 -30.927 2.15
C 35.439 -30.157 1.638
C 36.662 -30.899 -4.614
C 34.102 -32.429 -4.091
C 35.384 -30.159 -4.103
C 34.1 -30.928 -4.591
C 37.971 -33.135 -2.037
C 37.986 -33.135 -0.473
C 36.706 -32.397 0.059
C 35.409 -33.167 -2.015
C 35.424 -33.166 -0.45
C 36.681 -32.398 -2.547
C 38.002 -33.132 2.116
C 35.447 -33.165 2.139
C 36.718 -32.395 1.626
C 37.942 -33.133 -4.625
C 36.664 -32.397 -4.113
C 35.381 -33.168 -4.603
C 37.961 -30.129 -2.557
C 37.984 -30.129 0.049
C 37.995 -30.128 1.615
C 37.945 -30.128 -4.124
C 39.245 -32.365 -2.569
C 39.268 -32.365 0.038
C 40.545 -30.098 0.029
C 39.25 -30.867 -2.047
C 39.264 -30.867 -0.482
C 40.524 -30.097 -2.578
C 39.273 -32.362 1.605
C 39.279 -30.865 2.107
C 40.55 -30.095 1.596
C 39.224 -32.362 -4.135
C 40.504 -30.094 -4.144
C 39.222 -30.865 -4.635
C 40.537 -33.101 -2.059
C 40.551 -33.101 -0.492
C 40.555 -33.093 2.103
C 40.499 -33.093 -4.653
C 2.077 -30.287 -1.89
C 2.145 -30.287 0.714
C 2.187 -30.288 2.281
C 2.036 -30.288 -3.456
C 5.939 -31.048 -1.474
C 5.979 -31.048 0.091
C 3.358 -32.551 -1.925
C 3.427 -32.551 0.68
C 4.711 -30.289 0.645
C 3.373 -31.046 -1.405
C 3.414 -31.046 0.16
C 4.643 -30.289 -1.959
C 6.046 -31.049 2.676
C 3.468 -32.552 2.246
C 3.482 -31.048 2.745
C 4.752 -30.29 2.211
C 5.872 -31.049 -4.059
C 3.317 -32.552 -3.491
C 4.602 -30.29 -3.526
C 3.305 -31.048 -3.99
C 7.221 -33.31 -1.509
C 7.261 -33.31 0.056
C 5.992 -32.553 0.61
C 4.655 -33.309 -1.44
C 4.695 -33.309 0.125
C 5.925 -32.553 -1.994
C 7.327 -33.311 2.642
C 4.763 -33.31 2.711
C 6.032 -32.554 2.177
C 7.155 -33.311 -4.094
C 5.884 -32.554 -3.561
C 4.587 -33.31 -4.025
C -3.055 -30.28 -1.751
C -2.988 -30.28 0.853
C -2.948 -30.281 2.42
C -3.096 -30.281 -3.317
C 0.807 -31.044 -1.335
C 0.848 -31.044 0.23
C -1.775 -32.544 -1.785
C -1.707 -32.544 0.82
C -0.421 -30.284 0.784
C -1.76 -31.04 -1.265
C -1.719 -31.04 0.3
C -0.489 -30.284 -1.82
C 0.916 -31.045 2.815
C -1.666 -32.545 2.386
C -1.652 -31.041 2.884
C -0.38 -30.285 2.351
C 0.738 -31.045 -3.92
C -1.816 -32.545 -3.351
C -0.53 -30.285 -3.386
C -1.827 -31.041 -3.85
C 2.088 -33.306 -1.37
C 2.129 -33.306 0.195
C 0.86 -32.548 0.75
C -0.479 -33.303 -1.3
C -0.438 -33.303 0.265
C 0.792 -32.548 -1.855
C 2.198 -33.308 2.78
C -0.37 -33.304 2.85
C 0.901 -32.549 2.316
C 2.02 -33.307 -3.955
C 0.75 -32.549 -3.421
C -0.547 -33.304 -3.885
C -8.187 -30.269 -1.619
C -8.125 -30.268 0.985
C -8.088 -30.269 2.552
C -8.225 -30.27 -3.185
C -4.326 -31.035 -1.197
C -4.287 -31.035 0.368
C -6.907 -32.534 -1.65
C -6.844 -32.534 0.954
C -5.556 -30.275 0.921
C -6.893 -31.03 -1.131
C -6.855 -31.029 0.434
C -5.621 -30.275 -1.684
C -4.221 -31.036 2.953
C -6.805 -32.535 2.521
C -6.791 -31.03 3.019
C -5.517 -30.275 2.487
C -4.392 -31.037 -3.782
C -6.946 -32.535 -3.217
C -5.66 -30.276 -3.25
C -6.956 -31.031 -3.716
C -3.045 -33.298 -1.23
C -3.005 -33.298 0.335
C -4.275 -32.539 0.888
C -5.612 -33.293 -1.163
C -5.574 -33.293 0.402
C -4.341 -32.54 -1.716
C -2.939 -33.3 2.92
C -5.509 -33.294 2.987
C -4.235 -32.54 2.455
C -3.113 -33.3 -3.816
C -4.381 -32.54 -3.283
C -5.677 -33.295 -3.749
C -13.318 -30.254 -1.502
C -13.263 -30.253 1.103
C -13.23 -30.254 2.669
C -13.351 -30.255 -3.068
C -9.459 -31.023 -1.068
C -9.423 -31.023 0.497
C -12.039 -32.52 -1.528
C -11.983 -32.52 1.076
C -10.694 -30.261 1.046
C -12.026 -31.016 -1.009
C -11.991 -31.015 0.556
C -10.752 -30.262 -1.558
C -9.363 -31.023 3.081
C -11.948 -32.521 2.643
C -11.935 -31.016 3.14
C -10.659 -30.262 2.613
C -9.52 -31.025 -3.653
C -12.074 -32.521 -3.095
C -10.788 -30.263 -3.125
C -12.082 -31.018 -3.595
C -8.179 -33.287 -1.098
C -8.142 -33.287 0.467
C -9.413 -32.527 1.017
C -10.746 -33.28 -1.037
C -10.711 -33.28 0.528
C -9.473 -32.528 -1.587
C -8.08 -33.288 3.052
C -10.653 -33.281 3.113
C -9.377 -32.528 2.584
C -8.242 -33.289 -3.684
C -9.51 -32.528 -3.154
C -10.805 -33.282 -3.623
C -18.447 -30.237 -1.402
C -18.401 -30.235 1.202
C -18.372 -30.236 2.769
C -18.476 -30.238 -2.969
C -14.592 -31.008 -0.955
C -14.56 -31.007 0.61
C -17.17 -32.504 -1.424
C -17.121 -32.503 1.181
C -15.832 -30.245 1.155
C -17.157 -30.999 -0.905
C -17.128 -30.998 0.66
C -15.883 -30.246 -1.45
C -14.508 -31.007 3.195
C -17.092 -32.503 2.748
C -17.08 -30.998 3.245
C -15.801 -30.246 2.721
C -14.644 -31.01 -3.54
C -17.2 -32.505 -2.99
C -15.913 -30.247 -3.016
C -17.206 -31.001 -3.491
C -13.313 -33.273 -0.98
C -13.28 -33.272 0.585
C -14.552 -32.511 1.131
C -15.879 -33.264 -0.928
C -15.848 -33.264 0.637
C -14.605 -32.512 -1.474
C -13.225 -33.273 3.17
C -15.798 -33.264 3.223
C -14.52 -32.512 2.698
C -13.368 -33.275 -3.566
C -14.637 -32.513 -3.04
C -15.93 -33.267 -3.514
C -19.723 -30.989 -0.86
C -19.695 -30.989 0.705
C -19.651 -30.989 3.29
C -19.768 -30.992 -3.446
C -18.445 -33.255 -0.88
C -18.417 -33.255 0.685
C -19.69 -32.493 1.227
C -19.735 -32.494 -1.379
C -18.37 -33.255 3.27
C -19.663 -32.494 2.793
C -18.492 -33.258 -3.466
C -19.763 -32.496 -2.945
H 26.52 -30.994 3.329
H 23.969 -31.01 3.367
H 26.392 -30.997 -5.591
H 23.825 -31.012 -5.551
H 27.796 -33.243 3.313
H 25.244 -33.262 3.348
H 27.676 -33.249 -5.608
H 25.109 -33.268 -5.572
H 31.624 -30.953 3.266
H 29.072 -30.975 3.296
H 31.524 -30.955 -5.655
H 28.959 -30.978 -5.625
H 32.902 -33.195 3.254
H 30.349 -33.221 3.281
H 32.807 -33.2 -5.668
H 30.242 -33.227 -5.64
H 36.732 -30.9 3.217
H 34.178 -30.928 3.241
H 36.652 -30.9 -5.704
H 34.089 -30.929 -5.681
H 38.01 -33.133 3.207
H 35.456 -33.166 3.229
H 37.931 -33.134 -5.715
H 35.37 -33.17 -5.693
H 39.285 -30.867 3.197
H 39.212 -30.865 -5.725
H 40.557 -33.092 3.194
H 40.483 -33.091 -5.743
H -1.622 -31.042 3.974
H -1.857 -31.043 -4.94
H -4.192 -31.037 4.042
H -6.764 -31.031 4.108
H -4.421 -31.038 -4.872
H -6.984 -31.033 -4.806
H -2.909 -33.301 4.009
H -5.481 -33.295 4.077
H -3.142 -33.301 -4.906
H -5.706 -33.296 -4.838
H -9.337 -31.024 4.171
H -11.911 -31.016 4.23
H -9.546 -31.026 -4.743
H -12.106 -31.019 -4.684
H -8.054 -33.289 4.142
H -10.628 -33.281 4.203
H -8.268 -33.29 -4.774
H -10.83 -33.284 -4.713
H -14.486 -31.008 4.285
H -17.06 -30.998 4.335
H -14.666 -31.012 -4.63
H -17.226 -31.003 -4.581
H -13.202 -33.273 4.26
H -15.777 -33.265 4.312
H -13.391 -33.276 -4.656
H -15.951 -33.268 -4.604
H -19.633 -30.988 4.38
H -19.786 -30.994 -4.536
H -18.351 -33.255 4.36
H -18.512 -33.26 -4.556
H 19.973 -33.294 -5.484
H 5.843 -31.05 -5.149
H 7.126 -33.312 -5.184
H 18.687 -31.034 -5.458
H 17.404 -33.302 -5.432
H 4.558 -33.311 -5.115
H 16.118 -31.041 -5.403
H 14.834 -33.307 -5.375
H 3.275 -31.049 -5.079
H 1.99 -33.309 -5.045
H 13.549 -31.046 -5.345
H 0.709 -31.046 -5.009
H 12.264 -33.311 -5.315
H -0.576 -33.305 -4.975
H 10.98 -31.049 -5.282
H 9.695 -33.312 -5.251
H 21.256 -31.025 -5.507
H 22.541 -33.282 -5.53
H 8.411 -31.05 -5.217
H 13.755 -31.046 3.571
H 11.197 -31.049 3.633
H 22.693 -33.278 3.389
H -0.34 -33.305 3.94
H 8.637 -31.051 3.698
H 20.141 -33.29 3.435
H 9.917 -33.312 3.665
H 7.356 -33.313 3.732
H 3.512 -31.049 3.835
H 4.793 -33.311 3.8
H 18.864 -31.033 3.459
H 16.31 -31.041 3.513
H 0.946 -31.046 3.904
H 15.032 -33.306 3.541
H 12.476 -33.31 3.601
H 21.417 -31.023 3.411
H 6.076 -31.05 3.765
H 17.587 -33.299 3.486
H 2.227 -33.309 3.87
C 41.816 -30.834 -2.067
C 41.828 -30.835 -0.501
C 41.831 -30.827 2.095
C 41.779 -30.825 -4.662
C 43.108 -33.066 -2.087
C 43.121 -33.066 -0.503
C 41.832 -32.331 0.023
C 41.811 -32.331 -2.593
C 43.108 -33.049 2.115
C 41.829 -32.323 1.597
C 43.053 -33.047 -4.704
C 41.782 -32.322 -4.167
C 43.09 -30.064 -2.601
C 43.11 -30.065 0.015
C 43.106 -30.058 1.59
C 43.062 -30.055 -4.174
C 44.355 -32.28 -2.653
C 44.377 -32.281 0.047
C 45.654 -30.016 0.04
C 44.387 -30.8 -2.094
C 44.399 -30.801 -0.511
C 45.635 -30.015 -2.66
C 44.367 -32.27 1.606
C 44.384 -30.784 2.108
C 45.644 -30.005 1.599
C 44.321 -32.268 -4.212
C 45.602 -30.002 -4.219
C 44.333 -30.781 -4.711
H 41.833 -30.826 3.185
H 41.764 -30.823 -5.752
H 43.112 -33.05 3.206
H 43.042 -33.047 -5.794
H 44.388 -30.785 3.199
H 44.322 -30.78 -5.802
H -21.072 -33.25 -4.513
C -50.509 -35.211 -0.405
C -50.483 -35.213 1.178
C -51.724 -34.42 1.757
C -51.768 -34.417 -0.941
C -50.406 -35.198 3.794
C -51.676 -34.41 3.316
C -50.518 -35.19 -3.022
C -51.772 -34.405 -2.5
C -49.235 -37.484 -0.43
C -49.21 -37.487 1.153
C -50.451 -36.696 1.733
C -50.494 -36.692 -0.966
C -49.133 -37.475 3.769
C -50.403 -36.687 3.291
C -49.244 -37.461 -3.047
C -50.498 -36.678 -2.524
C -49.221 -34.478 -0.941
C -49.179 -34.481 1.673
C -49.137 -34.475 3.247
C -49.231 -34.468 -2.515
C -45.37 -35.296 -0.48
C -45.345 -35.299 1.085
C -47.948 -36.751 -0.966
C -47.906 -36.757 1.649
C -46.613 -34.525 1.627
C -47.937 -35.255 -0.439
C -47.911 -35.257 1.127
C -46.654 -34.521 -0.979
C -45.297 -35.301 3.672
C -47.865 -36.751 3.223
C -47.853 -35.253 3.721
C -46.58 -34.524 3.193
C -45.404 -35.29 -3.067
C -47.958 -36.741 -2.54
C -46.672 -34.516 -2.546
C -47.962 -35.243 -3.033
C -44.097 -37.568 -0.503
C -44.072 -37.572 1.062
C -45.34 -36.799 1.604
C -46.664 -37.527 -0.463
C -46.638 -37.531 1.103
C -45.381 -36.794 -1.002
C -44.026 -37.576 3.649
C -46.58 -37.53 3.697
C -45.308 -36.799 3.17
C -44.13 -37.56 -3.091
C -45.398 -36.787 -2.569
C -46.688 -37.513 -3.058
C -44.09 -34.561 -1.02
C -44.049 -34.564 1.585
C -44.022 -34.566 3.152
C -44.112 -34.558 -2.586
C -40.243 -35.368 -0.559
C -40.219 -35.37 1.006
C -42.817 -36.832 -1.042
C -42.777 -36.838 1.564
C -41.488 -34.599 1.546
C -42.806 -35.334 -0.52
C -42.781 -35.337 1.044
C -41.527 -34.596 -1.06
C -40.181 -35.374 3.593
C -42.75 -36.84 3.13
C -42.739 -35.341 3.632
C -41.463 -34.601 3.112
C -40.281 -35.366 -3.147
C -42.838 -36.829 -2.608
C -41.551 -34.595 -2.627
C -42.843 -35.331 -3.108
C -38.97 -37.637 -0.579
C -38.947 -37.642 0.986
C -40.216 -36.872 1.526
C -41.533 -37.605 -0.541
C -41.509 -37.609 1.023
C -40.254 -36.867 -1.081
C -38.91 -37.648 3.574
C -41.469 -37.615 3.611
C -40.192 -36.875 3.092
C -39.006 -37.634 -3.167
C -40.276 -36.865 -2.647
C -41.569 -37.6 -3.129
C -38.965 -34.627 -1.099
C -38.927 -34.63 1.507
C -38.904 -34.632 3.074
C -38.989 -34.627 -2.666
C -35.119 -35.422 -0.633
C -35.097 -35.423 0.932
C -37.692 -36.897 -1.118
C -37.655 -36.901 1.489
C -36.366 -34.656 1.47
C -37.681 -35.397 -0.597
C -37.658 -35.399 0.968
C -36.404 -34.654 -1.136
C -35.061 -35.426 3.519
C -37.633 -36.904 3.056
C -37.621 -35.402 3.556
C -36.344 -34.657 3.037
C -35.155 -35.422 -3.221
C -37.714 -36.896 -2.684
C -36.426 -34.654 -2.703
C -37.718 -35.397 -3.185
C -33.846 -37.689 -0.649
C -33.824 -37.692 0.916
C -35.094 -36.926 1.454
C -36.408 -37.666 -0.614
C -36.386 -37.669 0.951
C -35.13 -36.923 -1.153
C -33.789 -37.695 3.504
C -36.35 -37.674 3.538
C -35.072 -36.928 3.02
C -33.881 -37.688 -3.237
C -35.152 -36.922 -2.72
C -36.443 -37.664 -3.203
C -33.842 -34.677 -1.172
C -33.805 -34.678 1.434
C -33.783 -34.679 3.001
C -33.864 -34.678 -2.739
C -29.994 -35.46 -0.703
C -29.971 -35.461 0.862
C -32.568 -36.944 -1.188
C -32.532 -36.946 1.419
C -31.243 -34.696 1.399
C -32.557 -35.443 -0.668
C -32.534 -35.444 0.897
C -31.279 -34.696 -1.207
C -29.935 -35.461 3.449
C -32.511 -36.948 2.986
C -32.499 -35.445 3.484
C -31.221 -34.697 2.966
C -30.03 -35.462 -3.291
C -32.59 -36.944 -2.755
C -31.301 -34.697 -2.774
C -32.593 -35.444 -3.256
C -28.719 -37.724 -0.718
C -28.697 -37.725 0.847
C -29.969 -36.963 1.384
C -31.283 -37.708 -0.683
C -31.261 -37.71 0.882
C -30.005 -36.962 -1.222
C -28.661 -37.727 3.434
C -31.226 -37.713 3.469
C -29.947 -36.964 2.951
C -28.755 -37.725 -3.306
C -30.027 -36.962 -2.789
C -31.318 -37.709 -3.272
C -28.716 -34.712 -1.242
C -28.679 -34.712 1.364
C -28.657 -34.712 2.93
C -28.739 -34.714 -2.809
C -24.865 -35.488 -0.775
C -24.841 -35.487 0.79
C -27.441 -36.976 -1.257
C -27.404 -36.977 1.349
C -26.114 -34.725 1.328
C -27.43 -35.475 -0.738
C -27.407 -35.475 0.827
C -26.152 -34.726 -1.278
C -24.802 -35.488 3.377
C -27.381 -36.978 2.916
C -27.37 -35.475 3.413
C -26.09 -34.726 2.895
C -24.904 -35.49 -3.362
C -27.464 -36.977 -2.824
C -26.176 -34.728 -2.845
C -27.467 -35.477 -3.326
C -23.589 -37.748 -0.792
C -23.564 -37.749 0.774
C -24.838 -36.989 1.312
C -26.155 -37.737 -0.754
C -26.131 -37.738 0.811
C -24.877 -36.989 -1.294
C -23.524 -37.75 3.36
C -26.094 -37.739 3.398
C -24.814 -36.99 2.879
C -23.629 -37.75 -3.38
C -24.901 -36.99 -2.861
C -26.192 -37.739 -3.342
C -23.588 -34.738 -1.315
C -23.547 -34.737 1.291
C -23.523 -34.738 2.857
C -23.613 -34.739 -2.882
C -22.311 -37 -1.333
C -22.27 -36.999 1.273
C -20.98 -34.748 1.25
C -22.3 -35.499 -0.814
C -22.274 -35.498 0.751
C -21.023 -34.749 -1.355
C -22.244 -37 2.84
C -22.233 -35.498 3.338
C -20.953 -34.748 2.817
C -22.337 -37.001 -2.9
C -21.05 -34.75 -2.922
C -22.341 -35.501 -3.401
C -21.023 -37.759 -0.832
C -20.996 -37.758 0.733
C -20.953 -37.759 3.319
C -21.066 -37.76 -3.42
H -35.045 -35.426 4.609
H -37.605 -35.403 4.646
H -35.171 -35.425 -4.311
H -37.734 -35.398 -4.275
H -33.774 -37.697 4.593
H -36.335 -37.676 4.628
H -33.896 -37.69 -4.327
H -36.458 -37.665 -4.293
H -29.921 -35.462 4.539
H -32.484 -35.445 4.574
H -30.045 -35.465 -4.381
H -32.608 -35.447 -4.346
H -28.646 -37.727 4.524
H -31.212 -37.713 4.559
H -28.77 -37.728 -4.396
H -31.333 -37.711 -4.362
H -24.786 -35.488 4.466
H -27.355 -35.475 4.503
H -24.92 -35.493 -4.452
H -27.482 -35.48 -4.416
H -23.508 -37.75 4.45
H -26.078 -37.74 4.488
H -23.646 -37.753 -4.47
H -26.208 -37.741 -4.432
H -22.216 -35.499 4.427
H -22.359 -35.504 -4.491
H -20.935 -37.76 4.409
H -41.585 -37.6 -4.22
H -42.86 -35.332 -4.198
H -44.145 -37.559 -4.181
H -45.42 -35.291 -4.157
H -46.699 -37.51 -4.148
H -47.974 -35.241 -4.123
H -49.259 -37.46 -4.138
H -50.533 -35.189 -4.112
H -40.297 -35.368 -4.237
H -39.022 -37.635 -4.257
H -47.828 -35.254 4.811
H -50.385 -35.201 4.884
H -38.894 -37.65 4.664
H -41.452 -37.619 4.701
H -42.722 -35.343 4.722
H -45.278 -35.304 4.762
H -46.556 -37.531 4.787
H -49.112 -37.478 4.859
H -40.164 -35.376 4.683
H -44.007 -37.58 4.739
C 7.208 -34.813 -2.029
C 7.274 -34.813 0.576
C 7.314 -34.814 2.142
C 7.168 -34.814 -3.595
C 11.07 -35.568 -1.609
C 11.108 -35.568 -0.044
C 8.492 -37.07 -2.064
C 8.557 -37.07 0.542
C 9.838 -34.813 0.509
C 8.504 -35.569 -1.543
C 8.543 -35.569 0.022
C 9.774 -34.813 -2.096
C 11.17 -35.569 2.543
C 8.596 -37.071 2.109
C 8.608 -35.57 2.609
C 9.877 -34.813 2.076
C 11.008 -35.57 -4.194
C 8.453 -37.072 -3.63
C 9.736 -34.814 -3.662
C 8.439 -35.57 -4.129
C 12.356 -37.824 -1.64
C 12.392 -37.824 -0.075
C 11.121 -37.07 0.477
C 9.789 -37.825 -1.576
C 9.827 -37.825 -0.011
C 11.059 -37.07 -2.129
C 12.452 -37.824 2.513
C 9.891 -37.825 2.576
C 11.159 -37.07 2.043
C 12.296 -37.827 -4.226
C 11.022 -37.072 -3.695
C 9.726 -37.827 -4.163
C 12.34 -34.812 -2.16
C 12.401 -34.811 0.445
C 12.438 -34.811 2.012
C 12.304 -34.813 -3.727
C 16.2 -35.562 -1.729
C 16.233 -35.561 -0.164
C 13.626 -37.069 -2.191
C 13.684 -37.067 0.415
C 14.963 -34.807 0.385
C 13.636 -35.566 -1.671
C 13.671 -35.566 -0.106
C 14.906 -34.808 -2.221
C 16.288 -35.561 2.424
C 13.719 -37.067 1.982
C 13.73 -35.566 2.482
C 14.997 -34.807 1.952
C 16.145 -35.565 -4.315
C 13.591 -37.071 -3.757
C 14.871 -34.81 -3.787
C 13.577 -35.569 -4.257
C 17.486 -37.817 -1.755
C 17.517 -37.815 -0.19
C 16.246 -37.062 0.357
C 14.921 -37.822 -1.7
C 14.955 -37.821 -0.135
C 16.191 -37.065 -2.249
C 17.569 -37.813 2.398
C 15.011 -37.82 2.453
C 16.278 -37.062 1.924
C 17.434 -37.822 -4.342
C 16.159 -37.068 -3.815
C 14.865 -37.826 -4.286
C 17.47 -34.803 -2.277
C 17.523 -34.801 0.329
C 17.555 -34.801 1.896
C 17.438 -34.805 -3.843
C 21.326 -35.545 -1.831
C 21.353 -35.543 -0.266
C 18.756 -37.058 -2.302
C 18.805 -37.055 0.305
C 20.082 -34.792 0.278
C 18.763 -35.555 -1.782
C 18.794 -35.554 -0.217
C 20.033 -34.794 -2.328
C 21.399 -35.542 2.323
C 18.835 -37.054 1.871
C 18.844 -35.553 2.371
C 20.111 -34.791 1.845
C 21.28 -35.549 -4.417
C 18.726 -37.062 -3.869
C 20.004 -34.797 -3.894
C 18.713 -35.559 -4.369
C 22.611 -37.797 -1.85
C 22.637 -37.793 -0.285
C 21.364 -37.044 0.257
C 20.049 -37.809 -1.805
C 20.077 -37.806 -0.24
C 21.319 -37.048 -2.35
C 22.679 -37.789 2.304
C 20.125 -37.803 2.348
C 21.391 -37.042 1.823
C 22.568 -37.803 -4.437
C 21.291 -37.052 -3.917
C 20.002 -37.815 -4.392
C 22.596 -34.782 -2.374
C 22.64 -34.779 0.233
C 22.666 -34.778 1.799
C 22.57 -34.785 -3.941
C 26.448 -35.513 -1.912
C 26.471 -35.51 -0.347
C 23.881 -37.034 -2.393
C 23.922 -37.029 0.214
C 25.197 -34.763 0.192
C 23.887 -35.531 -1.874
C 23.912 -35.529 -0.309
C 25.158 -34.766 -2.415
C 26.507 -35.508 2.242
C 23.946 -37.027 1.781
C 23.953 -35.527 2.28
C 25.221 -34.762 1.758
C 26.411 -35.518 -4.5
C 23.856 -37.038 -3.96
C 25.134 -34.77 -3.982
C 23.846 -35.536 -4.461
C 27.733 -37.758 -1.926
C 27.754 -37.754 -0.361
C 26.479 -37.01 0.176
C 25.172 -37.78 -1.891
C 25.196 -37.776 -0.325
C 26.442 -37.015 -2.431
C 27.788 -37.749 2.228
C 25.234 -37.771 2.264
C 26.501 -37.007 1.743
C 27.698 -37.766 -4.514
C 26.42 -37.02 -3.998
C 25.133 -37.787 -4.478
C 27.719 -34.747 -2.451
C 27.754 -34.743 0.156
C 27.776 -34.742 1.723
C 27.698 -34.75 -4.018
C 31.569 -35.464 -1.976
C 31.588 -35.462 -0.411
C 29.003 -36.992 -2.465
C 29.037 -36.986 0.143
C 30.312 -34.72 0.124
C 29.009 -35.491 -1.946
C 29.029 -35.488 -0.381
C 30.28 -34.723 -2.483
C 31.617 -35.459 2.179
C 29.056 -36.984 1.709
C 29.062 -35.485 2.208
C 30.331 -34.719 1.691
C 31.539 -35.469 -4.564
C 28.982 -36.996 -4.032
C 30.26 -34.726 -4.05
C 28.975 -35.496 -4.534
C 32.855 -37.702 -1.986
C 32.872 -37.698 -0.422
C 31.595 -36.959 0.112
C 30.293 -37.732 -1.958
C 30.313 -37.728 -0.393
C 31.564 -36.965 -2.495
C 32.899 -37.693 2.168
C 30.344 -37.723 2.197
C 31.612 -36.956 1.679
C 32.823 -37.708 -4.574
C 31.544 -36.968 -4.062
C 30.261 -37.74 -4.546
C 32.841 -34.696 -2.511
C 32.87 -34.693 0.096
C 32.886 -34.692 1.663
C 32.823 -34.699 -4.078
C 36.694 -35.402 -2.026
C 36.709 -35.401 -0.462
C 34.126 -36.934 -2.522
C 34.154 -36.929 0.085
C 35.429 -34.663 0.071
C 34.131 -35.435 -2.002
C 34.148 -35.433 -0.438
C 35.403 -34.666 -2.536
C 36.728 -35.396 2.128
C 34.168 -36.926 1.652
C 34.172 -35.43 2.152
C 35.442 -34.661 1.637
C 36.662 -35.402 -4.614
C 34.106 -36.936 -4.088
C 35.384 -34.667 -4.102
C 34.101 -35.438 -4.59
C 37.984 -37.634 -2.038
C 37.999 -37.631 -0.471
C 36.716 -36.896 0.061
C 35.418 -37.669 -2.012
C 35.434 -37.666 -0.448
C 36.69 -36.9 -2.547
C 38.008 -37.62 2.125
C 35.455 -37.659 2.142
C 36.724 -36.891 1.628
C 37.941 -37.629 -4.632
C 36.666 -36.899 -4.113
C 35.384 -37.671 -4.601
C 37.967 -34.633 -2.559
C 37.991 -34.631 0.049
C 37.998 -34.627 1.615
C 37.944 -34.63 -4.125
C 39.256 -36.864 -2.574
C 39.281 -36.861 0.042
C 40.556 -34.597 0.032
C 39.26 -35.368 -2.05
C 39.274 -35.367 -0.483
C 40.533 -34.597 -2.584
C 39.28 -36.852 1.616
C 39.281 -35.358 2.113
C 40.554 -34.588 1.606
C 39.224 -36.857 -4.148
C 40.503 -34.589 -4.158
C 39.219 -35.361 -4.644
C 40.554 -37.598 -2.069
C 40.57 -37.595 -0.486
C 40.56 -37.576 2.133
C 40.495 -37.581 -4.687
C 2.074 -34.809 -1.89
C 2.142 -34.809 0.715
C 2.184 -34.81 2.281
C 2.033 -34.81 -3.456
C 5.938 -35.568 -1.475
C 5.978 -35.568 0.09
C 3.357 -37.067 -1.926
C 3.425 -37.067 0.68
C 4.709 -34.812 0.645
C 3.371 -35.566 -1.405
C 3.412 -35.566 0.16
C 4.641 -34.812 -1.96
C 6.045 -35.569 2.676
C 3.466 -37.068 2.246
C 3.48 -35.567 2.746
C 4.75 -34.813 2.211
C 5.871 -35.569 -4.061
C 3.316 -37.067 -3.492
C 4.6 -34.813 -3.526
C 3.303 -35.567 -3.991
C 7.222 -37.824 -1.51
C 7.262 -37.824 0.055
C 5.992 -37.069 0.61
C 4.655 -37.822 -1.441
C 4.695 -37.822 0.124
C 5.925 -37.069 -1.996
C 7.328 -37.825 2.642
C 4.763 -37.824 2.711
C 6.032 -37.07 2.177
C 7.156 -37.825 -4.096
C 5.885 -37.07 -3.562
C 4.587 -37.823 -4.027
C -3.06 -34.801 -1.75
C -2.993 -34.801 0.855
C -2.953 -34.802 2.421
C -3.101 -34.802 -3.317
C 0.804 -35.562 -1.335
C 0.844 -35.563 0.23
C -1.778 -37.059 -1.785
C -1.71 -37.059 0.82
C -0.425 -34.806 0.785
C -1.764 -35.558 -1.265
C -1.723 -35.558 0.3
C -0.493 -34.805 -1.82
C 0.913 -35.564 2.816
C -1.669 -37.061 2.387
C -1.656 -35.56 2.886
C -0.384 -34.807 2.352
C 0.735 -35.564 -3.921
C -1.819 -37.06 -3.352
C -0.534 -34.806 -3.386
C -1.832 -35.559 -3.851
C 2.087 -37.819 -1.37
C 2.128 -37.819 0.194
C 0.858 -37.064 0.75
C -0.481 -37.815 -1.3
C -0.44 -37.815 0.265
C 0.79 -37.063 -1.855
C 2.196 -37.821 2.781
C -0.372 -37.817 2.851
C 0.899 -37.065 2.317
C 2.018 -37.82 -3.957
C 0.748 -37.064 -3.422
C -0.549 -37.816 -3.887
C -8.194 -34.79 -1.618
C -8.132 -34.789 0.987
C -8.094 -34.791 2.554
C -8.231 -34.79 -3.184
C -4.331 -35.553 -1.196
C -4.292 -35.553 0.369
C -6.913 -37.048 -1.65
C -6.849 -37.048 0.956
C -5.562 -34.796 0.922
C -6.899 -35.548 -1.13
C -6.861 -35.548 0.435
C -5.627 -34.796 -1.683
C -4.226 -35.555 2.955
C -6.811 -37.05 2.522
C -6.797 -35.549 3.021
C -5.523 -34.797 2.489
C -4.398 -35.555 -3.782
C -6.952 -37.049 -3.216
C -5.666 -34.796 -3.249
C -6.963 -35.549 -3.716
C -3.049 -37.81 -1.23
C -3.009 -37.81 0.335
C -4.28 -37.054 0.889
C -5.617 -37.805 -1.163
C -5.578 -37.805 0.402
C -4.346 -37.054 -1.717
C -2.942 -37.812 2.921
C -5.513 -37.807 2.989
C -4.239 -37.056 2.456
C -3.116 -37.811 -3.817
C -4.386 -37.054 -3.283
C -5.682 -37.805 -3.75
C -13.326 -34.775 -1.5
C -13.271 -34.775 1.106
C -13.238 -34.776 2.672
C -13.36 -34.776 -3.066
C -9.466 -35.541 -1.066
C -9.43 -35.541 0.499
C -12.047 -37.034 -1.527
C -11.99 -37.035 1.079
C -10.701 -34.782 1.049
C -12.033 -35.534 -1.007
C -11.999 -35.534 0.558
C -10.76 -34.783 -1.557
C -9.369 -35.542 3.084
C -11.955 -37.036 2.645
C -11.942 -35.535 3.144
C -10.666 -34.784 2.615
C -9.527 -35.542 -3.653
C -12.082 -37.035 -3.094
C -10.796 -34.784 -3.123
C -12.09 -35.535 -3.594
C -8.185 -37.798 -1.097
C -8.148 -37.798 0.468
C -9.419 -37.042 1.019
C -10.753 -37.792 -1.036
C -10.718 -37.792 0.529
C -9.48 -37.042 -1.587
C -8.086 -37.8 3.054
C -10.659 -37.793 3.115
C -9.383 -37.043 2.586
C -8.248 -37.799 -3.685
C -9.517 -37.042 -3.153
C -10.812 -37.793 -3.623
C -18.458 -34.758 -1.399
C -18.411 -34.757 1.206
C -18.382 -34.758 2.773
C -18.486 -34.759 -2.966
C -14.6 -35.526 -0.952
C -14.568 -35.526 0.613
C -17.18 -37.018 -1.422
C -17.131 -37.018 1.185
C -15.841 -34.766 1.158
C -17.167 -35.518 -0.902
C -17.137 -35.517 0.663
C -15.892 -34.767 -1.447
C -14.516 -35.527 3.199
C -17.101 -37.019 2.751
C -17.089 -35.518 3.249
C -15.81 -34.767 2.725
C -14.653 -35.528 -3.539
C -17.21 -37.019 -2.988
C -15.923 -34.768 -3.014
C -17.216 -35.52 -3.489
C -13.321 -37.784 -0.978
C -13.287 -37.784 0.587
C -14.56 -37.027 1.134
C -15.888 -37.776 -0.925
C -15.857 -37.776 0.64
C -14.613 -37.027 -1.472
C -13.233 -37.786 3.173
C -15.807 -37.777 3.226
C -14.528 -37.028 2.7
C -13.376 -37.785 -3.566
C -14.646 -37.027 -3.039
C -15.939 -37.778 -3.513
C -19.734 -35.509 -0.856
C -19.706 -35.508 0.709
C -19.661 -35.509 3.295
C -19.779 -35.511 -3.443
C -18.456 -37.768 -0.877
C -18.427 -37.768 0.688
C -19.701 -37.009 1.231
C -19.746 -37.01 -1.375
C -18.38 -37.769 3.275
C -19.673 -37.01 2.798
C -18.502 -37.769 -3.465
C -19.774 -37.01 -2.942
H 26.522 -35.508 3.332
H 23.97 -35.527 3.37
H 26.395 -35.52 -5.59
H 23.828 -35.538 -5.551
H 27.802 -37.748 3.319
H 25.249 -37.771 3.354
H 27.683 -37.77 -5.604
H 25.117 -37.791 -5.568
H 31.628 -35.46 3.269
H 29.075 -35.486 3.298
H 31.526 -35.472 -5.654
H 28.961 -35.498 -5.624
H 32.91 -37.693 3.258
H 30.356 -37.722 3.287
H 32.811 -37.712 -5.664
H 30.247 -37.744 -5.636
H 36.736 -35.397 3.218
H 34.182 -35.431 3.242
H 36.65 -35.404 -5.704
H 34.09 -35.441 -5.68
H 38.011 -37.618 3.215
H 35.463 -37.659 3.232
H 37.924 -37.628 -5.722
H 35.371 -37.674 -5.691
H 39.283 -35.356 3.203
H 39.203 -35.359 -5.734
H 40.567 -37.577 3.224
H 40.483 -37.582 -5.777
H -1.626 -35.562 3.976
H -1.861 -35.561 -4.94
H -4.197 -35.556 4.044
H -6.769 -35.55 4.111
H -4.426 -35.556 -4.872
H -6.99 -35.551 -4.806
H -2.913 -37.814 4.011
H -5.485 -37.809 4.078
H -3.146 -37.812 -4.907
H -5.711 -37.807 -4.839
H -9.343 -35.544 4.174
H -11.918 -35.536 4.233
H -9.553 -35.544 -4.743
H -12.115 -35.537 -4.684
H -8.059 -37.802 4.143
H -10.634 -37.795 4.205
H -8.274 -37.801 -4.774
H -10.837 -37.794 -4.713
H -14.493 -35.528 4.288
H -17.069 -35.519 4.339
H -14.676 -35.53 -4.629
H -17.237 -35.522 -4.579
H -13.209 -37.787 4.263
H -15.785 -37.779 4.316
H -13.399 -37.787 -4.656
H -15.961 -37.78 -4.603
H -19.643 -35.509 4.385
H -19.797 -35.513 -4.533
H -18.36 -37.77 4.365
H -18.522 -37.772 -4.554
H 19.981 -37.817 -5.482
H 5.842 -35.57 -5.15
H 7.128 -37.827 -5.186
H 18.691 -35.56 -5.458
H 17.411 -37.824 -5.431
H 4.558 -37.824 -5.117
H 16.121 -35.567 -5.405
H 14.841 -37.828 -5.376
H 3.273 -35.568 -5.081
H 1.989 -37.821 -5.047
H 13.551 -35.57 -5.346
H 0.705 -35.565 -5.01
H 12.269 -37.829 -5.316
H -0.579 -37.817 -4.976
H 10.981 -35.572 -5.284
H 9.698 -37.828 -5.252
H 21.26 -35.551 -5.507
H 22.549 -37.807 -5.527
H 8.411 -35.572 -5.218
H 13.755 -35.568 3.571
H 11.197 -35.571 3.633
H 22.697 -37.789 3.394
H -0.342 -37.819 3.941
H 8.637 -35.572 3.698
H 20.145 -37.803 3.438
H 9.918 -37.827 3.666
H 7.356 -37.827 3.732
H 3.51 -35.569 3.835
H 4.792 -37.826 3.801
H 18.865 -35.554 3.461
H 16.311 -35.562 3.514
H 0.943 -35.566 3.906
H 15.035 -37.821 3.543
H 12.478 -37.825 3.602
H 21.418 -35.542 3.413
H 6.074 -35.571 3.766
H 17.591 -37.814 3.488
H 2.226 -37.823 3.871
C 41.831 -35.332 -2.079
C 41.845 -35.331 -0.496
C 41.833 -35.313 2.123
C 41.774 -35.314 -4.696
C 41.825 -36.81 0.062
C 41.8 -36.812 -2.638
C 41.818 -36.798 1.621
C 41.764 -36.801 -4.196
C 43.077 -34.546 -2.646
C 43.1 -34.546 0.054
C 43.092 -34.534 1.613
C 43.042 -34.534 -4.205
H 41.839 -35.315 3.214
H 41.762 -35.314 -5.786
H -21.084 -37.763 -4.51
C -49.221 -38.964 -0.992
C -49.178 -38.971 1.707
C -49.131 -38.963 3.265
C -49.225 -38.949 -2.551
C -45.391 -39.798 -0.489
C -45.366 -39.804 1.078
C -47.948 -41.234 -1.021
C -47.906 -41.244 1.678
C -46.634 -39.031 1.624
C -47.962 -39.756 -0.457
C -47.938 -39.761 1.126
C -46.675 -39.022 -0.991
C -45.309 -39.806 3.671
C -47.86 -41.238 3.237
C -47.862 -39.751 3.743
C -46.593 -39.027 3.198
C -45.414 -39.781 -3.084
C -47.952 -41.218 -2.579
C -46.684 -39.01 -2.565
C -47.97 -39.73 -3.074
C -44.119 -42.066 -0.518
C -44.095 -42.076 1.049
C -45.363 -41.304 1.596
C -46.69 -42.025 -0.486
C -46.666 -42.033 1.097
C -45.402 -41.291 -1.019
C -44.04 -42.083 3.643
C -46.591 -42.028 3.713
C -45.322 -41.303 3.17
C -44.14 -42.044 -3.113
C -45.411 -41.276 -2.593
C -46.697 -41.995 -3.105
C -44.108 -39.064 -1.027
C -44.068 -39.073 1.58
C -44.037 -39.074 3.146
C -44.124 -39.056 -2.593
C -40.26 -39.873 -0.563
C -40.237 -39.881 1.001
C -42.836 -41.331 -1.053
C -42.798 -41.346 1.554
C -41.506 -39.111 1.542
C -42.824 -39.837 -0.527
C -42.8 -39.845 1.038
C -41.543 -39.101 -1.064
C -40.199 -39.89 3.589
C -42.767 -41.35 3.12
C -42.756 -39.852 3.625
C -41.48 -39.115 3.108
C -40.294 -39.865 -3.152
C -42.851 -41.321 -2.62
C -41.564 -39.096 -2.631
C -42.855 -39.826 -3.115
C -38.989 -42.14 -0.587
C -38.967 -42.151 0.978
C -40.236 -41.382 1.518
C -41.552 -42.105 -0.553
C -41.53 -42.116 1.011
C -40.271 -41.368 -1.088
C -38.932 -42.165 3.565
C -41.487 -42.129 3.599
C -40.211 -41.389 3.084
C -39.02 -42.127 -3.176
C -40.29 -41.361 -2.655
C -41.581 -42.088 -3.142
C -38.981 -39.135 -1.101
C -38.945 -39.143 1.506
C -38.922 -39.148 3.072
C -39.002 -39.132 -2.667
C -35.136 -39.931 -0.632
C -35.114 -39.937 0.933
C -37.709 -41.401 -1.122
C -37.675 -41.414 1.485
C -36.384 -39.171 1.471
C -37.698 -39.905 -0.598
C -37.676 -39.912 0.967
C -36.419 -39.164 -1.136
C -35.081 -39.944 3.521
C -37.654 -41.421 3.051
C -37.641 -39.921 3.554
C -36.363 -39.175 3.038
C -35.169 -39.927 -3.221
C -37.728 -41.395 -2.689
C -36.44 -39.162 -2.703
C -37.732 -39.899 -3.187
C -33.864 -42.194 -0.651
C -33.844 -42.202 0.915
C -35.115 -41.439 1.453
C -36.426 -42.17 -0.619
C -36.406 -42.18 0.946
C -35.147 -41.428 -1.155
C -33.813 -42.213 3.502
C -36.374 -42.193 3.534
C -35.095 -41.445 3.019
C -33.895 -42.186 -3.24
C -35.166 -41.423 -2.722
C -36.457 -42.159 -3.209
C -33.857 -39.188 -1.17
C -33.823 -39.193 1.438
C -33.802 -39.197 3.004
C -33.878 -39.187 -2.736
C -30.01 -39.97 -0.699
C -29.988 -39.973 0.866
C -32.585 -41.45 -1.187
C -32.552 -41.458 1.42
C -31.26 -39.211 1.404
C -32.573 -39.953 -0.665
C -32.552 -39.957 0.9
C -31.294 -39.208 -1.203
C -29.954 -39.977 3.454
C -32.533 -41.464 2.987
C -32.519 -39.963 3.488
C -31.239 -39.214 2.97
C -30.044 -39.969 -3.288
C -32.605 -41.447 -2.754
C -31.316 -39.207 -2.77
C -32.607 -39.95 -3.254
C -28.736 -42.227 -0.716
C -28.715 -42.231 0.849
C -29.988 -41.473 1.387
C -31.301 -42.212 -0.683
C -31.281 -42.219 0.883
C -30.021 -41.467 -1.22
C -28.681 -42.238 3.437
C -31.249 -42.227 3.47
C -29.968 -41.477 2.954
C -28.77 -42.223 -3.305
C -30.042 -41.465 -2.787
C -31.333 -42.207 -3.272
C -28.731 -39.223 -1.238
C -28.695 -39.226 1.369
C -28.674 -39.228 2.936
C -28.753 -39.223 -2.805
C -24.879 -39.995 -0.771
C -24.855 -39.996 0.795
C -27.457 -41.48 -1.254
C -27.422 -41.485 1.353
C -26.129 -39.238 1.333
C -27.445 -39.984 -0.734
C -27.422 -39.986 0.832
C -26.166 -39.236 -1.273
C -24.817 -39.999 3.382
C -27.4 -41.488 2.92
C -27.386 -39.989 3.419
C -26.106 -39.24 2.9
C -24.917 -39.995 -3.359
C -27.479 -41.479 -2.821
C -26.189 -39.237 -2.84
C -27.481 -39.983 -3.323
C -23.603 -42.248 -0.789
C -23.578 -42.25 0.776
C -24.853 -41.495 1.316
C -26.17 -42.238 -0.751
C -26.147 -42.241 0.814
C -24.891 -41.492 -1.291
C -23.539 -42.254 3.364
C -26.111 -42.246 3.402
C -24.83 -41.497 2.883
C -23.642 -42.247 -3.379
C -24.914 -41.491 -2.858
C -26.206 -42.236 -3.341
C -23.601 -39.248 -1.311
C -23.561 -39.248 1.295
C -23.536 -39.25 2.862
C -23.626 -39.248 -2.878
C -22.324 -41.501 -1.331
C -22.283 -41.503 1.277
C -20.991 -39.258 1.254
C -22.312 -40.005 -0.81
C -22.286 -40.006 0.755
C -21.035 -39.257 -1.352
C -22.258 -41.506 2.843
C -22.245 -40.008 3.342
C -20.965 -39.259 2.821
C -22.35 -41.501 -2.898
C -21.061 -39.258 -2.919
C -22.353 -40.006 -3.399
C -21.035 -42.257 -0.831
C -21.008 -42.258 0.735
C -20.965 -42.261 3.322
C -21.077 -42.256 -3.42
H -35.066 -39.947 4.611
H -37.626 -39.924 4.644
H -35.183 -39.928 -4.311
H -37.746 -39.899 -4.277
H -33.799 -42.217 4.592
H -36.36 -42.198 4.624
H -33.909 -42.186 -4.33
H -36.471 -42.158 -4.299
H -29.939 -39.979 4.544
H -32.504 -39.965 4.577
H -30.058 -39.971 -4.378
H -32.621 -39.952 -4.344
H -28.667 -42.24 4.527
H -31.235 -42.23 4.56
H -28.784 -42.225 -4.395
H -31.347 -42.208 -4.362
H -24.801 -40 4.472
H -27.371 -39.99 4.509
H -24.933 -39.998 -4.449
H -27.496 -39.986 -4.413
H -23.522 -42.256 4.454
H -26.096 -42.248 4.492
H -23.659 -42.249 -4.469
H -26.222 -42.238 -4.431
H -22.228 -40.009 4.432
H -22.371 -40.008 -4.489
H -20.947 -42.264 4.412
H -41.595 -42.085 -4.232
H -42.87 -39.824 -4.205
H -44.15 -42.037 -4.203
H -45.424 -39.776 -4.174
H -46.711 -41.991 -4.195
H -47.985 -39.728 -4.165
H -40.309 -39.865 -4.242
H -39.033 -42.124 -4.266
H -47.841 -39.756 4.833
H -38.917 -42.172 4.655
H -41.47 -42.136 4.689
H -42.738 -39.857 4.715
H -45.286 -39.808 4.761
H -46.571 -42.034 4.804
H -40.183 -39.895 4.679
H -44.017 -42.087 4.733
C 7.211 -39.323 -2.031
C 7.276 -39.323 0.576
C 7.315 -39.324 2.142
C 7.171 -39.325 -3.597
C 11.076 -40.078 -1.608
C 11.112 -40.077 -0.043
C 8.498 -41.574 -2.065
C 8.561 -41.573 0.542
C 9.842 -39.324 0.509
C 8.508 -40.077 -1.544
C 8.546 -40.076 0.021
C 9.779 -39.325 -2.097
C 11.173 -40.077 2.545
C 8.599 -41.574 2.109
C 8.611 -40.077 2.609
C 9.879 -39.324 2.076
C 11.015 -40.081 -4.195
C 8.46 -41.576 -3.631
C 9.741 -39.327 -3.664
C 8.444 -40.079 -4.131
C 12.365 -42.328 -1.638
C 12.399 -42.326 -0.073
C 11.127 -41.574 0.478
C 9.796 -42.326 -1.576
C 9.833 -42.325 -0.011
C 11.067 -41.576 -2.129
C 12.457 -42.324 2.516
C 9.894 -42.325 2.577
C 11.163 -41.574 2.045
C 12.307 -42.332 -4.225
C 11.031 -41.579 -3.695
C 9.734 -42.329 -4.164
C 12.347 -39.325 -2.16
C 12.406 -39.323 0.446
C 12.442 -39.323 2.013
C 12.311 -39.327 -3.727
C 16.209 -40.075 -1.726
C 16.241 -40.072 -0.161
C 13.636 -41.577 -2.189
C 13.692 -41.573 0.418
C 14.969 -39.32 0.387
C 13.643 -40.077 -1.669
C 13.677 -40.076 -0.104
C 14.913 -39.323 -2.22
C 16.294 -40.07 2.428
C 13.726 -41.572 1.984
C 13.734 -40.074 2.484
C 15.002 -39.319 1.954
C 16.156 -40.081 -4.313
C 13.602 -41.58 -3.756
C 14.88 -39.326 -3.786
C 13.586 -40.082 -4.256
C 17.499 -42.325 -1.748
C 17.529 -42.321 -0.183
C 16.255 -41.57 0.363
C 14.932 -42.328 -1.696
C 14.965 -42.325 -0.13
C 16.203 -41.575 -2.245
C 17.578 -42.316 2.406
C 15.018 -42.321 2.459
C 16.286 -41.567 1.929
C 17.45 -42.334 -4.335
C 16.172 -41.58 -3.811
C 14.879 -42.334 -4.283
C 17.479 -39.319 -2.274
C 17.53 -39.314 0.333
C 17.561 -39.313 1.899
C 17.448 -39.323 -3.841
C 21.336 -40.06 -1.824
C 21.363 -40.055 -0.259
C 18.769 -41.57 -2.295
C 18.817 -41.563 0.312
C 20.09 -39.305 0.283
C 18.773 -40.069 -1.778
C 18.803 -40.066 -0.212
C 20.043 -39.311 -2.324
C 21.407 -40.049 2.33
C 18.845 -41.56 1.879
C 18.851 -40.062 2.376
C 20.118 -39.303 1.85
C 21.292 -40.068 -4.411
C 18.741 -41.576 -3.862
C 20.015 -39.316 -3.89
C 18.725 -40.077 -4.365
C 22.626 -42.307 -1.838
C 22.651 -42.301 -0.272
C 21.376 -41.552 0.267
C 20.064 -42.319 -1.795
C 20.091 -42.313 -0.23
C 21.333 -41.562 -2.341
C 22.691 -42.291 2.317
C 20.135 -42.306 2.359
C 21.402 -41.548 1.833
C 22.586 -42.32 -4.425
C 21.307 -41.568 -3.907
C 20.019 -42.33 -4.383
C 22.606 -39.299 -2.368
C 22.648 -39.292 0.239
C 22.674 -39.289 1.806
C 22.58 -39.305 -3.935
C 26.459 -40.025 -1.903
C 26.481 -40.019 -0.338
C 23.895 -41.547 -2.381
C 23.935 -41.536 0.226
C 25.206 -39.274 0.2
C 23.898 -40.045 -1.866
C 23.922 -40.04 -0.3
C 25.167 -39.282 -2.408
C 26.517 -40.011 2.252
C 23.958 -41.531 1.793
C 23.962 -40.033 2.289
C 25.229 -39.27 1.766
C 26.422 -40.036 -4.491
C 23.872 -41.555 -3.948
C 25.144 -39.288 -3.975
C 23.858 -40.055 -4.453
C 27.748 -42.265 -1.91
C 27.769 -42.257 -0.345
C 26.492 -41.514 0.19
C 25.187 -42.29 -1.876
C 25.21 -42.282 -0.31
C 26.456 -41.526 -2.418
C 27.802 -42.244 2.245
C 25.246 -42.271 2.28
C 26.513 -41.508 1.757
C 27.713 -42.28 -4.498
C 26.434 -41.534 -3.985
C 25.15 -42.304 -4.464
C 27.728 -39.26 -2.444
C 27.763 -39.251 0.164
C 27.784 -39.247 1.731
C 27.707 -39.266 -4.01
C 31.58 -39.969 -1.966
C 31.599 -39.963 -0.402
C 29.016 -41.5 -2.451
C 29.05 -41.487 0.157
C 30.321 -39.224 0.132
C 29.019 -39.999 -1.936
C 29.039 -39.993 -0.371
C 30.289 -39.233 -2.475
C 31.628 -39.954 2.188
C 29.069 -41.48 1.723
C 29.072 -39.984 2.219
C 30.34 -39.219 1.699
C 31.547 -39.978 -4.555
C 28.995 -41.508 -4.018
C 30.268 -39.238 -4.042
C 28.985 -40.01 -4.524
C 32.871 -42.2 -1.971
C 32.89 -42.192 -0.407
C 31.609 -41.456 0.126
C 30.308 -42.234 -1.941
C 30.328 -42.226 -0.377
C 31.578 -41.468 -2.481
C 32.914 -42.177 2.184
C 30.358 -42.213 2.213
C 31.625 -41.448 1.692
C 32.833 -42.21 -4.56
C 31.555 -41.474 -4.048
C 30.274 -42.249 -4.53
C 32.851 -39.201 -2.504
C 32.881 -39.193 0.103
C 32.896 -39.188 1.669
C 32.829 -39.205 -4.07
C 36.709 -39.899 -2.022
C 36.726 -39.894 -0.455
C 34.141 -41.432 -2.511
C 34.171 -41.421 0.097
C 35.443 -39.159 0.077
C 34.143 -39.935 -1.994
C 34.161 -39.929 -0.43
C 35.414 -39.166 -2.531
C 36.737 -39.88 2.141
C 34.182 -41.412 1.664
C 34.183 -39.919 2.16
C 35.452 -39.152 1.643
C 36.664 -39.897 -4.617
C 34.115 -41.435 -4.077
C 35.389 -39.167 -4.098
C 34.107 -39.941 -4.583
C 38.007 -42.125 -2.038
C 38.025 -42.12 -0.455
C 36.736 -41.385 0.074
C 35.437 -42.163 -2.001
C 35.455 -42.156 -0.435
C 36.707 -41.394 -2.543
C 38.02 -42.093 2.165
C 35.468 -42.137 2.162
C 36.738 -41.372 1.648
C 37.943 -42.116 -4.656
C 36.672 -41.392 -4.117
C 35.389 -42.166 -4.596
C 37.98 -39.129 -2.561
C 38.007 -39.124 0.056
C 38.008 -39.113 1.63
C 37.947 -39.124 -4.135
C 39.251 -41.342 -2.612
C 39.28 -41.334 0.088
C 40.552 -39.073 0.073
C 39.28 -39.862 -2.056
C 39.296 -39.858 -0.473
C 40.524 -39.077 -2.627
C 39.276 -41.319 1.647
C 39.289 -39.836 2.146
C 40.546 -39.06 1.632
C 39.211 -41.334 -4.171
C 40.487 -39.067 -4.186
C 39.218 -39.849 -4.674
C 2.073 -39.317 -1.892
C 2.142 -39.318 0.715
C 2.183 -39.319 2.281
C 2.032 -39.318 -3.458
C 5.94 -40.075 -1.476
C 5.98 -40.075 0.089
C 3.359 -41.568 -1.928
C 3.426 -41.569 0.679
C 4.709 -39.321 0.645
C 3.371 -40.071 -1.406
C 3.412 -40.072 0.159
C 4.642 -39.321 -1.962
C 6.046 -40.076 2.677
C 3.467 -41.57 2.245
C 3.48 -40.074 2.746
C 4.75 -39.322 2.211
C 5.873 -40.076 -4.063
C 3.318 -41.569 -3.494
C 4.601 -39.322 -3.528
C 3.303 -40.072 -3.994
C 7.227 -42.324 -1.511
C 7.265 -42.324 0.054
C 5.994 -41.572 0.61
C 4.657 -42.321 -1.442
C 4.697 -42.321 0.123
C 5.928 -41.572 -1.997
C 7.33 -42.325 2.643
C 4.764 -42.323 2.711
C 6.034 -41.573 2.176
C 7.162 -42.326 -4.098
C 5.888 -41.573 -3.564
C 4.59 -42.322 -4.03
C -3.063 -39.308 -1.752
C -2.996 -39.309 0.855
C -2.956 -39.311 2.421
C -3.104 -39.309 -3.318
C 0.803 -40.068 -1.336
C 0.843 -40.068 0.229
C -1.78 -41.559 -1.788
C -1.713 -41.561 0.819
C -0.427 -39.314 0.785
C -1.766 -40.063 -1.266
C -1.726 -40.064 0.299
C -0.495 -39.313 -1.821
C 0.912 -40.07 2.816
C -1.672 -41.562 2.386
C -1.658 -40.066 2.886
C -0.386 -39.316 2.351
C 0.734 -40.068 -3.923
C -1.821 -41.559 -3.354
C -0.536 -39.314 -3.387
C -1.834 -40.063 -3.853
C 2.087 -42.317 -1.372
C 2.128 -42.317 0.193
C 0.857 -41.565 0.749
C -0.482 -42.312 -1.302
C -0.442 -42.313 0.263
C 0.789 -41.564 -1.858
C 2.196 -42.32 2.781
C -0.374 -42.316 2.851
C 0.898 -41.567 2.315
C 2.019 -42.317 -3.96
C 0.748 -41.564 -3.424
C -0.55 -42.312 -3.89
C -8.199 -39.297 -1.618
C -8.137 -39.297 0.988
C -8.099 -39.299 2.554
C -8.237 -39.297 -3.185
C -4.335 -40.058 -1.197
C -4.295 -40.058 0.368
C -6.917 -41.548 -1.652
C -6.854 -41.549 0.955
C -5.566 -39.304 0.923
C -6.904 -40.052 -1.13
C -6.865 -40.052 0.435
C -5.631 -39.303 -1.684
C -4.229 -40.061 2.955
C -6.815 -41.551 2.522
C -6.801 -40.055 3.022
C -5.527 -39.306 2.489
C -4.401 -40.058 -3.784
C -6.956 -41.548 -3.218
C -5.671 -39.303 -3.25
C -6.967 -40.052 -3.718
C -3.052 -42.307 -1.232
C -3.012 -42.308 0.333
C -4.283 -41.555 0.888
C -5.621 -42.301 -1.164
C -5.582 -42.302 0.401
C -4.349 -41.554 -1.719
C -2.945 -42.311 2.92
C -5.517 -42.305 2.988
C -4.243 -41.557 2.455
C -3.119 -42.307 -3.82
C -4.389 -41.554 -3.285
C -5.686 -42.301 -3.753
C -13.334 -39.282 -1.499
C -13.279 -39.283 1.107
C -13.245 -39.285 2.674
C -13.368 -39.283 -3.066
C -9.472 -40.045 -1.066
C -9.435 -40.046 0.499
C -12.054 -41.534 -1.528
C -11.997 -41.536 1.079
C -10.708 -39.291 1.05
C -12.041 -40.038 -1.007
C -12.006 -40.039 0.559
C -10.767 -39.29 -1.557
C -9.375 -40.048 3.085
C -11.962 -41.538 2.646
C -11.949 -40.041 3.145
C -10.672 -39.292 2.616
C -9.533 -40.046 -3.654
C -12.089 -41.534 -3.095
C -10.803 -39.29 -3.123
C -12.098 -40.039 -3.595
C -8.19 -42.295 -1.099
C -8.153 -42.296 0.466
C -9.425 -41.543 1.019
C -10.76 -42.288 -1.037
C -10.724 -42.289 0.528
C -9.486 -41.541 -1.588
C -8.091 -42.299 3.054
C -10.665 -42.292 3.116
C -9.388 -41.545 2.585
C -8.253 -42.295 -3.687
C -9.523 -41.541 -3.155
C -10.819 -42.288 -3.626
C -18.468 -39.266 -1.397
C -18.421 -39.267 1.21
C -18.392 -39.268 2.776
C -18.497 -39.267 -2.964
C -14.609 -40.031 -0.951
C -14.576 -40.031 0.614
C -17.189 -41.519 -1.421
C -17.141 -41.52 1.186
C -15.85 -39.275 1.161
C -17.177 -40.023 -0.9
C -17.147 -40.023 0.665
C -15.901 -39.275 -1.446
C -14.524 -40.033 3.201
C -17.11 -41.522 2.753
C -17.098 -40.025 3.252
C -15.819 -39.277 2.727
C -14.662 -40.031 -3.539
C -17.22 -41.519 -2.988
C -15.932 -39.275 -3.012
C -17.226 -40.023 -3.488
C -13.329 -42.281 -0.979
C -13.295 -42.282 0.586
C -14.569 -41.528 1.135
C -15.898 -42.273 -0.925
C -15.866 -42.274 0.64
C -14.622 -41.527 -1.472
C -13.24 -42.285 3.174
C -15.815 -42.277 3.228
C -14.536 -41.53 2.701
C -13.384 -42.281 -3.568
C -14.654 -41.526 -3.039
C -15.948 -42.273 -3.514
C -19.745 -40.014 -0.853
C -19.717 -40.014 0.712
C -19.672 -40.016 3.299
C -19.79 -40.015 -3.442
C -18.466 -42.265 -0.876
C -18.437 -42.266 0.689
C -19.712 -41.512 1.233
C -19.757 -41.51 -1.374
C -18.391 -42.269 3.277
C -19.684 -41.514 2.8
C -18.513 -42.265 -3.465
C -19.785 -41.51 -2.941
H 26.531 -40.009 3.342
H 23.978 -40.031 3.379
H 26.407 -40.041 -5.581
H 23.841 -40.06 -5.543
H 27.815 -42.24 3.335
H 25.261 -42.267 3.37
H 27.698 -42.288 -5.588
H 25.134 -42.311 -5.554
H 31.639 -39.952 3.278
H 29.085 -39.982 3.309
H 31.534 -39.984 -5.645
H 28.971 -40.016 -5.614
H 32.924 -42.173 3.274
H 30.37 -42.209 3.303
H 32.819 -42.218 -5.65
H 30.26 -42.257 -5.62
H 36.741 -39.876 3.231
H 34.193 -39.917 3.25
H 36.646 -39.898 -5.707
H 34.094 -39.946 -5.673
H 38.029 -42.091 3.255
H 35.473 -42.131 3.252
H 37.928 -42.121 -5.747
H 35.371 -42.17 -5.687
H 39.297 -39.836 3.237
H 39.204 -39.851 -5.764
H -1.628 -40.069 3.976
H -1.863 -40.065 -4.943
H -4.2 -40.063 4.045
H -6.774 -40.057 4.112
H -4.43 -40.06 -4.874
H -6.995 -40.054 -4.808
H -2.915 -42.314 4.01
H -5.489 -42.309 4.078
H -3.148 -42.309 -4.91
H -5.715 -42.303 -4.842
H -9.349 -40.051 4.175
H -11.924 -40.043 4.235
H -9.559 -40.047 -4.744
H -12.122 -40.041 -4.685
H -8.063 -42.302 4.143
H -10.639 -42.295 4.206
H -8.28 -42.296 -4.777
H -10.844 -42.29 -4.715
H -14.501 -40.035 4.291
H -17.077 -40.027 4.342
H -14.685 -40.033 -4.629
H -17.247 -40.025 -4.578
H -13.216 -42.288 4.264
H -15.793 -42.28 4.317
H -13.407 -42.282 -4.658
H -15.97 -42.275 -4.604
H -19.653 -40.018 4.389
H -19.809 -40.017 -4.531
H -18.371 -42.272 4.367
H -18.533 -42.267 -4.555
H 20 -42.335 -5.473
H 5.844 -40.078 -5.153
H 7.134 -42.328 -5.188
H 18.704 -40.08 -5.454
H 17.429 -42.338 -5.425
H 4.561 -42.323 -5.12
H 16.133 -40.084 -5.403
H 14.856 -42.338 -5.373
H 3.274 -40.074 -5.083
H 1.99 -42.319 -5.05
H 13.561 -40.084 -5.346
H 0.704 -40.07 -5.013
H 12.281 -42.335 -5.315
H -0.58 -42.314 -4.98
H 10.988 -40.083 -5.285
H 9.707 -42.332 -5.253
H 21.273 -40.073 -5.501
H 22.568 -42.327 -5.515
H 8.416 -40.081 -5.22
H 13.76 -40.076 3.574
H 11.2 -40.079 3.634
H 22.708 -42.289 3.407
H -0.344 -42.319 3.94
H 8.639 -40.079 3.699
H 20.154 -42.304 3.449
H 9.922 -42.327 3.667
H 7.359 -42.327 3.733
H 3.51 -40.076 3.836
H 4.793 -42.326 3.801
H 18.872 -40.061 3.466
H 16.317 -40.07 3.518
H 0.942 -40.073 3.906
H 15.042 -42.322 3.548
H 12.483 -42.326 3.606
H 21.425 -40.048 3.42
H 6.075 -40.079 3.766
H 17.599 -42.315 3.496
H 2.226 -42.323 3.87
H -21.096 -42.258 -4.51
C -45.419 -44.292 -0.521
C -45.397 -44.304 1.062
C -46.636 -43.516 1.646
C -46.676 -43.502 -1.054
C -45.323 -44.305 3.679
C -46.591 -43.513 3.204
C -45.424 -44.256 -3.14
C -46.679 -43.482 -2.613
C -44.15 -46.557 -0.564
C -44.13 -46.573 1.019
C -45.369 -45.788 1.606
C -45.406 -45.766 -1.094
C -44.059 -46.585 3.637
C -45.324 -45.789 3.164
C -44.152 -46.51 -3.183
C -45.408 -45.742 -2.652
C -44.131 -43.557 -1.051
C -44.093 -43.576 1.564
C -44.054 -43.579 3.138
C -44.138 -43.539 -2.625
C -40.282 -44.37 -0.583
C -40.261 -44.387 0.981
C -42.861 -45.82 -1.09
C -42.826 -45.849 1.526
C -41.529 -43.618 1.524
C -42.848 -44.332 -0.551
C -42.826 -44.347 1.016
C -41.564 -43.596 -1.083
C -40.222 -44.407 3.569
C -42.789 -45.857 3.1
C -42.773 -44.361 3.61
C -41.5 -43.626 3.091
C -40.307 -44.346 -3.173
C -42.866 -45.797 -2.664
C -41.578 -43.582 -2.649
C -42.867 -44.302 -3.146
C -39.014 -46.634 -0.619
C -38.996 -46.658 0.945
C -40.263 -45.891 1.489
C -41.579 -46.596 -0.591
C -41.56 -46.618 0.976
C -40.294 -45.859 -1.118
C -38.962 -46.689 3.533
C -41.511 -46.644 3.57
C -40.237 -45.905 3.056
C -39.034 -46.6 -3.209
C -40.305 -45.839 -2.685
C -41.594 -46.556 -3.187
C -39 -43.633 -1.115
C -38.968 -43.654 1.491
C -38.945 -43.664 3.058
C -39.017 -43.621 -2.681
C -35.157 -44.432 -0.642
C -35.138 -44.445 0.923
C -37.731 -45.894 -1.146
C -37.703 -45.925 1.461
C -36.408 -43.682 1.462
C -37.719 -44.404 -0.613
C -37.699 -44.42 0.951
C -36.438 -43.663 -1.146
C -35.11 -44.465 3.51
C -37.684 -45.941 3.027
C -37.668 -44.442 3.539
C -36.389 -43.693 3.028
C -35.184 -44.415 -3.232
C -37.744 -45.878 -2.712
C -36.455 -43.654 -2.712
C -37.746 -44.384 -3.203
C -33.888 -46.689 -0.669
C -33.873 -46.707 0.896
C -35.144 -45.949 1.435
C -36.451 -46.666 -0.644
C -36.435 -46.688 0.92
C -35.169 -45.923 -1.172
C -33.849 -46.733 3.483
C -36.409 -46.718 3.507
C -35.128 -45.964 3.002
C -33.911 -46.666 -3.259
C -35.183 -45.909 -2.739
C -36.472 -46.637 -3.234
C -33.876 -43.688 -1.176
C -33.847 -43.704 1.432
C -33.829 -43.713 2.999
C -33.894 -43.681 -2.742
C -30.029 -44.467 -0.702
C -30.009 -44.475 0.863
C -32.606 -45.943 -1.199
C -32.581 -45.964 1.409
C -31.283 -43.719 1.402
C -32.594 -44.452 -0.671
C -32.575 -44.463 0.894
C -31.313 -43.707 -1.206
C -29.98 -44.487 3.451
C -32.565 -45.977 2.976
C -32.547 -44.478 3.482
C -31.264 -43.727 2.968
C -30.059 -44.458 -3.292
C -32.621 -45.933 -2.766
C -31.331 -43.701 -2.773
C -32.622 -44.44 -3.261
C -28.756 -46.714 -0.724
C -28.738 -46.724 0.842
C -30.014 -45.974 1.38
C -31.323 -46.704 -0.695
C -31.307 -46.718 0.871
C -30.041 -45.958 -1.228
C -28.71 -46.739 3.43
C -31.282 -46.738 3.458
C -29.997 -45.983 2.947
C -28.784 -46.702 -3.315
C -30.058 -45.95 -2.794
C -31.348 -46.687 -3.285
C -28.748 -43.721 -1.238
C -28.716 -43.73 1.369
C -28.696 -43.736 2.936
C -28.768 -43.717 -2.805
C -24.894 -44.487 -0.771
C -24.871 -44.491 0.794
C -27.474 -45.969 -1.259
C -27.443 -45.98 1.349
C -26.147 -43.738 1.335
C -27.462 -44.478 -0.735
C -27.441 -44.484 0.83
C -26.182 -43.732 -1.273
C -24.835 -44.498 3.382
C -27.424 -45.988 2.916
C -27.409 -44.492 3.418
C -26.125 -43.743 2.901
C -24.931 -44.483 -3.361
C -27.493 -45.963 -2.826
C -26.204 -43.73 -2.84
C -27.495 -44.472 -3.325
C -23.617 -46.731 -0.793
C -23.594 -46.735 0.772
C -24.871 -45.986 1.314
C -26.187 -46.723 -0.756
C -26.167 -46.73 0.809
C -24.906 -45.978 -1.295
C -23.558 -46.744 3.361
C -26.134 -46.74 3.397
C -24.85 -45.992 2.881
C -23.654 -46.725 -3.384
C -24.928 -45.974 -2.861
C -26.219 -46.715 -3.347
C -23.615 -43.742 -1.311
C -23.576 -43.746 1.297
C -23.552 -43.75 2.863
C -23.639 -43.74 -2.878
C -22.337 -45.987 -1.334
C -22.298 -45.992 1.275
C -21.004 -43.754 1.255
C -22.326 -44.496 -0.81
C -22.3 -44.498 0.755
C -21.047 -43.75 -1.353
C -22.274 -45.997 2.842
C -22.26 -44.504 3.343
C -20.978 -43.757 2.822
C -22.362 -45.984 -2.9
C -21.073 -43.749 -2.919
C -22.366 -44.493 -3.4
C -21.047 -46.738 -0.834
C -21.022 -46.742 0.731
C -20.98 -46.748 3.32
C -21.089 -46.734 -3.425
H -35.097 -44.472 4.6
H -37.655 -44.451 4.629
H -35.196 -44.412 -4.322
H -37.758 -44.379 -4.293
H -33.838 -46.743 4.573
H -36.398 -46.731 4.597
H -33.922 -46.661 -4.349
H -36.483 -46.629 -4.324
H -29.966 -44.491 4.541
H -32.534 -44.484 4.572
H -30.073 -44.458 -4.382
H -32.635 -44.438 -4.352
H -28.697 -46.746 4.52
H -31.27 -46.746 4.548
H -28.797 -46.701 -4.405
H -31.36 -46.684 -4.376
H -24.819 -44.501 4.472
H -27.394 -44.496 4.508
H -24.947 -44.485 -4.451
H -27.51 -44.473 -4.415
H -23.541 -46.749 4.451
H -26.12 -46.746 4.487
H -23.671 -46.726 -4.474
H -26.234 -46.715 -4.437
H -22.243 -44.507 4.433
H -22.383 -44.495 -4.491
H -20.962 -46.753 4.41
H -41.601 -46.541 -4.277
H -42.875 -44.292 -4.237
H -44.165 -46.497 -4.273
H -45.438 -44.248 -4.23
H -40.319 -44.339 -4.263
H -39.044 -46.589 -4.299
H -38.949 -46.704 4.623
H -41.49 -46.657 4.66
H -42.751 -44.37 4.7
H -45.303 -44.315 4.769
H -40.207 -44.418 4.659
H -44.039 -46.6 4.727
C 7.216 -43.819 -2.032
C 7.28 -43.818 0.576
C 7.318 -43.819 2.142
C 7.178 -43.821 -3.598
C 11.085 -44.572 -1.606
C 11.121 -44.571 -0.041
C 8.506 -46.063 -2.065
C 8.567 -46.061 0.543
C 9.848 -43.82 0.511
C 8.515 -44.569 -1.544
C 8.552 -44.569 0.022
C 9.787 -43.822 -2.097
C 11.179 -44.569 2.548
C 8.603 -46.061 2.11
C 8.614 -44.569 2.611
C 9.884 -43.82 2.077
C 11.027 -44.577 -4.194
C 8.469 -46.065 -3.631
C 9.751 -43.825 -3.663
C 8.453 -44.572 -4.132
C 12.377 -46.815 -1.632
C 12.41 -46.812 -0.067
C 11.136 -46.063 0.482
C 9.805 -46.811 -1.574
C 9.84 -46.81 -0.009
C 11.079 -46.067 -2.126
C 12.464 -46.809 2.523
C 9.899 -46.809 2.581
C 11.17 -46.062 2.049
C 12.323 -46.822 -4.221
C 11.044 -46.07 -3.693
C 9.746 -46.816 -4.163
C 12.358 -43.825 -2.158
C 12.415 -43.821 0.45
C 12.449 -43.819 2.016
C 12.324 -43.828 -3.724
C 16.225 -44.575 -1.717
C 16.255 -44.571 -0.152
C 13.651 -46.07 -2.183
C 13.704 -46.064 0.425
C 14.98 -43.82 0.394
C 13.656 -44.575 -1.664
C 13.688 -44.572 -0.099
C 14.928 -43.826 -2.214
C 16.304 -44.564 2.438
C 13.735 -46.061 1.992
C 13.742 -44.568 2.49
C 15.011 -43.817 1.96
C 16.175 -44.585 -4.305
C 13.62 -46.075 -3.749
C 14.897 -43.831 -3.781
C 13.602 -44.581 -4.252
C 17.52 -46.82 -1.733
C 17.547 -46.814 -0.167
C 16.271 -46.063 0.374
C 14.949 -46.818 -1.685
C 14.979 -46.814 -0.12
C 16.223 -46.072 -2.234
C 17.591 -46.804 2.422
C 15.028 -46.807 2.47
C 16.299 -46.059 1.941
C 17.476 -46.833 -4.321
C 16.194 -46.079 -3.8
C 14.9 -46.828 -4.274
C 17.496 -43.825 -2.265
C 17.544 -43.816 0.343
C 17.572 -43.812 1.909
C 17.468 -43.831 -3.832
C 21.357 -44.566 -1.807
C 21.382 -44.558 -0.242
C 18.792 -46.072 -2.279
C 18.836 -46.06 0.329
C 20.106 -43.809 0.297
C 18.792 -44.573 -1.765
C 18.819 -44.567 -0.199
C 20.062 -43.82 -2.311
C 21.422 -44.547 2.348
C 18.861 -46.054 1.895
C 18.864 -44.558 2.39
C 20.131 -43.803 1.864
C 21.316 -44.581 -4.395
C 18.767 -46.081 -3.846
C 20.037 -43.828 -3.877
C 18.747 -44.585 -4.352
C 22.653 -46.811 -1.811
C 22.676 -46.801 -0.246
C 21.398 -46.052 0.289
C 20.088 -46.819 -1.774
C 20.113 -46.811 -0.209
C 21.359 -46.067 -2.319
C 22.711 -46.785 2.344
C 20.152 -46.797 2.381
C 21.421 -46.044 1.855
C 22.617 -46.831 -4.399
C 21.336 -46.078 -3.886
C 20.049 -46.835 -4.362
C 22.626 -43.809 -2.352
C 22.666 -43.796 0.256
C 22.689 -43.789 1.823
C 22.602 -43.818 -3.918
C 26.479 -44.53 -1.879
C 26.501 -44.52 -0.314
C 23.922 -46.054 -2.355
C 23.958 -46.036 0.253
C 25.223 -43.776 0.22
C 23.919 -44.552 -1.845
C 23.942 -44.543 -0.279
C 25.187 -43.792 -2.388
C 26.534 -44.504 2.276
C 23.978 -46.027 1.819
C 23.978 -44.529 2.31
C 25.245 -43.768 1.786
C 26.444 -44.549 -4.467
C 23.9 -46.066 -3.922
C 25.165 -43.802 -3.955
C 23.882 -44.57 -4.433
C 27.775 -46.766 -1.875
C 27.795 -46.753 -0.311
C 26.516 -46.012 0.22
C 25.215 -46.794 -1.844
C 25.236 -46.782 -0.279
C 26.482 -46.032 -2.388
C 27.824 -46.731 2.279
C 25.268 -46.763 2.311
C 26.534 -46.001 1.786
C 27.74 -46.789 -4.464
C 26.461 -46.045 -3.955
C 25.181 -46.817 -4.433
C 27.747 -43.766 -2.422
C 27.781 -43.75 0.186
C 27.8 -43.741 1.752
C 27.726 -43.776 -3.989
C 31.602 -44.464 -1.942
C 31.621 -44.453 -0.377
C 29.041 -46.001 -2.42
C 29.074 -45.979 0.188
C 30.34 -43.717 0.154
C 29.04 -44.5 -1.911
C 29.06 -44.489 -0.346
C 30.308 -43.734 -2.453
C 31.646 -44.433 2.213
C 29.09 -45.967 1.754
C 29.09 -44.471 2.244
C 30.356 -43.707 1.72
C 31.563 -44.48 -4.531
C 29.019 -46.013 -3.986
C 30.285 -43.743 -4.02
C 29.005 -44.519 -4.5
C 32.901 -46.688 -1.939
C 32.92 -46.675 -0.372
C 31.635 -45.942 0.157
C 30.336 -46.729 -1.906
C 30.355 -46.715 -0.342
C 31.603 -45.963 -2.451
C 32.935 -46.645 2.225
C 30.38 -46.69 2.249
C 31.647 -45.926 1.724
C 32.851 -46.702 -4.535
C 31.576 -45.972 -4.018
C 30.297 -46.75 -4.496
C 32.87 -43.698 -2.484
C 32.902 -43.682 0.124
C 32.913 -43.67 1.691
C 32.843 -43.704 -4.051
C 36.737 -44.387 -2.013
C 36.755 -44.379 -0.43
C 34.168 -45.922 -2.488
C 34.2 -45.902 0.13
C 35.466 -43.645 0.098
C 34.167 -44.426 -1.974
C 34.186 -44.416 -0.407
C 35.436 -43.659 -2.519
C 36.753 -44.347 2.19
C 34.204 -45.883 1.704
C 34.2 -44.391 2.19
C 35.47 -43.629 1.672
C 36.671 -44.383 -4.632
C 34.132 -45.925 -4.062
C 35.4 -43.659 -4.093
C 34.118 -44.434 -4.569
C 36.744 -45.85 0.139
C 35.471 -46.647 -1.981
C 35.489 -46.636 -0.398
C 36.711 -45.867 -2.562
C 35.488 -46.598 2.223
C 36.742 -45.83 1.698
C 36.67 -45.865 -4.121
C 35.403 -46.649 -4.6
C 37.979 -43.605 -2.591
C 38.011 -43.594 0.11
C 38.008 -43.576 1.668
C 37.938 -43.6 -4.15
C 2.075 -43.811 -1.895
C 2.142 -43.812 0.713
C 2.183 -43.814 2.279
C 2.034 -43.811 -3.461
C 5.944 -44.566 -1.477
C 5.983 -44.566 0.088
C 3.361 -46.054 -1.931
C 3.427 -46.055 0.677
C 4.711 -43.816 0.643
C 3.373 -44.562 -1.409
C 3.413 -44.562 0.156
C 4.645 -43.815 -1.964
C 6.048 -44.567 2.677
C 3.467 -46.056 2.243
C 3.48 -44.565 2.745
C 4.751 -43.817 2.21
C 5.879 -44.567 -4.066
C 3.321 -46.054 -3.498
C 4.605 -43.816 -3.531
C 3.306 -44.562 -3.997
C 7.232 -46.807 -1.511
C 7.27 -46.807 0.054
C 5.997 -46.058 0.609
C 4.66 -46.803 -1.444
C 4.699 -46.803 0.121
C 5.933 -46.058 -1.999
C 7.332 -46.808 2.644
C 4.764 -46.805 2.71
C 6.036 -46.059 2.175
C 7.17 -46.81 -4.1
C 5.895 -46.06 -3.566
C 4.595 -46.804 -4.033
C -3.066 -43.801 -1.755
C -2.999 -43.803 0.853
C -2.958 -43.805 2.419
C -3.106 -43.801 -3.321
C 0.803 -44.557 -1.339
C 0.843 -44.558 0.226
C -1.782 -46.044 -1.792
C -1.715 -46.046 0.816
C -0.428 -43.808 0.783
C -1.768 -44.552 -1.269
C -1.728 -44.553 0.296
C -0.496 -43.806 -1.824
C 0.911 -44.561 2.815
C -1.674 -46.048 2.383
C -1.66 -44.557 2.885
C -0.387 -43.81 2.349
C 0.735 -44.557 -3.927
C -1.822 -46.043 -3.358
C -0.537 -43.806 -3.391
C -1.835 -44.552 -3.858
C 2.088 -46.798 -1.376
C 2.128 -46.799 0.189
C 0.857 -46.051 0.746
C -0.483 -46.793 -1.306
C -0.443 -46.795 0.259
C 0.789 -46.049 -1.862
C 2.195 -46.802 2.779
C -0.376 -46.798 2.848
C 0.897 -46.053 2.313
C 2.021 -46.798 -3.965
C 0.749 -46.049 -3.428
C -0.551 -46.793 -3.895
C -8.204 -43.789 -1.621
C -8.142 -43.791 0.986
C -8.104 -43.793 2.553
C -8.242 -43.788 -3.188
C -4.338 -44.547 -1.2
C -4.298 -44.548 0.365
C -6.922 -46.032 -1.656
C -6.859 -46.035 0.952
C -5.57 -43.797 0.921
C -6.908 -44.541 -1.133
C -6.87 -44.542 0.432
C -5.635 -43.795 -1.687
C -4.232 -44.552 2.954
C -6.82 -46.037 2.518
C -6.806 -44.546 3.02
C -5.531 -43.799 2.487
C -4.404 -44.546 -3.789
C -6.961 -46.031 -3.223
C -5.675 -43.795 -3.253
C -6.972 -44.54 -3.722
C -3.054 -46.788 -1.237
C -3.014 -46.79 0.328
C -4.286 -46.041 0.885
C -5.625 -46.782 -1.169
C -5.586 -46.784 0.396
C -4.352 -46.038 -1.723
C -2.948 -46.794 2.918
C -5.521 -46.788 2.985
C -4.246 -46.043 2.451
C -3.121 -46.787 -3.826
C -4.392 -46.037 -3.289
C -5.69 -46.781 -3.758
C -13.342 -43.774 -1.501
C -13.287 -43.777 1.107
C -13.253 -43.779 2.673
C -13.376 -43.774 -3.068
C -9.478 -44.534 -1.069
C -9.441 -44.535 0.496
C -12.061 -46.018 -1.532
C -12.004 -46.021 1.076
C -10.714 -43.784 1.048
C -12.048 -44.527 -1.009
C -12.013 -44.528 0.556
C -10.773 -43.782 -1.559
C -9.381 -44.539 3.084
C -11.969 -46.024 2.643
C -11.956 -44.532 3.144
C -10.678 -43.786 2.615
C -9.539 -44.533 -3.658
C -12.096 -46.017 -3.099
C -10.809 -43.781 -3.126
C -12.105 -44.526 -3.598
C -8.196 -46.776 -1.103
C -8.158 -46.777 0.462
C -9.431 -46.028 1.016
C -10.766 -46.769 -1.041
C -10.731 -46.77 0.524
C -9.492 -46.025 -1.592
C -8.096 -46.782 3.051
C -10.672 -46.775 3.113
C -9.394 -46.031 2.582
C -8.258 -46.774 -3.693
C -9.529 -46.024 -3.159
C -10.825 -46.767 -3.631
C -18.479 -43.759 -1.398
C -18.432 -43.761 1.21
C -18.403 -43.764 2.777
C -18.507 -43.758 -2.965
C -14.617 -44.519 -0.953
C -14.585 -44.521 0.612
C -17.199 -46.003 -1.424
C -17.151 -46.006 1.184
C -15.859 -43.769 1.161
C -17.187 -44.512 -0.901
C -17.157 -44.513 0.664
C -15.91 -43.767 -1.447
C -14.532 -44.525 3.201
C -17.121 -46.01 2.751
C -17.108 -44.517 3.252
C -15.828 -43.772 2.727
C -14.67 -44.518 -3.543
C -17.229 -46.001 -2.991
C -15.942 -43.766 -3.014
C -17.236 -44.51 -3.491
C -13.337 -46.761 -0.983
C -13.303 -46.763 0.582
C -14.578 -46.014 1.132
C -15.907 -46.754 -0.929
C -15.876 -46.756 0.637
C -14.63 -46.01 -1.476
C -13.248 -46.768 3.171
C -15.825 -46.761 3.225
C -14.545 -46.017 2.699
C -13.392 -46.759 -3.573
C -14.663 -46.009 -3.043
C -15.957 -46.751 -3.519
C -19.756 -44.504 -0.854
C -19.729 -44.506 0.712
C -19.685 -44.51 3.3
C -19.801 -44.502 -3.444
C -18.477 -46.746 -0.879
C -18.449 -46.749 0.686
C -19.725 -45.999 1.232
C -19.769 -45.995 -1.377
C -18.403 -46.754 3.275
C -19.698 -46.003 2.798
C -18.523 -46.743 -3.47
C -19.796 -45.993 -2.944
H 26.547 -44.498 3.366
H 23.993 -44.524 3.4
H 26.43 -44.559 -5.557
H 23.866 -44.579 -5.523
H 27.836 -46.722 3.369
H 25.282 -46.755 3.401
H 27.726 -46.803 -5.554
H 25.167 -46.829 -5.523
H 31.656 -44.427 3.303
H 29.102 -44.465 3.334
H 31.548 -44.49 -5.621
H 28.99 -44.53 -5.59
H 32.941 -46.633 3.315
H 30.391 -46.681 3.339
H 32.831 -46.713 -5.625
H 30.282 -46.763 -5.586
H 36.763 -44.342 3.28
H 34.206 -44.383 3.28
H 36.655 -44.391 -5.722
H 34.098 -44.441 -5.66
H 35.499 -46.59 3.313
H 35.386 -46.661 -5.69
H -1.63 -44.561 3.974
H -1.865 -44.554 -4.947
H -4.203 -44.556 4.043
H -6.778 -44.55 4.11
H -4.433 -44.548 -4.879
H -7 -44.541 -4.812
H -2.918 -46.798 4.007
H -5.493 -46.793 4.075
H -3.15 -46.789 -4.916
H -5.718 -46.782 -4.848
H -9.354 -44.543 4.174
H -11.931 -44.536 4.234
H -9.565 -44.535 -4.748
H -12.129 -44.527 -4.688
H -8.069 -46.786 4.141
H -10.646 -46.78 4.203
H -8.285 -46.776 -4.783
H -10.851 -46.768 -4.721
H -14.509 -44.528 4.291
H -17.087 -44.521 4.342
H -14.693 -44.52 -4.632
H -17.257 -44.512 -4.581
H -13.224 -46.773 4.261
H -15.803 -46.765 4.315
H -13.415 -46.761 -4.663
H -15.979 -46.753 -4.609
H -19.665 -44.514 4.39
H -19.82 -44.504 -4.534
H -18.382 -46.759 4.365
H -18.543 -46.744 -4.56
H 20.032 -46.845 -5.452
H 5.85 -44.57 -5.155
H 7.143 -46.813 -5.189
H 18.728 -44.592 -5.442
H 17.457 -46.841 -5.411
H 4.566 -46.806 -5.123
H 16.154 -44.59 -5.395
H 14.879 -46.834 -5.364
H 3.277 -44.564 -5.087
H 1.992 -46.8 -5.054
H 13.578 -44.586 -5.342
H 0.705 -44.559 -5.017
H 12.3 -46.827 -5.311
H -0.58 -46.795 -4.985
H 11.002 -44.581 -5.284
H 9.721 -46.819 -5.252
H 21.299 -44.589 -5.485
H 22.602 -46.842 -5.489
H 8.426 -44.575 -5.221
H 13.766 -44.568 3.58
H 11.205 -44.571 3.638
H 22.726 -46.779 3.434
H -0.346 -46.803 3.938
H 8.642 -44.571 3.7
H 20.17 -46.793 3.471
H 9.925 -46.811 3.671
H 7.36 -46.811 3.734
H 3.51 -44.568 3.835
H 4.793 -46.809 3.8
H 18.883 -44.556 3.48
H 16.325 -44.564 3.528
H 0.941 -44.565 3.904
H 15.05 -46.807 3.56
H 12.488 -46.81 3.613
H 21.439 -44.543 3.438
H 6.077 -44.57 3.766
H 17.611 -46.802 3.512
H 2.225 -46.806 3.869
H -21.107 -46.736 -4.515
C -44.138 -48.027 -1.145
C -44.106 -48.059 1.555
C -44.063 -48.067 3.114
C -44.137 -47.997 -2.703
C -40.313 -48.86 -0.641
C -40.298 -48.891 0.926
C -42.871 -50.284 -1.211
C -42.849 -50.331 1.489
C -41.564 -48.123 1.478
C -42.883 -48.819 -0.619
C -42.867 -48.843 0.964
C -41.592 -48.081 -1.138
C -40.256 -48.932 3.519
C -42.81 -50.349 3.048
C -42.801 -48.869 3.582
C -41.529 -48.139 3.052
C -40.32 -48.804 -3.237
C -42.866 -50.245 -2.769
C -41.594 -48.05 -2.712
C -42.88 -48.758 -3.238
C -39.051 -51.125 -0.703
C -39.043 -51.169 0.863
C -40.308 -50.401 1.417
C -41.619 -51.079 -0.689
C -41.611 -51.114 0.892
C -40.326 -50.34 -1.199
C -39.015 -51.231 3.454
C -41.554 -51.161 3.51
C -40.28 -50.427 2.99
C -39.046 -51.05 -3.298
C -40.322 -50.299 -2.772
C -41.607 -50.999 -3.308
C -39.027 -48.12 -1.16
C -39.003 -48.165 1.446
C -38.981 -48.187 3.013
C -39.033 -48.093 -2.727
C -35.186 -48.925 -0.68
C -35.174 -48.952 0.885
C -37.762 -50.381 -1.211
C -37.749 -50.443 1.394
C -36.444 -48.195 1.424
C -37.749 -48.898 -0.662
C -37.736 -48.93 0.902
C -36.464 -48.154 -1.182
C -35.157 -48.993 3.47
C -37.736 -50.474 2.96
C -37.711 -48.975 3.489
C -36.43 -48.218 2.99
C -35.199 -48.886 -3.269
C -37.761 -50.344 -2.777
C -36.472 -48.131 -2.748
C -37.76 -48.85 -3.251
C -33.92 -51.175 -0.719
C -33.914 -51.207 0.844
C -35.19 -50.462 1.382
C -36.488 -51.161 -0.712
C -36.482 -51.202 0.852
C -35.199 -50.41 -1.223
C -33.908 -51.255 3.429
C -36.471 -51.262 3.435
C -35.184 -50.491 2.948
C -33.924 -51.127 -3.309
C -35.2 -50.38 -2.788
C -36.487 -51.098 -3.3
C -33.901 -48.177 -1.202
C -33.882 -48.211 1.404
C -33.871 -48.231 2.971
C -33.911 -48.159 -2.769
C -30.051 -48.948 -0.721
C -30.037 -48.963 0.844
C -32.632 -50.424 -1.236
C -32.621 -50.464 1.37
C -31.315 -48.218 1.383
C -32.62 -48.94 -0.699
C -32.608 -48.961 0.866
C -31.335 -48.192 -1.225
C -30.016 -48.987 3.432
C -32.615 -50.487 2.937
C -32.591 -48.993 3.453
C -31.302 -48.233 2.949
C -30.072 -48.927 -3.312
C -32.637 -50.401 -2.802
C -31.348 -48.178 -2.792
C -32.636 -48.91 -3.289
C -28.776 -51.184 -0.749
C -28.763 -51.199 0.815
C -30.046 -50.46 1.353
C -31.348 -51.18 -0.731
C -31.34 -51.202 0.833
C -30.062 -50.432 -1.254
C -28.746 -51.223 3.404
C -31.329 -51.236 3.42
C -30.036 -50.477 2.92
C -28.793 -51.16 -3.341
C -30.071 -50.416 -2.821
C -31.359 -51.145 -3.322
C -28.768 -48.202 -1.252
C -28.743 -48.22 1.357
C -28.728 -48.232 2.923
C -28.783 -48.192 -2.819
C -24.91 -48.962 -0.78
C -24.89 -48.969 0.785
C -27.491 -50.439 -1.278
C -27.468 -50.459 1.33
C -26.169 -48.224 1.326
C -27.481 -48.955 -0.748
C -27.464 -48.966 0.817
C -26.198 -48.211 -1.283
C -24.858 -48.981 3.374
C -27.455 -50.47 2.897
C -27.438 -48.982 3.405
C -26.15 -48.232 2.893
C -24.942 -48.952 -3.372
C -27.505 -50.428 -2.845
C -26.217 -48.204 -2.85
C -27.507 -48.94 -3.34
C -23.631 -51.196 -0.806
C -23.611 -51.203 0.759
C -24.891 -50.46 1.301
C -26.203 -51.19 -0.774
C -26.187 -51.2 0.79
C -24.92 -50.447 -1.308
C -23.579 -51.214 3.348
C -26.162 -51.216 3.379
C -24.873 -50.468 2.867
C -23.663 -51.184 -3.398
C -24.938 -50.438 -2.875
C -26.228 -51.173 -3.366
C -23.629 -48.219 -1.318
C -23.594 -48.228 1.291
C -23.572 -48.234 2.857
C -23.651 -48.214 -2.885
C -22.35 -50.454 -1.344
C -22.314 -50.464 1.265
C -21.019 -48.233 1.25
C -22.339 -48.969 -0.818
C -22.316 -48.974 0.748
C -21.059 -48.226 -1.359
C -22.292 -50.47 2.831
C -22.278 -48.983 3.337
C -20.994 -48.238 2.817
C -22.372 -50.448 -2.911
C -21.084 -48.223 -2.925
C -22.376 -48.962 -3.409
C -21.059 -51.203 -0.844
C -21.035 -51.208 0.721
C -20.997 -51.216 3.31
C -21.098 -51.194 -3.436
H -35.149 -49.01 4.56
H -37.7 -48.996 4.579
H -35.207 -48.874 -4.359
H -37.767 -48.834 -4.341
H -33.904 -51.276 4.519
H -36.466 -51.289 4.525
H -33.929 -51.112 -4.399
H -36.49 -51.076 -4.39
H -30.006 -48.997 4.522
H -32.582 -49.006 4.543
H -30.083 -48.923 -4.402
H -32.646 -48.903 -4.379
H -28.737 -51.235 4.494
H -31.324 -51.253 4.51
H -28.803 -51.155 -4.431
H -31.366 -51.136 -4.412
H -24.843 -48.988 4.464
H -27.425 -48.991 4.496
H -24.957 -48.951 -4.462
H -27.52 -48.938 -4.43
H -23.564 -51.222 4.438
H -26.15 -51.226 4.469
H -23.678 -51.183 -4.488
H -26.241 -51.17 -4.456
H -22.261 -48.989 4.427
H -22.393 -48.962 -4.499
H -20.979 -51.223 4.4
H -41.617 -50.968 -4.398
H -42.892 -48.738 -4.328
H -40.325 -48.782 -4.327
H -39.045 -51.019 -4.387
H -39.001 -51.262 4.544
H -41.537 -51.197 4.6
H -42.782 -48.892 4.672
H -40.237 -48.953 4.609
C 7.223 -48.298 -2.032
C 7.284 -48.297 0.576
C 7.321 -48.297 2.142
C 7.186 -48.299 -3.599
C 11.097 -49.05 -1.601
C 11.13 -49.047 -0.036
C 8.513 -50.533 -2.063
C 8.571 -50.531 0.546
C 9.855 -48.3 0.514
C 8.522 -49.045 -1.542
C 8.558 -49.044 0.023
C 9.797 -48.303 -2.094
C 11.184 -49.044 2.555
C 8.606 -50.53 2.112
C 8.617 -49.043 2.613
C 9.889 -48.298 2.081
C 11.042 -49.055 -4.19
C 8.479 -50.535 -3.629
C 9.763 -48.306 -3.661
C 8.463 -49.048 -4.131
C 12.39 -51.284 -1.623
C 12.42 -51.281 -0.058
C 11.143 -50.535 0.489
C 9.813 -51.279 -1.569
C 9.846 -51.277 -0.005
C 11.09 -50.539 -2.12
C 12.469 -51.274 2.532
C 9.901 -51.274 2.586
C 11.175 -50.531 2.055
C 12.341 -51.29 -4.212
C 11.059 -50.542 -3.686
C 9.759 -51.282 -4.159
C 12.372 -48.308 -2.151
C 12.425 -48.302 0.457
C 12.456 -48.299 2.024
C 12.341 -48.312 -3.718
C 16.246 -49.059 -1.701
C 16.273 -49.053 -0.136
C 13.668 -50.545 -2.171
C 13.716 -50.538 0.437
C 14.995 -48.304 0.406
C 13.671 -49.055 -1.654
C 13.701 -49.051 -0.089
C 14.947 -48.313 -2.202
C 16.316 -49.043 2.455
C 13.744 -50.532 2.004
C 13.75 -49.044 2.502
C 15.023 -48.299 1.973
C 16.202 -49.072 -4.289
C 13.64 -50.551 -3.737
C 14.919 -48.319 -3.769
C 13.622 -49.063 -4.242
C 17.545 -51.298 -1.709
C 17.569 -51.29 -0.144
C 16.288 -50.54 0.393
C 14.967 -51.291 -1.669
C 14.995 -51.285 -0.105
C 16.246 -50.552 -2.215
C 17.607 -51.275 2.446
C 15.038 -51.275 2.486
C 16.313 -50.533 1.959
C 17.508 -51.312 -4.297
C 16.222 -50.56 -3.781
C 14.925 -51.301 -4.258
C 17.521 -48.317 -2.247
C 17.564 -48.304 0.361
C 17.589 -48.297 1.928
C 17.496 -48.325 -3.814
C 21.389 -49.064 -1.776
C 21.411 -49.053 -0.211
C 18.824 -50.559 -2.253
C 18.861 -50.543 0.355
C 20.131 -48.302 0.322
C 18.819 -49.063 -1.741
C 18.843 -49.055 -0.176
C 20.093 -48.318 -2.286
C 21.445 -49.035 2.378
C 18.882 -50.533 1.921
C 18.882 -49.041 2.414
C 20.153 -48.293 1.888
C 21.355 -49.085 -4.364
C 18.802 -50.569 -3.819
C 20.07 -48.329 -3.853
C 18.781 -49.08 -4.329
C 22.696 -51.309 -1.77
C 22.716 -51.296 -0.206
C 21.432 -50.543 0.323
C 20.122 -51.305 -1.742
C 20.144 -51.294 -0.177
C 21.398 -50.563 -2.284
C 22.745 -51.273 2.383
C 20.177 -51.275 2.412
C 21.451 -50.531 1.889
C 22.667 -51.334 -4.357
C 21.379 -50.576 -3.851
C 20.09 -51.325 -4.33
C 22.66 -48.313 -2.32
C 22.695 -48.293 0.288
C 22.715 -48.282 1.854
C 22.639 -48.326 -3.887
C 26.515 -49.033 -1.836
C 26.535 -49.018 -0.272
C 23.966 -50.559 -2.312
C 23.997 -50.535 0.294
C 25.254 -48.274 0.256
C 23.954 -49.056 -1.807
C 23.975 -49.042 -0.243
C 25.221 -48.297 -2.351
C 26.563 -48.993 2.317
C 24.014 -50.521 1.86
C 24.006 -49.021 2.347
C 25.272 -48.261 1.823
C 26.482 -49.059 -4.424
C 23.948 -50.574 -3.878
C 25.201 -48.311 -3.917
C 23.922 -49.08 -4.395
C 27.823 -51.266 -1.821
C 27.841 -51.249 -0.257
C 26.556 -50.509 0.267
C 25.262 -51.3 -1.795
C 25.281 -51.284 -0.231
C 26.526 -50.536 -2.339
C 27.862 -51.218 2.332
C 25.307 -51.257 2.356
C 26.571 -50.493 1.833
C 27.787 -51.295 -4.409
C 26.506 -50.552 -3.905
C 25.233 -51.328 -4.382
C 27.78 -48.268 -2.381
C 27.812 -48.243 0.226
C 27.827 -48.228 1.792
C 27.758 -48.282 -3.947
C 31.64 -48.95 -1.898
C 31.658 -48.934 -0.331
C 29.085 -50.496 -2.367
C 29.115 -50.467 0.24
C 30.372 -48.203 0.197
C 29.076 -48.995 -1.865
C 29.095 -48.98 -0.301
C 30.341 -48.228 -2.412
C 31.672 -48.899 2.266
C 29.125 -50.447 1.807
C 29.118 -48.95 2.289
C 30.383 -48.185 1.763
C 31.59 -48.97 -4.494
C 29.059 -50.51 -3.934
C 30.314 -48.24 -3.979
C 29.038 -49.021 -4.455
C 32.955 -51.162 -1.892
C 32.972 -51.146 -0.309
C 31.679 -50.417 0.215
C 30.385 -51.215 -1.851
C 30.403 -51.197 -0.284
C 31.648 -50.446 -2.403
C 32.969 -51.097 2.313
C 30.415 -51.158 2.313
C 31.681 -50.392 1.789
C 32.888 -51.176 -4.513
C 31.613 -50.456 -3.977
C 30.338 -51.238 -4.447
C 32.905 -48.184 -2.449
C 32.937 -48.159 0.169
C 32.94 -48.137 1.743
C 32.869 -48.191 -4.023
C 34.191 -50.384 -2.48
C 34.223 -50.357 0.223
C 35.481 -48.105 0.177
C 34.209 -48.905 -1.94
C 34.228 -48.892 -0.357
C 35.448 -48.126 -2.525
C 34.22 -50.33 1.781
C 34.226 -48.847 2.264
C 35.479 -48.081 1.735
C 34.15 -50.389 -4.038
C 35.406 -48.128 -4.084
C 34.141 -48.914 -4.56
C 2.076 -48.288 -1.899
C 2.142 -48.29 0.71
C 2.182 -48.291 2.276
C 2.036 -48.288 -3.465
C 5.948 -49.04 -1.478
C 5.986 -49.04 0.086
C 3.363 -50.523 -1.935
C 3.427 -50.524 0.674
C 4.713 -48.294 0.642
C 3.375 -49.035 -1.412
C 3.414 -49.036 0.153
C 4.649 -48.293 -1.967
C 6.049 -49.041 2.677
C 3.466 -50.525 2.24
C 3.479 -49.039 2.743
C 4.752 -48.294 2.208
C 5.886 -49.041 -4.068
C 3.324 -50.522 -3.501
C 4.61 -48.294 -3.533
C 3.31 -49.035 -4.001
C 7.237 -51.273 -1.51
C 7.273 -51.273 0.054
C 5.999 -50.528 0.608
C 4.662 -51.269 -1.446
C 4.7 -51.269 0.118
C 5.937 -50.528 -2.001
C 7.333 -51.272 2.645
C 4.763 -51.27 2.708
C 6.036 -50.528 2.174
C 7.178 -51.274 -4.1
C 5.9 -50.528 -3.567
C 4.599 -51.267 -4.036
C -3.068 -48.277 -1.76
C -3.002 -48.28 0.848
C -2.962 -48.283 2.415
C -3.108 -48.276 -3.327
C 0.802 -49.031 -1.343
C 0.842 -49.032 0.222
C -1.784 -50.512 -1.798
C -1.718 -50.515 0.811
C -0.43 -48.285 0.779
C -1.77 -49.025 -1.274
C -1.73 -49.027 0.291
C -0.497 -48.283 -1.829
C 0.909 -49.035 2.812
C -1.678 -50.517 2.377
C -1.663 -49.031 2.881
C -0.39 -48.287 2.345
C 0.736 -49.029 -3.933
C -1.824 -50.51 -3.364
C -0.537 -48.282 -3.396
C -1.837 -49.023 -3.864
C 2.088 -51.264 -1.38
C 2.127 -51.265 0.185
C 0.855 -50.52 0.742
C -0.485 -51.259 -1.311
C -0.446 -51.26 0.253
C 0.789 -50.517 -1.867
C 2.193 -51.267 2.775
C -0.379 -51.263 2.843
C 0.895 -50.521 2.308
C 2.023 -51.261 -3.969
C 0.749 -50.516 -3.433
C -0.552 -51.255 -3.901
C -8.21 -48.264 -1.627
C -8.148 -48.268 0.982
C -8.11 -48.271 2.548
C -8.248 -48.263 -3.194
C -4.342 -49.019 -1.205
C -4.302 -49.021 0.36
C -6.928 -50.5 -1.663
C -6.864 -50.503 0.946
C -5.575 -48.274 0.916
C -6.913 -49.013 -1.139
C -6.875 -49.015 0.426
C -5.639 -48.271 -1.692
C -4.237 -49.026 2.949
C -6.826 -50.506 2.512
C -6.812 -49.02 3.016
C -5.535 -48.277 2.482
C -4.407 -49.017 -3.795
C -6.966 -50.497 -3.229
C -5.679 -48.27 -3.259
C -6.977 -49.011 -3.729
C -3.058 -51.253 -1.242
C -3.019 -51.255 0.322
C -4.291 -50.509 0.879
C -5.63 -51.247 -1.175
C -5.592 -51.249 0.389
C -4.356 -50.506 -1.729
C -2.953 -51.258 2.912
C -5.527 -51.253 2.979
C -4.251 -50.512 2.445
C -3.124 -51.249 -3.833
C -4.396 -50.504 -3.296
C -5.695 -51.243 -3.766
C -13.35 -48.25 -1.507
C -13.295 -48.254 1.102
C -13.262 -48.257 2.669
C -13.383 -48.248 -3.073
C -9.484 -49.006 -1.075
C -9.448 -49.008 0.49
C -12.069 -50.485 -1.539
C -12.013 -50.49 1.07
C -10.721 -48.261 1.044
C -12.055 -48.999 -1.015
C -12.021 -49.001 0.55
C -10.78 -48.257 -1.565
C -9.387 -49.013 3.08
C -11.978 -50.493 2.636
C -11.964 -49.007 3.14
C -10.685 -48.264 2.61
C -9.545 -49.004 -3.665
C -12.104 -50.482 -3.105
C -10.816 -48.256 -3.131
C -12.112 -48.996 -3.605
C -8.202 -51.24 -1.11
C -8.165 -51.243 0.455
C -9.438 -50.497 1.009
C -10.774 -51.233 -1.048
C -10.738 -51.236 0.517
C -9.498 -50.493 -1.599
C -8.103 -51.247 3.044
C -10.68 -51.24 3.106
C -9.401 -50.5 2.576
C -8.264 -51.236 -3.701
C -9.535 -50.49 -3.166
C -10.832 -51.228 -3.639
C -18.489 -48.234 -1.403
C -18.444 -48.24 1.206
C -18.416 -48.244 2.772
C -18.517 -48.232 -2.97
C -14.626 -48.992 -0.958
C -14.594 -48.994 0.607
C -17.209 -50.47 -1.432
C -17.162 -50.476 1.177
C -15.869 -48.247 1.156
C -17.197 -48.984 -0.907
C -17.168 -48.987 0.658
C -15.92 -48.242 -1.453
C -14.542 -49 3.196
C -17.133 -50.479 2.744
C -17.12 -48.993 3.248
C -15.838 -48.25 2.723
C -14.679 -48.988 -3.549
C -17.239 -50.466 -2.998
C -15.951 -48.24 -3.019
C -17.245 -48.98 -3.498
C -13.345 -51.226 -0.99
C -13.312 -51.228 0.575
C -14.587 -50.483 1.126
C -15.917 -51.218 -0.936
C -15.886 -51.221 0.628
C -14.639 -50.478 -1.483
C -13.258 -51.233 3.165
C -15.837 -51.226 3.218
C -14.555 -50.486 2.692
C -13.4 -51.221 -3.581
C -14.671 -50.474 -3.05
C -15.966 -51.212 -3.528
C -19.768 -48.976 -0.86
C -19.742 -48.98 0.705
C -19.699 -48.987 3.295
C -19.811 -48.971 -3.451
C -18.488 -51.21 -0.887
C -18.461 -51.214 0.677
C -19.738 -50.469 1.224
C -19.78 -50.462 -1.385
C -18.416 -51.22 3.267
C -19.712 -50.474 2.79
C -18.532 -51.203 -3.479
C -19.805 -50.457 -2.952
H 26.574 -48.983 3.408
H 24.019 -49.013 3.437
H 26.469 -49.075 -5.514
H 23.91 -49.094 -5.485
H 27.871 -51.204 3.422
H 25.318 -51.246 3.446
H 27.774 -51.313 -5.499
H 25.222 -51.345 -5.472
H 31.678 -48.884 3.357
H 29.128 -48.938 3.379
H 31.57 -48.983 -5.584
H 29.023 -49.037 -5.545
H 32.98 -51.082 3.403
H 30.42 -51.141 3.403
H 32.871 -51.194 -5.603
H 30.318 -51.255 -5.537
H 34.238 -48.835 3.355
H 34.124 -48.929 -5.65
H -1.634 -49.036 3.971
H -1.866 -49.025 -4.954
H -4.208 -49.031 4.039
H -6.784 -49.025 4.106
H -4.436 -49.019 -4.885
H -7.004 -49.012 -4.819
H -2.923 -51.264 4.002
H -5.499 -51.258 4.069
H -3.153 -51.251 -4.923
H -5.723 -51.245 -4.855
H -9.361 -49.019 4.17
H -11.939 -49.012 4.23
H -9.571 -49.005 -4.755
H -12.137 -48.998 -4.695
H -8.076 -51.252 4.134
H -10.654 -51.246 4.196
H -8.291 -51.238 -4.791
H -10.858 -51.23 -4.729
H -14.519 -49.005 4.286
H -17.099 -48.999 4.338
H -14.702 -48.99 -4.639
H -17.266 -48.981 -4.588
H -13.234 -51.239 4.255
H -15.815 -51.232 4.308
H -13.423 -51.222 -4.671
H -15.988 -51.213 -4.618
H -19.68 -48.993 4.385
H -19.83 -48.972 -4.541
H -18.396 -51.227 4.357
H -18.552 -51.204 -4.569
H 20.078 -51.337 -5.42
H 5.858 -49.044 -5.158
H 7.152 -51.278 -5.19
H 18.765 -49.09 -5.419
H 17.493 -51.322 -5.387
H 4.572 -51.27 -5.126
H 16.184 -49.08 -5.379
H 14.907 -51.309 -5.348
H 3.281 -49.038 -5.091
H 1.994 -51.264 -5.059
H 13.601 -49.07 -5.332
H 0.706 -49.032 -5.023
H 12.32 -51.297 -5.302
H -0.58 -51.258 -4.991
H 11.019 -49.06 -5.28
H 9.735 -51.287 -5.249
H 21.341 -49.097 -5.454
H 22.656 -51.348 -5.447
H 8.437 -49.052 -5.221
H 13.772 -49.044 3.592
H 11.208 -49.046 3.645
H 22.757 -51.265 3.473
H -0.35 -51.268 3.933
H 8.643 -49.046 3.703
H 20.191 -51.27 3.502
H 9.925 -51.276 3.676
H 7.359 -51.276 3.735
H 3.508 -49.043 3.833
H 4.791 -51.274 3.798
H 18.899 -49.037 3.504
H 16.336 -49.042 3.545
H 0.938 -49.04 3.901
H 15.057 -51.274 3.576
H 12.491 -51.276 3.622
H 21.46 -49.029 3.468
H 6.077 -49.045 3.766
H 17.623 -51.272 3.536
H 2.222 -51.272 3.865
H -21.115 -51.194 -4.526
C -40.362 -53.342 -0.781
C -40.365 -53.394 0.799
C -41.602 -52.607 1.4
C -41.608 -52.538 -1.297
C -40.331 -53.473 3.411
C -41.573 -52.637 2.959
C -40.333 -53.234 -3.396
C -41.595 -52.487 -2.854
C -39.138 -55.64 -0.901
C -39.155 -55.715 0.68
C -40.384 -54.898 1.28
C -40.363 -54.794 -1.409
C -39.17 -55.834 3.279
C -40.38 -54.95 2.833
C -39.081 -55.488 -3.513
C -40.337 -54.724 -2.962
C -39.065 -52.602 -1.273
C -39.064 -52.688 1.339
C -39.05 -52.729 2.911
C -39.051 -52.548 -2.845
C -35.227 -53.415 -0.767
C -35.228 -53.463 0.796
C -37.82 -54.881 -1.363
C -37.842 -54.995 1.245
C -36.506 -52.722 1.333
C -37.798 -53.4 -0.778
C -37.801 -53.459 0.788
C -36.503 -52.643 -1.27
C -35.237 -53.53 3.378
C -37.854 -55.051 2.819
C -37.798 -53.544 3.373
C -36.507 -52.763 2.898
C -35.21 -53.337 -3.354
C -37.79 -54.807 -2.936
C -36.491 -52.595 -2.835
C -37.774 -53.3 -3.369
C -33.947 -55.644 -0.824
C -33.952 -55.688 0.749
C -35.255 -54.98 1.273
C -36.539 -55.671 -0.865
C -36.55 -55.739 0.714
C -35.235 -54.892 -1.333
C -33.974 -55.743 3.338
C -36.58 -55.83 3.292
C -35.27 -55.023 2.838
C -33.921 -55.553 -3.417
C -35.213 -54.834 -2.896
C -36.491 -55.542 -3.449
C -33.932 -52.656 -1.267
C -33.934 -52.715 1.336
C -33.937 -52.748 2.902
C -33.926 -52.619 -2.833
C -30.071 -53.411 -0.765
C -30.064 -53.432 0.8
C -32.652 -54.885 -1.315
C -32.661 -54.942 1.296
C -31.352 -52.7 1.335
C -32.648 -53.411 -0.761
C -32.646 -53.443 0.803
C -31.357 -52.659 -1.272
C -30.059 -53.461 3.388
C -32.67 -54.97 2.862
C -32.65 -53.489 3.389
C -31.351 -52.723 2.901
C -30.077 -53.372 -3.356
C -32.641 -54.843 -2.879
C -31.358 -52.633 -2.838
C -32.642 -53.355 -3.351
C -28.788 -55.64 -0.8
C -28.781 -55.656 0.775
C -30.071 -54.923 1.304
C -31.364 -55.638 -0.804
C -31.363 -55.665 0.771
C -30.075 -54.887 -1.309
C -28.775 -55.669 3.368
C -31.371 -55.693 3.362
C -30.072 -54.94 2.87
C -28.794 -55.593 -3.395
C -30.074 -54.858 -2.874
C -31.356 -55.574 -3.398
C -28.784 -52.665 -1.285
C -28.77 -52.692 1.323
C -28.763 -52.707 2.889
C -28.791 -52.646 -2.851
C -24.923 -53.42 -0.801
C -24.907 -53.429 0.763
C -27.502 -54.893 -1.316
C -27.488 -54.916 1.297
C -26.189 -52.689 1.303
C -27.496 -53.415 -0.778
C -27.485 -53.428 0.787
C -26.212 -52.671 -1.306
C -24.881 -53.44 3.353
C -27.48 -54.925 2.863
C -27.469 -53.446 3.375
C -26.177 -52.699 2.869
C -24.948 -53.4 -3.394
C -27.509 -54.872 -2.882
C -26.225 -52.658 -2.872
C -27.512 -53.387 -3.37
C -23.642 -55.65 -0.833
C -23.624 -55.657 0.742
C -24.907 -54.915 1.279
C -26.214 -55.644 -0.81
C -26.201 -55.655 0.765
C -24.931 -54.9 -1.335
C -23.597 -55.653 3.336
C -26.184 -55.657 3.358
C -24.893 -54.919 2.845
C -23.669 -55.62 -3.429
C -24.945 -54.883 -2.901
C -26.232 -55.608 -3.406
C -23.641 -52.678 -1.335
C -23.61 -52.691 1.274
C -23.592 -52.697 2.84
C -23.659 -52.668 -2.901
C -22.36 -54.908 -1.364
C -22.328 -54.918 1.25
C -21.033 -52.695 1.238
C -22.351 -53.427 -0.833
C -22.33 -53.433 0.732
C -21.07 -52.686 -1.371
C -22.308 -54.919 2.816
C -22.297 -53.439 3.322
C -21.01 -52.699 2.804
C -22.38 -54.894 -2.93
C -21.093 -52.678 -2.937
C -22.384 -53.411 -3.425
C -21.07 -55.657 -0.865
C -21.048 -55.662 0.71
C -21.012 -55.654 3.304
C -21.106 -55.631 -3.461
H -35.241 -53.56 4.468
H -37.794 -53.584 4.462
H -35.208 -53.308 -4.443
H -37.767 -53.257 -4.458
H -33.987 -55.753 4.428
H -36.592 -55.854 4.382
H -33.912 -55.504 -4.506
H -36.467 -55.465 -4.536
H -30.055 -53.476 4.478
H -32.651 -53.511 4.479
H -30.081 -53.36 -4.446
H -32.644 -53.336 -4.441
H -28.773 -55.662 4.458
H -31.376 -55.694 4.452
H -28.796 -55.563 -4.485
H -31.352 -55.537 -4.488
H -24.869 -53.448 4.443
H -27.461 -53.457 4.466
H -24.961 -53.395 -4.484
H -27.521 -53.38 -4.46
H -23.584 -55.64 4.426
H -26.176 -55.646 4.449
H -23.681 -55.596 -4.519
H -26.24 -55.581 -4.496
H -22.281 -53.445 4.412
H -22.399 -53.408 -4.515
H -20.996 -55.64 4.394
H -40.336 -53.189 -4.485
H -39.084 -55.412 -4.6
H -39.183 -55.896 4.367
H -40.319 -53.526 4.5
C 7.227 -52.759 -2.032
C 7.285 -52.759 0.576
C 7.32 -52.756 2.142
C 7.192 -52.758 -3.598
C 11.105 -53.51 -1.593
C 11.135 -53.507 -0.028
C 8.516 -54.987 -2.063
C 8.571 -54.986 0.551
C 9.859 -52.762 0.519
C 8.527 -53.504 -1.539
C 8.56 -53.503 0.025
C 9.805 -52.765 -2.089
C 11.185 -53.498 2.562
C 8.604 -54.979 2.116
C 8.616 -53.497 2.616
C 9.89 -52.758 2.085
C 11.055 -53.509 -4.182
C 8.484 -54.982 -3.628
C 9.773 -52.765 -3.655
C 8.471 -53.501 -4.129
C 12.396 -55.739 -1.617
C 12.424 -55.736 -0.042
C 11.146 -54.99 0.499
C 9.816 -55.733 -1.57
C 9.848 -55.732 0.005
C 11.096 -54.994 -2.115
C 12.469 -55.714 2.552
C 9.899 -55.713 2.6
C 11.175 -54.98 2.064
C 12.351 -55.728 -4.21
C 11.067 -54.99 -3.68
C 9.765 -55.718 -4.163
C 12.384 -52.772 -2.14
C 12.433 -52.766 0.467
C 12.461 -52.759 2.033
C 12.356 -52.774 -3.707
C 16.265 -53.524 -1.678
C 16.289 -53.517 -0.114
C 13.678 -55.001 -2.159
C 13.722 -54.994 0.454
C 15.008 -52.77 0.423
C 13.684 -53.516 -1.64
C 13.711 -53.512 -0.075
C 14.965 -52.78 -2.184
C 16.326 -53.5 2.476
C 13.747 -54.982 2.02
C 13.755 -53.499 2.516
C 15.032 -52.761 1.989
C 16.229 -53.532 -4.267
C 13.654 -55 -3.725
C 14.941 -52.784 -3.75
C 13.641 -53.52 -4.229
C 17.562 -55.756 -1.686
C 17.584 -55.748 -0.111
C 16.3 -54.999 0.418
C 14.978 -55.746 -1.656
C 15.003 -55.741 -0.081
C 16.263 -55.011 -2.195
C 17.616 -55.716 2.482
C 15.041 -55.714 2.513
C 16.321 -54.984 1.984
C 17.532 -55.755 -4.279
C 16.242 -55.013 -3.761
C 14.94 -55.74 -4.249
C 17.548 -52.789 -2.221
C 17.584 -52.774 0.386
C 17.605 -52.763 1.952
C 17.527 -52.797 -3.787
C 21.431 -53.547 -1.735
C 21.45 -53.534 -0.171
C 18.85 -55.023 -2.223
C 18.882 -55.006 0.39
C 20.163 -52.78 0.356
C 18.848 -53.534 -1.71
C 18.869 -53.524 -0.145
C 20.13 -52.8 -2.25
C 21.477 -53.507 2.418
C 18.9 -54.988 1.955
C 18.9 -53.502 2.444
C 20.181 -52.767 1.922
C 21.405 -53.566 -4.323
C 18.833 -55.029 -3.789
C 20.113 -52.811 -3.817
C 18.817 -53.548 -4.298
C 22.744 -55.791 -1.727
C 22.761 -55.776 -0.153
C 21.469 -55.017 0.367
C 20.15 -55.77 -1.709
C 20.169 -55.758 -0.134
C 21.441 -55.04 -2.244
C 22.786 -55.735 2.438
C 20.197 -55.721 2.458
C 21.485 -54.998 1.933
C 22.724 -55.803 -4.316
C 21.427 -55.049 -3.81
C 20.126 -55.775 -4.301
C 22.711 -52.811 -2.275
C 22.74 -52.787 0.331
C 22.756 -52.771 1.897
C 22.695 -52.824 -3.841
C 26.58 -53.545 -1.777
C 26.597 -53.528 -0.213
C 24.034 -55.065 -2.259
C 24.06 -55.038 0.347
C 25.309 -52.779 0.308
C 24.012 -53.559 -1.757
C 24.029 -53.544 -0.192
C 25.281 -52.806 -2.296
C 26.617 -53.495 2.372
C 24.075 -55.016 1.913
C 24.055 -53.514 2.394
C 25.322 -52.76 1.873
C 26.55 -53.573 -4.361
C 24.021 -55.077 -3.825
C 25.264 -52.822 -3.861
C 23.987 -53.585 -4.341
C 27.92 -55.784 -1.754
C 27.936 -55.768 -0.187
C 26.636 -55.028 0.329
C 25.343 -55.823 -1.74
C 25.359 -55.806 -0.168
C 26.61 -55.057 -2.275
C 27.948 -55.729 2.404
C 25.383 -55.766 2.413
C 26.647 -55.006 1.894
C 27.886 -55.807 -4.345
C 26.593 -55.07 -3.84
C 25.323 -55.843 -4.321
C 27.84 -52.771 -2.32
C 27.868 -52.741 0.286
C 27.877 -52.72 1.852
C 27.817 -52.785 -3.886
C 31.711 -53.417 -1.839
C 31.727 -53.401 -0.257
C 29.17 -54.989 -2.302
C 29.196 -54.96 0.314
C 30.429 -52.681 0.264
C 29.142 -53.488 -1.802
C 29.159 -53.471 -0.235
C 30.401 -52.711 -2.353
C 31.721 -53.35 2.366
C 29.198 -54.934 1.887
C 29.168 -53.431 2.36
C 30.43 -52.654 1.838
C 31.647 -53.435 -4.461
C 29.141 -54.999 -3.874
C 30.368 -52.722 -3.927
C 29.098 -53.513 -4.396
C 31.738 -54.862 0.328
C 30.485 -55.68 -1.785
C 30.5 -55.667 -0.204
C 31.711 -54.891 -2.373
C 30.494 -55.62 2.415
C 31.732 -54.832 1.887
C 31.674 -54.899 -3.932
C 30.426 -55.697 -4.405
C 32.944 -52.638 -2.428
C 32.973 -52.609 0.274
C 32.969 -52.579 1.834
C 32.904 -52.646 -3.987
C 2.075 -52.748 -1.903
C 2.139 -52.751 0.705
C 2.178 -52.75 2.271
C 2.036 -52.745 -3.469
C 5.95 -53.499 -1.479
C 5.986 -53.499 0.085
C 3.361 -54.976 -1.941
C 3.424 -54.979 0.672
C 4.712 -52.755 0.639
C 3.374 -53.494 -1.415
C 3.412 -53.495 0.149
C 4.65 -52.754 -1.969
C 6.046 -53.495 2.676
C 3.462 -54.973 2.238
C 3.476 -53.492 2.74
C 4.75 -52.753 2.205
C 5.89 -53.493 -4.069
C 3.323 -54.969 -3.507
C 4.613 -52.751 -3.535
C 3.311 -53.487 -4.005
C 7.237 -55.727 -1.515
C 7.272 -55.728 0.06
C 5.998 -54.983 0.609
C 4.661 -55.722 -1.455
C 4.698 -55.724 0.12
C 5.938 -54.982 -2.004
C 7.329 -55.711 2.654
C 4.759 -55.709 2.715
C 6.033 -54.976 2.175
C 7.181 -55.711 -4.109
C 5.902 -54.975 -3.57
C 4.599 -55.704 -4.048
C -3.073 -52.737 -1.767
C -3.007 -52.741 0.841
C -2.967 -52.741 2.407
C -3.112 -52.733 -3.333
C 0.8 -53.489 -1.348
C 0.839 -53.491 0.216
C -1.789 -54.966 -1.807
C -1.723 -54.969 0.807
C -0.434 -52.746 0.773
C -1.774 -53.484 -1.28
C -1.735 -53.486 0.284
C -0.499 -52.743 -1.835
C 0.904 -53.489 2.807
C -1.684 -54.965 2.372
C -1.669 -53.484 2.875
C -0.394 -52.746 2.339
C 0.734 -53.481 -3.939
C -1.828 -54.957 -3.373
C -0.539 -52.739 -3.401
C -1.84 -53.475 -3.871
C 2.085 -55.718 -1.39
C 2.123 -55.719 0.185
C 0.85 -54.974 0.739
C -0.49 -55.713 -1.323
C -0.451 -55.715 0.252
C 0.785 -54.971 -1.875
C 2.188 -55.706 2.779
C -0.385 -55.702 2.846
C 0.89 -54.97 2.304
C 2.021 -55.698 -3.984
C 0.746 -54.963 -3.44
C -0.555 -55.692 -3.917
C -8.217 -52.725 -1.635
C -8.155 -52.729 0.974
C -8.118 -52.73 2.54
C -8.254 -52.72 -3.2
C -4.347 -53.478 -1.212
C -4.308 -53.48 0.352
C -6.935 -54.954 -1.674
C -6.872 -54.958 0.94
C -5.581 -52.735 0.909
C -6.92 -53.472 -1.146
C -6.882 -53.474 0.418
C -5.645 -52.731 -1.7
C -4.243 -53.479 2.942
C -6.834 -54.954 2.506
C -6.819 -53.473 3.009
C -5.542 -52.736 2.474
C -4.412 -53.469 -3.803
C -6.973 -54.945 -3.239
C -5.684 -52.727 -3.265
C -6.983 -53.462 -3.737
C -3.064 -55.707 -1.255
C -3.025 -55.709 0.32
C -4.298 -54.964 0.874
C -5.638 -55.701 -1.188
C -5.599 -55.703 0.387
C -4.362 -54.96 -1.74
C -2.959 -55.697 2.914
C -5.535 -55.691 2.981
C -4.258 -54.96 2.44
C -3.13 -55.687 -3.849
C -4.402 -54.951 -3.305
C -5.702 -55.68 -3.783
C -13.359 -52.71 -1.515
C -13.305 -52.715 1.093
C -13.272 -52.716 2.659
C -13.392 -52.704 -3.081
C -9.492 -53.465 -1.083
C -9.456 -53.467 0.482
C -12.078 -54.939 -1.551
C -12.022 -54.944 1.063
C -10.73 -52.722 1.036
C -12.064 -53.457 -1.023
C -12.03 -53.46 0.542
C -10.788 -52.717 -1.573
C -9.396 -53.467 3.072
C -11.988 -54.941 2.629
C -11.974 -53.46 3.132
C -10.694 -52.723 2.602
C -9.552 -53.455 -3.674
C -12.112 -54.93 -3.116
C -10.823 -52.712 -3.139
C -12.12 -53.447 -3.614
C -8.211 -55.695 -1.123
C -8.173 -55.697 0.451
C -9.447 -54.951 1.003
C -10.783 -55.688 -1.062
C -10.748 -55.69 0.513
C -9.507 -54.947 -1.61
C -8.112 -55.685 3.045
C -10.69 -55.678 3.107
C -9.411 -54.948 2.569
C -8.272 -55.674 -3.718
C -9.543 -54.937 -3.176
C -10.841 -55.666 -3.657
C -18.5 -52.694 -1.414
C -18.456 -52.701 1.195
C -18.429 -52.703 2.761
C -18.526 -52.687 -2.98
C -14.636 -53.45 -0.967
C -14.604 -53.452 0.597
C -17.22 -54.923 -1.445
C -17.174 -54.929 1.169
C -15.88 -52.708 1.147
C -17.207 -53.442 -0.917
C -17.179 -53.445 0.648
C -15.929 -52.702 -1.462
C -14.553 -53.453 3.187
C -17.146 -54.928 2.734
C -17.133 -53.447 3.238
C -15.85 -52.709 2.713
C -14.687 -53.439 -3.559
C -17.248 -54.913 -3.011
C -15.959 -52.696 -3.028
C -17.254 -53.43 -3.508
C -13.355 -55.68 -1.004
C -13.322 -55.682 0.57
C -14.598 -54.937 1.118
C -15.927 -55.672 -0.952
C -15.897 -55.675 0.623
C -14.649 -54.931 -1.496
C -13.268 -55.671 3.164
C -15.848 -55.664 3.217
C -14.566 -54.934 2.684
C -13.409 -55.658 -3.6
C -14.68 -54.921 -3.061
C -15.976 -55.65 -3.547
C -19.779 -53.434 -0.872
C -19.754 -53.439 0.693
C -19.714 -53.442 3.283
C -19.819 -53.421 -3.464
C -18.499 -55.665 -0.905
C -18.472 -55.668 0.67
C -19.75 -54.923 1.213
C -19.79 -54.915 -1.401
C -18.429 -55.658 3.264
C -19.726 -54.922 2.779
C -18.541 -55.64 -3.501
C -19.814 -54.903 -2.967
H 26.625 -53.481 3.462
H 24.066 -53.502 3.484
H 26.54 -53.591 -5.451
H 23.98 -53.6 -5.431
H 27.95 -55.709 3.494
H 25.395 -55.741 3.502
H 27.871 -55.822 -5.435
H 25.321 -55.847 -5.411
H 31.73 -53.334 3.456
H 29.171 -53.413 3.45
H 31.63 -53.456 -5.552
H 29.079 -53.531 -5.486
H 30.5 -55.606 3.506
H 30.41 -55.722 -5.495
H -1.64 -53.488 3.965
H -1.869 -53.475 -4.961
H -4.214 -53.483 4.032
H -6.791 -53.477 4.098
H -4.44 -53.469 -4.893
H -7.01 -53.462 -4.827
H -2.93 -55.68 4.004
H -5.507 -55.675 4.071
H -3.158 -55.667 -4.939
H -5.729 -55.66 -4.873
H -9.369 -53.471 4.162
H -11.949 -53.464 4.222
H -9.578 -53.455 -4.764
H -12.145 -53.447 -4.704
H -8.085 -55.669 4.135
H -10.664 -55.662 4.197
H -8.299 -55.653 -4.808
H -10.866 -55.646 -4.747
H -14.53 -53.457 4.278
H -17.112 -53.451 4.328
H -14.71 -53.438 -4.649
H -17.274 -53.429 -4.599
H -13.245 -55.655 4.255
H -15.827 -55.648 4.307
H -13.432 -55.638 -4.69
H -15.997 -55.629 -4.637
H -19.696 -53.447 4.373
H -19.837 -53.419 -4.554
H -18.41 -55.643 4.354
H -18.56 -55.619 -4.591
H 20.118 -55.766 -5.391
H 5.864 -53.495 -5.159
H 7.156 -55.692 -5.199
H 18.806 -53.558 -5.388
H 17.521 -55.743 -5.369
H 4.573 -55.685 -5.138
H 16.214 -53.54 -5.357
H 14.926 -55.726 -5.339
H 3.283 -53.488 -5.095
H 1.993 -55.678 -5.074
H 13.623 -53.525 -5.319
H 0.706 -53.481 -5.028
H 12.333 -55.712 -5.3
H -0.584 -55.672 -5.007
H 11.034 -53.513 -5.272
H 9.743 -55.701 -5.253
H 21.396 -53.579 -5.413
H 22.72 -55.798 -5.407
H 8.447 -53.503 -5.219
H 13.774 -53.497 3.606
H 11.207 -53.498 3.652
H 22.796 -55.706 3.528
H -0.356 -55.685 3.936
H 8.64 -53.498 3.706
H 20.207 -55.694 3.548
H 9.921 -55.694 3.69
H 7.354 -55.693 3.744
H 3.504 -53.495 3.83
H 4.786 -55.692 3.805
H 18.913 -53.496 3.534
H 16.342 -53.496 3.567
H 0.933 -53.492 3.897
H 15.056 -55.692 3.603
H 12.488 -55.693 3.642
H 21.489 -53.498 3.508
H 6.073 -53.497 3.766
H 17.628 -55.691 3.572
H 2.216 -55.689 3.869
H -21.121 -55.608 -4.551
C -39.098 -57.102 -1.566
C -39.152 -57.257 1.13
C -39.182 -57.35 2.685
C -39.041 -57.006 -3.121
C -35.225 -57.85 -0.913
C -35.236 -57.91 0.643
C -36.571 -57.28 1.178
C -37.859 -57.88 -1.01
C -37.887 -57.976 0.544
C -36.531 -57.151 -1.475
C -35.27 -57.984 3.339
C -37.949 -58.13 3.263
C -36.601 -57.349 2.765
C -35.18 -57.725 -3.609
C -36.496 -57.07 -3.06
C -37.781 -57.695 -3.747
C -33.936 -57.108 -1.406
C -33.959 -57.186 1.245
C -33.973 -57.225 2.828
C -33.918 -57.051 -2.988
C -30.076 -57.828 -0.822
C -30.071 -57.848 0.735
C -31.366 -57.155 1.282
C -32.65 -57.828 -0.853
C -32.652 -57.861 0.704
C -31.36 -57.108 -1.37
C -30.071 -57.861 3.43
C -32.666 -57.898 3.397
C -31.37 -57.176 2.865
C -30.076 -57.768 -3.517
C -31.355 -57.071 -2.952
C -32.632 -57.743 -3.545
C -28.79 -57.114 -1.357
C -28.782 -57.143 1.297
C -28.778 -57.154 2.88
C -28.793 -57.087 -2.939
C -24.932 -57.837 -0.824
C -24.917 -57.844 0.733
C -26.201 -57.139 1.293
C -27.503 -57.832 -0.814
C -27.493 -57.843 0.743
C -26.22 -57.121 -1.361
C -24.892 -57.836 3.428
C -27.48 -57.843 3.438
C -26.19 -57.144 2.876
C -24.956 -57.798 -3.52
C -26.231 -57.101 -2.944
C -27.517 -57.785 -3.51
C -23.65 -57.128 -1.38
C -23.622 -57.14 1.274
C -23.605 -57.141 2.857
C -23.667 -57.112 -2.963
C -21.044 -57.144 1.244
C -22.361 -57.843 -0.848
C -22.341 -57.848 0.709
C -21.081 -57.136 -1.41
C -22.307 -57.835 3.405
C -21.022 -57.143 2.827
C -21.103 -57.122 -2.993
C -22.394 -57.81 -3.544
H -35.3 -57.95 4.427
H -37.983 -57.951 4.337
H -35.155 -57.63 -4.694
H -37.759 -57.343 -4.778
H -30.077 -57.808 4.518
H -32.682 -57.852 4.485
H -30.07 -57.695 -4.603
H -32.616 -57.663 -4.631
H -24.884 -57.777 4.516
H -27.478 -57.786 4.526
H -24.964 -57.733 -4.608
H -27.519 -57.717 -4.597
H -22.294 -57.776 4.492
H -22.407 -57.745 -4.631
C 7.224 -57.208 -2.055
C 7.283 -57.209 0.599
C 7.317 -57.201 2.181
C 7.19 -57.201 -3.638
C 11.104 -57.924 -1.583
C 11.133 -57.923 -0.026
C 9.857 -57.212 0.545
C 8.524 -57.919 -1.534
C 8.557 -57.919 0.023
C 9.804 -57.214 -2.108
C 11.184 -57.897 2.669
C 8.614 -57.896 2.718
C 9.888 -57.203 2.128
C 11.054 -57.904 -4.277
C 9.773 -57.208 -3.691
C 8.468 -57.896 -4.229
C 12.386 -57.221 -2.153
C 12.432 -57.216 0.5
C 12.46 -57.204 2.083
C 12.359 -57.217 -3.736
C 16.268 -57.939 -1.653
C 16.291 -57.933 -0.096
C 15.01 -57.22 0.464
C 13.685 -57.931 -1.622
C 13.711 -57.928 -0.065
C 14.97 -57.229 -2.189
C 16.328 -57.898 2.598
C 13.754 -57.898 2.629
C 15.033 -57.206 2.047
C 16.232 -57.928 -4.347
C 14.947 -57.228 -3.772
C 13.642 -57.915 -4.317
C 17.557 -57.241 -2.216
C 17.59 -57.226 0.436
C 17.611 -57.209 2.019
C 17.537 -57.243 -3.799
C 21.447 -57.968 -1.689
C 21.464 -57.954 -0.132
C 20.176 -57.235 0.416
C 18.855 -57.951 -1.674
C 18.875 -57.941 -0.117
C 20.148 -57.256 -2.235
C 21.493 -57.908 2.559
C 18.906 -57.9 2.576
C 20.194 -57.215 1.999
C 21.425 -57.971 -4.379
C 20.133 -57.262 -3.818
C 18.826 -57.946 -4.367
C 22.748 -57.28 -2.247
C 22.773 -57.254 0.4
C 22.79 -57.231 1.983
C 22.737 -57.291 -3.829
C 26.712 -58.091 -1.718
C 26.726 -58.077 -0.142
C 25.394 -57.312 0.379
C 24.049 -58.005 -1.697
C 24.063 -57.989 -0.145
C 25.371 -57.34 -2.248
C 26.751 -58.033 2.459
C 24.093 -57.937 2.539
C 25.411 -57.288 1.955
C 26.698 -58.105 -4.32
C 25.361 -57.352 -3.824
C 24.035 -58.015 -4.379
C 27.977 -57.299 -2.253
C 28 -57.274 0.358
C 28.01 -57.249 1.937
C 27.959 -57.307 -3.831
C 30.545 -57.129 0.376
C 29.324 -57.997 -1.733
C 29.337 -57.99 -0.154
C 30.522 -57.15 -2.316
C 29.343 -57.954 2.454
C 30.545 -57.104 1.932
C 30.493 -57.155 -3.871
C 29.286 -58.011 -4.343
C 2.07 -57.198 -1.931
C 2.135 -57.201 0.722
C 2.174 -57.195 2.305
C 2.031 -57.189 -3.514
C 5.947 -57.914 -1.478
C 5.982 -57.915 0.079
C 4.709 -57.205 0.658
C 3.37 -57.909 -1.416
C 3.407 -57.911 0.141
C 4.646 -57.203 -1.995
C 6.044 -57.894 2.774
C 3.473 -57.891 2.835
C 4.746 -57.198 2.241
C 5.885 -57.889 -4.172
C 4.609 -57.194 -3.578
C 3.305 -57.883 -4.111
C -3.08 -57.187 -1.797
C -3.014 -57.191 0.857
C -2.974 -57.186 2.439
C -3.12 -57.177 -3.379
C 0.794 -57.905 -1.35
C 0.833 -57.907 0.206
C -0.439 -57.196 0.789
C -1.781 -57.9 -1.283
C -1.742 -57.902 0.274
C -0.506 -57.193 -1.864
C 0.9 -57.888 2.901
C -1.674 -57.883 2.968
C -0.4 -57.191 2.372
C 0.727 -57.878 -4.045
C -0.545 -57.183 -3.447
C -1.849 -57.873 -3.978
C -8.227 -57.174 -1.665
C -8.164 -57.179 0.988
C -8.126 -57.174 2.571
C -8.264 -57.164 -3.248
C -4.355 -57.894 -1.216
C -4.316 -57.896 0.341
C -5.589 -57.185 0.923
C -6.929 -57.888 -1.15
C -6.891 -57.89 0.407
C -5.654 -57.181 -1.73
C -4.249 -57.878 3.035
C -6.826 -57.871 3.101
C -5.55 -57.18 2.506
C -4.422 -57.867 -3.911
C -5.693 -57.171 -3.313
C -6.994 -57.861 -3.845
C -13.37 -57.16 -1.547
C -13.315 -57.164 1.107
C -13.282 -57.16 2.69
C -13.403 -57.149 -3.13
C -9.502 -57.881 -1.087
C -9.466 -57.883 0.47
C -10.739 -57.172 1.05
C -12.075 -57.874 -1.028
C -12.041 -57.876 0.529
C -10.799 -57.167 -1.604
C -9.404 -57.865 3.164
C -11.983 -57.857 3.224
C -10.704 -57.167 2.632
C -9.564 -57.854 -3.782
C -10.834 -57.157 -3.187
C -12.133 -57.846 -3.723
C -18.511 -57.144 -1.449
C -18.467 -57.15 1.205
C -18.441 -57.147 2.788
C -18.537 -57.131 -3.032
C -14.647 -57.866 -0.973
C -14.616 -57.868 0.584
C -15.891 -57.157 1.159
C -17.219 -57.858 -0.924
C -17.191 -57.861 0.633
C -15.941 -57.152 -1.495
C -14.562 -57.85 3.279
C -17.143 -57.844 3.328
C -15.861 -57.153 2.742
C -14.7 -57.838 -3.669
C -15.971 -57.14 -3.078
C -17.266 -57.829 -3.62
C -19.79 -57.851 -0.882
C -19.766 -57.854 0.675
C -19.724 -57.838 3.37
C -19.831 -57.82 -3.578
H 26.756 -58.023 3.549
H 24.109 -57.859 3.625
H 26.691 -58.125 -5.409
H 24.041 -57.966 -5.467
H 29.351 -57.934 3.544
H 29.278 -58.029 -5.432
H -1.645 -57.823 4.055
H -1.877 -57.809 -5.065
H -4.221 -57.818 4.123
H -6.798 -57.811 4.188
H -4.45 -57.804 -4.998
H -7.021 -57.798 -4.932
H -9.378 -57.804 4.252
H -11.958 -57.797 4.311
H -9.59 -57.791 -4.869
H -12.157 -57.783 -4.81
H -14.54 -57.79 4.366
H -17.123 -57.783 4.415
H -14.722 -57.775 -4.756
H -17.285 -57.766 -4.707
H -19.708 -57.778 4.458
H -19.847 -57.756 -4.665
H 5.86 -57.825 -5.26
H 18.819 -57.89 -5.455
H 16.221 -57.869 -5.434
H 3.278 -57.819 -5.198
H 13.627 -57.853 -5.404
H 0.699 -57.814 -5.132
H 11.035 -57.841 -5.365
H 21.422 -57.919 -5.467
H 8.446 -57.832 -5.316
H 13.77 -57.835 3.716
H 11.203 -57.836 3.756
H 8.637 -57.836 3.805
H 3.5 -57.832 3.923
H 18.915 -57.831 3.663
H 16.34 -57.833 3.686
H 0.929 -57.828 3.988
H 21.5 -57.835 3.646
H 6.069 -57.835 3.861
H 33.118 -61.789 -4.138
H -35.189 -58.959 0.925
H -35.166 -58.877 -1.265
H -35.201 -59.043 3.101
H -35.136 -58.792 -3.421
H -32.643 -58.864 -1.19
H -32.644 -58.911 1
H -32.642 -58.962 3.167
H -32.641 -58.814 -3.345
H -30.069 -58.894 1.04
H -30.075 -58.867 -1.151
H -30.06 -58.926 3.205
H -30.084 -58.836 -3.308
H -27.506 -58.872 -1.139
H -27.492 -58.888 1.053
H -27.476 -58.909 3.217
H -27.522 -58.853 -3.297
H -24.915 -58.889 1.046
H -24.937 -58.878 -1.147
H -24.892 -58.903 3.209
H -24.959 -58.866 -3.305
H -22.368 -58.885 -1.169
H -22.339 -58.892 1.024
H -22.31 -58.902 3.186
H -22.396 -58.877 -3.328
H 8.516 -58.961 -1.852
H 8.563 -58.962 0.339
H 8.609 -58.963 2.498
H 8.47 -58.963 -4.014
H 11.137 -58.966 0.292
H 11.096 -58.967 -1.9
H 11.179 -58.964 2.45
H 11.054 -58.971 -4.062
H 13.677 -58.974 -1.938
H 13.714 -58.97 0.253
H 13.751 -58.965 2.412
H 13.64 -58.982 -4.1
H 16.292 -58.975 0.225
H 16.261 -58.984 -1.966
H 16.325 -58.966 2.385
H 16.229 -58.995 -4.128
H 18.847 -58.996 -1.984
H 18.873 -58.982 0.206
H 18.902 -58.968 2.367
H 18.82 -59.012 -4.146
H 21.458 -58.995 0.193
H 21.436 -59.014 -1.995
H 21.485 -58.977 2.355
H 21.415 -59.036 -4.155
H 24.013 -59.049 -2
H 24.03 -59.026 0.183
H 24.055 -59.006 2.343
H 23.998 -59.078 -4.154
H 3.36 -58.952 -1.735
H 3.414 -58.955 0.457
H 3.466 -58.958 2.615
H 3.308 -58.951 -3.895
H 5.988 -58.959 0.395
H 5.937 -58.956 -1.796
H 6.038 -58.961 2.554
H 5.888 -58.957 -3.958
H -1.791 -58.942 -1.602
H -1.735 -58.945 0.589
H -1.681 -58.949 2.749
H -1.845 -58.94 -3.762
H 0.839 -58.95 0.522
H 0.784 -58.947 -1.669
H 0.893 -58.954 2.681
H 0.731 -58.945 -3.83
H -6.939 -58.93 -1.469
H -6.886 -58.933 0.723
H -6.834 -58.938 2.882
H -6.991 -58.928 -3.628
H -4.31 -58.939 0.657
H -4.366 -58.936 -1.535
H -4.257 -58.944 2.816
H -4.419 -58.934 -3.694
H -12.085 -58.916 -1.347
H -12.037 -58.919 0.845
H -11.99 -58.924 3.005
H -12.131 -58.913 -3.506
H -9.461 -58.926 0.786
H -9.512 -58.923 -1.406
H -9.412 -58.931 2.946
H -9.562 -58.921 -3.565
H -17.227 -58.9 -1.243
H -17.188 -58.904 0.949
H -17.149 -58.91 3.109
H -17.266 -58.896 -3.403
H -14.612 -58.911 0.9
H -14.656 -58.908 -1.292
H -14.569 -58.917 3.06
H -14.699 -58.905 -3.452
H -19.763 -58.897 0.991
H -19.798 -58.893 -1.202
H -19.729 -58.905 3.152
H -19.831 -58.887 -3.361
H -60.302 -21.265 -0.537
H -60.275 -21.271 1.576
H -60.205 -21.249 3.808
H -60.283 -21.239 -2.77
H -59.034 -23.541 -0.546
H -59.005 -23.546 1.568
H -58.931 -23.522 3.799
H -59.02 -23.517 -2.778
H -45.046 -48.547 -0.845
H -45.025 -48.567 1.27
H -44.951 -48.569 3.502
H -45.031 -48.497 -3.079
H -43.78 -50.806 -0.916
H -43.769 -50.835 1.198
H -43.701 -50.849 3.431
H -43.759 -50.744 -3.15
H -57.765 -25.82 -0.557
H -57.734 -25.823 1.557
H -57.657 -25.798 3.787
H -57.754 -25.795 -2.789
H -56.495 -28.099 -0.572
H -56.462 -28.101 1.542
H -56.383 -28.076 3.772
H -56.485 -28.074 -2.804
H -42.52 -53.06 -1.011
H -42.525 -53.1 1.1
H -42.472 -53.132 3.331
H -42.486 -52.981 -3.243
H -41.297 -55.275 -1.133
H -41.323 -55.342 0.965
H -41.3 -55.412 3.19
H -41.247 -55.164 -3.362
H -70.479 -3.276 -0.633
H -70.558 -3.307 1.468
H -70.593 -3.323 3.692
H -70.354 -3.226 -2.86
H -69.191 -5.467 -0.588
H -69.228 -5.505 1.526
H -69.225 -5.508 3.758
H -69.105 -5.41 -2.82
H -55.223 -30.377 -0.59
H -55.189 -30.379 1.524
H -55.109 -30.355 3.754
H -55.215 -30.353 -2.822
H -53.95 -32.655 -0.611
H -53.916 -32.657 1.503
H -53.835 -32.634 3.733
H -53.943 -32.63 -2.843
H -67.909 -7.699 -0.559
H -67.925 -7.731 1.556
H -67.901 -7.727 3.79
H -67.843 -7.65 -2.793
H -66.635 -9.943 -0.543
H -66.637 -9.968 1.572
H -66.601 -9.96 3.806
H -66.582 -9.9 -2.777
H -52.677 -34.932 -0.634
H -52.642 -34.934 1.48
H -52.561 -34.912 3.711
H -52.669 -34.906 -2.866
H -51.403 -37.208 -0.659
H -51.369 -37.21 1.455
H -51.288 -37.189 3.686
H -51.395 -37.18 -2.891
H -65.365 -12.195 -0.534
H -65.359 -12.215 1.58
H -65.312 -12.203 3.814
H -65.323 -12.157 -2.769
H -64.099 -14.455 -0.531
H -64.086 -14.471 1.584
H -64.031 -14.455 3.817
H -64.064 -14.42 -2.764
H -50.13 -39.481 -0.686
H -50.096 -39.485 1.428
H -50.016 -39.465 3.66
H -50.121 -39.452 -2.918
H -48.857 -41.751 -0.715
H -48.825 -41.758 1.399
H -48.745 -41.741 3.63
H -48.847 -41.72 -2.948
H -62.834 -16.72 -0.53
H -62.815 -16.732 1.584
H -62.754 -16.714 3.817
H -62.805 -16.69 -2.763
H -61.568 -18.991 -0.532
H -61.545 -19 1.582
H -61.479 -18.979 3.814
H -61.545 -18.963 -2.765
H -47.585 -44.02 -0.749
H -47.555 -44.029 1.365
H -47.476 -44.016 3.596
H -47.574 -43.984 -2.983
H -46.314 -46.285 -0.791
H -46.288 -46.299 1.323
H -46.21 -46.292 3.555
H -46.302 -46.243 -3.025
H 37.629 -46.38 -2.278
H 37.653 -46.368 -0.164
H 37.637 -46.33 2.071
H 37.555 -46.369 -4.511
H 38.896 -44.12 -2.307
H 38.92 -44.111 -0.193
H 38.902 -44.078 2.042
H 38.824 -44.104 -4.54
H 31.472 -57.586 -2.025
H 31.487 -57.579 0.079
H 31.472 -57.534 2.307
H 40.166 -41.858 -2.328
H 40.189 -41.852 -0.214
H 40.17 -41.822 2.02
H 40.097 -41.838 -4.561
H 31.415 -57.586 -4.254
H 32.637 -55.385 -2.082
H 32.656 -55.368 0.031
H 32.636 -55.313 2.266
H 32.569 -55.392 -4.316
H 33.865 -53.142 -2.139
H 33.885 -53.124 -0.024
H 33.866 -53.071 2.212
H 33.793 -53.147 -4.374
H 41.44 -39.594 -2.343
H 41.461 -39.59 -0.229
H 41.439 -39.563 2.005
H 41.372 -39.572 -4.575
H 36.366 -48.638 -2.239
H 36.39 -48.623 -0.125
H 36.374 -48.58 2.11
H 36.292 -48.632 -4.473
H 35.111 -50.892 -2.192
H 35.133 -50.875 -0.078
H 35.116 -50.826 2.158
H 35.037 -50.892 -4.427
H 52.967 -19.241 -2.378
H 52.969 -19.249 -0.263
H 52.928 -19.234 1.972
H 52.918 -19.205 -4.611
H 54.259 -16.997 -2.362
H 54.256 -17.007 -0.246
H 54.209 -16.996 1.989
H 54.215 -16.957 -4.595
H 45.27 -32.798 -2.368
H 45.287 -32.798 -0.253
H 45.259 -32.774 1.98
H 45.208 -32.773 -4.6
H 46.549 -30.533 -2.374
H 46.564 -30.533 -0.259
H 46.536 -30.51 1.974
H 46.488 -30.507 -4.606
H 55.555 -14.762 -2.334
H 55.545 -14.774 -0.218
H 55.492 -14.768 2.017
H 55.518 -14.716 -4.568
H 56.856 -12.539 -2.294
H 56.84 -12.554 -0.177
H 56.777 -12.552 2.059
H 56.828 -12.488 -4.528
H 47.829 -28.269 -2.38
H 47.843 -28.27 -0.265
H 47.813 -28.247 1.968
H 47.769 -28.242 -4.612
H 49.11 -26.007 -2.385
H 49.122 -26.009 -0.27
H 49.091 -25.987 1.964
H 49.052 -25.979 -4.617
H 58.164 -10.335 -2.239
H 58.14 -10.351 -0.122
H 58.066 -10.353 2.114
H 58.147 -10.279 -4.474
H 59.484 -8.164 -2.173
H 59.451 -8.182 -0.052
H 59.365 -8.187 2.184
H 59.476 -8.107 -4.407
H 50.394 -23.747 -2.388
H 50.403 -23.751 -0.272
H 50.37 -23.73 1.961
H 50.337 -23.718 -4.62
H 51.679 -21.492 -2.386
H 51.685 -21.497 -0.271
H 51.649 -21.479 1.963
H 51.626 -21.46 -4.619
H 42.715 -37.329 -2.353
H 42.735 -37.327 -0.239
H 42.711 -37.302 1.995
H 42.65 -37.305 -4.585
H 43.992 -35.064 -2.361
H 44.01 -35.062 -0.246
H 43.984 -35.038 1.987
H 43.928 -35.039 -4.593
