24
GENERATED BY SAMSON 2025 R2
C 6.179 51.997 4.527
C 6.15 52.017 7.119
C 3.677 51.834 4.4
C 4.931 51.164 6.578
C 4.954 51.151 5.002
C 3.624 51.854 7.105
C 6.133 52.022 8.701
C 6.107 52.021 11.293
C 3.607 51.86 8.662
C 4.891 51.171 10.797
C 4.903 51.174 9.22
C 3.603 51.858 11.368
C 6.036 53.52 6.591
C 6.054 53.501 5.012
C 4.678 54.17 7.091
C 4.728 54.138 4.469
C 3.51 53.289 6.518
C 3.537 53.274 4.956
C 5.992 53.521 10.796
C 6.008 53.53 9.217
C 4.655 54.162 11.306
C 4.661 54.176 8.683
C 3.475 53.295 10.8
C 3.481 53.299 9.238
