D:/LAMMPS projects/ratchet\ratchet_1.data

 5484 atoms

 6 atom types

   -81         81      xlo xhi
   -81         81      ylo yhi
   -81         81      zlo zhi

 Masses

 5 12.0109997
 6 1.00796998
 3 12.0109997
 4 1.00796998
 1 12.0109997
 2 1.00796998

 Atoms #molecular

1   1   1   30.632000   31.344000  56.428000
2   1   1   30.265000   32.725000  56.454000
3   1   1   29.922000   33.416000  55.245000
4   1   1   29.284000   34.723000  55.268000
5   1   1   28.827000   35.307000  54.041000
6   1   1   27.887000   36.403000  54.065000
7   1   1   27.332000   36.889000  52.838000
8   1   1   26.158000   37.722000  52.86000
9   1   1   25.524000   38.092000  51.63000
10   1   1   24.189000   38.643000  51.649000
11   1   1   23.505000   38.919000  50.418000
12   1   1   22.081000   39.205000  50.435000
13   1   1   21.336000   39.397000  49.223000
14   1   1   19.908000   39.376000  49.235000
15   1   1   28.98000   35.402000  56.492000
16   1   1   28.051000   36.488000  56.514000
17   1   1   27.407000   36.923000  55.307000
18   1   1   26.219000   37.764000  55.329000
19   1   1   25.544000   38.07000  54.1000
20   1   1   24.209000   38.624000  54.119000
21   1   1   23.504000   38.824000  52.887000
22   1   1   22.093000   39.104000  52.904000
23   1   1   21.368000   39.201000  51.672000
24   1   1   19.924000   39.178000  51.686000
25   1   1   19.192000   39.154000  50.454000
26   1   1   17.789000   38.78000  50.462000
27   1   1   17.047000   38.617000  49.246000
28   1   1   15.801000   37.919000  49.245000
29   1   1   25.618000   38.194000  56.555000
30   1   1   24.298000   38.742000  56.572000
31   1   1   23.544000   38.881000  55.359000
32   1   1   22.118000   39.171000  55.373000
33   1   1   21.386000   39.184000  54.14000
34   1   1   19.94000   39.159000  54.153000
35   1   1   19.222000   39.049000  52.92000
36   1   1   17.835000   38.673000  52.929000
37   1   1   17.154000   38.431000  51.693000
38   1   1   15.896000   37.723000  51.695000
39   1   1   15.263000   37.376000  50.456000
40   1   1   14.171000   36.418000  50.45000
41   1   1   13.575000   35.964000  49.227000
42   1   1   12.707000   34.831000  49.215000
43   1   1   21.388000   39.349000  56.593000
44   1   1   19.958000   39.325000  56.603000
45   1   1   19.224000   39.113000  55.388000
46   1   1   17.822000   38.725000  55.397000
47   1   1   17.171000   38.401000  54.16000
48   1   1   15.914000   37.686000  54.163000
49   1   1   15.331000   37.268000  52.923000
50   1   1   14.249000   36.318000  52.92000
51   1   1   13.732000   35.828000  51.676000
52   1   1   12.854000   34.682000  51.666000
53   1   1   12.418000   34.118000  50.42000
54   1   1   11.822000   32.792000  50.402000
55   1   1   11.482000   32.134000  49.174000
56   1   1   11.228000   30.728000  49.148000
57   1   1   17.097000   38.522000  56.615000
58   1   1   15.856000   37.81000  56.617000
59   1   1   15.302000   37.297000  55.395000
60   1   1   14.213000   36.331000  55.391000
61   1   1   13.753000   35.784000  54.146000
62   1   1   12.875000   34.636000  54.134000
63   1   1   12.508000   34.034000  52.887000
64   1   1   11.922000   32.719000  52.87000
65   1   1   11.682000   32.06000  51.621000
66   1   1   11.426000   30.639000  51.597000
67   1   1   11.314000   29.948000  50.346000
68   1   1   11.413000   28.498000  50.316000
69   1   1   11.443000   27.772000  49.079000
70   1   1   11.813000   26.392000  49.049000
71   1   1   13.641000   35.827000  56.603000
72   1   1   12.772000   34.692000  56.589000
73   1   1   12.46000   34.024000  55.358000
74   1   1   11.864000   32.696000  55.338000
75   1   1   11.702000   32.013000  54.087000
76   1   1   11.445000   30.591000  54.064000
77   1   1   11.415000   29.894000  52.812000
78   1   1   11.505000   28.458000  52.786000
79   1   1   11.597000   27.77000  51.532000
80   1   1   11.972000   26.374000  51.505000
81   1   1   12.163000   25.699000  50.252000
82   1   1   12.806000   24.395000  50.226000
83   1   1   13.111000   23.723000  48.994000
84   1   1   14.044000   22.64000  48.968000
85   1   1   11.543000   31.989000  56.541000
86   1   1   11.286000   30.584000  56.515000
87   1   1   11.352000   29.852000  55.282000
88   1   1   11.447000   28.402000  55.256000
89   1   1   11.615000   27.722000  54.002000
90   1   1   11.989000   26.327000  53.975000
91   1   1   12.249000   25.683000  52.721000
92   1   1   12.894000   24.396000  52.695000
93   1   1   13.266000   23.807000  51.444000
94   1   1   14.207000   22.712000  51.42000
95   1   1   14.687000   22.2000  50.17000
96   1   1   15.877000   21.361000  50.148000
97   1   1   16.48000   20.938000  48.916000
98   1   1   17.8000   20.39000  48.9000
99   1   1   11.492000   27.627000  56.459000
100   1   1   11.862000   26.249000  56.429000
101   1   1   12.198000   25.606000  55.192000
102   1   1   12.844000   24.305000  55.162000
103   1   1   13.286000   23.764000  53.91000
104   1   1   14.227000   22.671000  53.887000
105   1   1   14.762000   22.221000  52.637000
106   1   1   15.936000   21.388000  52.619000
107   1   1   16.55000   21.047000  51.37000
108   1   1   17.885000   20.494000  51.356000
109   1   1   18.552000   20.244000  50.11000
110   1   1   19.978000   19.955000  50.102000
111   1   1   20.71000   19.784000  48.879000
112   1   1   22.141000   19.808000  48.875000
113   1   1   13.171000   23.594000  56.361000
114   1   1   14.103000   22.514000  56.335000
115   1   1   14.725000   22.118000  55.105000
116   1   1   15.912000   21.282000  55.086000
117   1   1   16.567000   21.01000  53.839000
118   1   1   17.9000   20.457000  53.826000
119   1   1   18.587000   20.286000  52.58000
120   1   1   19.999000   20.007000  52.573000
121   1   1   20.708000   19.936000  51.33000
122   1   1   22.152000   19.962000  51.329000
123   1   1   22.871000   20.013000  50.089000
124   1   1   24.274000   20.399000  50.092000
125   1   1   25.003000   20.603000  48.873000
126   1   1   26.245000   21.31000  48.88000
127   1   1   16.528000   20.821000  56.292000
128   1   1   17.846000   20.275000  56.277000
129   1   1   18.581000   20.172000  55.05000
130   1   1   20.004000   19.889000  55.04000
131   1   1   20.72000   19.904000  53.798000
132   1   1   22.163000   19.931000  53.795000
133   1   1   22.867000   20.067000  52.557000
134   1   1   24.253000   20.443000  52.561000
135   1   1   24.921000   20.718000  51.325000
136   1   1   26.178000   21.43000  51.336000
137   1   1   26.796000   21.818000  50.101000
138   1   1   27.887000   22.781000  50.117000
139   1   1   28.467000   23.282000  48.903000
140   1   1   29.336000   24.415000  48.924000
141   1   1   20.746000   19.692000  56.248000
142   1   1   22.173000   19.719000  56.242000
143   1   1   22.892000   19.95000  55.024000
144   1   1   24.293000   20.327000  55.027000
145   1   1   24.93000   20.681000  53.792000
146   1   1   26.188000   21.388000  53.804000
147   1   1   26.757000   21.845000  52.571000
148   1   1   27.839000   22.793000  52.589000
149   1   1   28.341000   23.327000  51.358000
150   1   1   29.219000   24.473000  51.381000
151   1   1   29.641000   25.083000  50.153000
152   1   1   30.238000   26.409000  50.18000
153   1   1   30.566000   27.113000  48.974000
154   1   1   30.823000   28.518000  49.001000
155   1   1   25.03000   20.487000  56.242000
156   1   1   26.275000   21.186000  56.251000
157   1   1   26.816000   21.732000  55.04000
158   1   1   27.908000   22.691000  55.057000
159   1   1   28.351000   23.282000  53.827000
160   1   1   29.229000   24.428000  53.849000
161   1   1   29.58000   25.076000  52.622000
162   1   1   30.166000   26.39000  52.649000
163   1   1   30.393000   27.094000  51.424000
164   1   1   30.65000   28.515000  51.454000
165   1   1   30.751000   29.251000  50.229000
166   1   1   30.655000   30.701000  50.256000
167   1   1   30.617000   31.472000  49.048000
168   1   1   30.245000   32.849000  49.073000
169   1   1   28.496000   23.146000  56.28000
170   1   1   29.363000   24.28000  56.299000
171   1   1   29.658000   24.993000  55.091000
172   1   1   30.255000   26.319000  55.115000
173   1   1   30.401000   27.05000  53.89000
174   1   1   30.658000   28.47000  53.92000
175   1   1   30.675000   29.213000  52.696000
176   1   1   30.586000   30.649000  52.727000
177   1   1   30.483000   31.383000  51.501000
178   1   1   30.109000   32.778000  51.53000
179   1   1   29.904000   33.495000  50.304000
180   1   1   29.255000   34.794000  50.332000
181   1   1   28.929000   35.5000  49.126000
182   1   1   27.993000   36.577000  49.148000
183   1   1   30.59000   26.979000  56.341000
184   1   1   30.846000   28.384000  56.368000
185   1   1   30.765000   29.163000  55.165000
186   1   1   30.668000   30.614000  55.196000
187   1   1   30.489000   31.34000  53.971000
188   1   1   30.117000   32.737000  54.0000
189   1   1   29.844000   33.425000  52.773000
190   1   1   29.201000   34.712000  52.8000
191   1   1   28.81000   35.34000  51.574000
192   1   1   27.868000   36.433000  51.599000
193   1   1   27.368000   36.978000  50.371000
194   1   1   26.178000   37.811000  50.391000
195   1   1   25.557000   38.26000  49.178000
196   1   1   24.238000   38.804000  49.194000
197   1   2   21.829000   39.502000  48.265000
198   1   2   19.396000   39.464000  48.284000
199   1   2   17.437000   38.954000  48.293000
200   1   2   15.314000   37.767000  48.289000
201   1   2   13.808000   36.428000  48.276000
202   1   2   12.33000   34.498000  48.254000
203   1   2   11.471000   32.665000  48.229000
204   1   2   11.036000   30.27000  48.184000
205   1   2   11.243000   28.258000  48.132000
206   1   2   11.873000   25.91000  48.08000
207   1   2   12.701000   24.059000  48.049000
208   1   2   14.292000   22.212000  48.003000
209   1   2   15.981000   21.077000  47.965000
210   1   2   18.229000   20.144000  47.935000
211   1   2   20.206000   19.694000  47.925000
212   1   2   22.644000   19.737000  47.917000
213   1   2   24.603000   20.292000  47.915000
214   1   2   26.722000   21.496000  47.924000
215   1   2   28.221000   22.854000  47.939000
216   1   2   29.701000   24.785000  47.972000
217   1   2   30.566000   26.619000  48.01000
218   1   2   31.006000   29.013000  48.054000
219   1   2   30.811000   31.022000  48.082000
220   1   2   30.178000   33.367000  48.123000
221   1   2   29.325000   35.196000  48.165000
222   1   2   27.729000   37.032000  48.199000
223   1   2   26.042000   38.144000  48.216000
224   1   2   23.797000   39.072000  48.241000
225   1   2   19.457000   39.402000  57.56000
226   1   2   17.499000   38.836000  57.571000
227   1   2   22.683000   19.626000  57.194000
228   1   2   24.637000   20.147000  57.193000
229   1   2   30.201000   33.209000  57.42000
230   1   2   29.389000   35.07000  57.44000
231   1   2   11.934000   25.728000  57.376000
232   1   2   12.776000   23.894000  57.325000
233   1   2   15.385000   37.624000  57.574000
234   1   2   13.892000   36.253000  57.568000
235   1   2   26.76000   21.335000  57.208000
236   1   2   28.26000   22.681000  57.23000
237   1   2   27.804000   36.922000  57.476000
238   1   2   26.118000   38.06000  57.507000
239   1   2   14.367000   22.055000  57.28000
240   1   2   16.041000   20.928000  57.255000
241   1   2   12.413000   34.321000  57.542000
242   1   2   11.55000   32.482000  57.507000
243   1   2   29.735000   24.614000  57.26000
244   1   2   30.595000   26.449000  57.287000
245   1   2   23.871000   38.994000  57.534000
246   1   2   21.895000   39.444000  57.546000
247   1   2   18.284000   19.996000  57.227000
248   1   2   20.252000   19.578000  57.206000
249   1   2   31.033000   28.844000  57.33000
250   1   2   30.826000   30.859000  57.378000
251   1   2   11.109000   30.087000  57.461000
252   1   2   11.304000   28.074000  57.428000
253   2   1   16.895000   24.629000  46.057000
254   2   1   18.337000   24.952000  46.599000
255   2   1   20.788000   24.247000  46.582000
256   2   1   21.831000   23.207000  46.027000
257   2   1   21.195000   25.668000  46.057000
258   2   1   22.626000   26.037000  46.593000
259   2   1   20.576000   28.156000  46.077000
260   2   1   25.03000   25.395000  46.68000
261   2   1   25.489000   26.746000  46.069000
262   2   1   23.198000   23.621000  46.668000
263   2   1   26.86000   27.168000  46.666000
264   2   1   22.011000   28.515000  46.604000
265   2   1   23.658000   24.973000  46.068000
266   2   1   18.735000   26.376000  46.073000
267   2   1   20.174000   26.734000  46.604000
268   2   1   19.361000   23.917000  46.022000
269   2   1   24.462000   27.815000  46.591000
270   2   1   23.034000   27.451000  46.06000
271   2   1   15.345000   28.164000  46.745000
272   2   1   16.278000   27.089000  46.117000
273   2   1   15.659000   29.564000  46.131000
274   2   1   17.103000   29.925000  46.64000
275   2   1   18.116000   28.864000  46.092000
276   2   1   17.724000   27.443000  46.627000
277   2   1   19.555000   29.219000  46.621000
278   2   1   15.044000   32.027000  46.103000
279   2   1   19.955000   30.643000  46.091000
280   2   1   18.305000   34.182000  46.639000
281   2   1   19.333000   33.129000  46.1000
282   2   1   18.738000   35.594000  46.102000
283   2   1   15.964000   25.69000  46.719000
284   2   1   14.726000   30.637000  46.746000
285   2   1   16.472000   32.411000  46.642000
286   2   1   17.492000   31.35000  46.102000
287   2   1   18.932000   31.702000  46.631000
288   2   1   16.892000   33.812000  46.082000
289   2   1   25.036000   34.461000  46.704000
290   2   1   24.875000   29.23000  46.054000
291   2   1   20.769000   33.47000  46.634000
292   2   1   21.795000   32.421000  46.087000
293   2   1   21.391000   30.996000  46.617000
294   2   1   23.227000   32.765000  46.617000
295   2   1   26.306000   29.591000  46.576000
296   2   1   24.256000   31.715000  46.068000
297   2   1   23.63000   34.196000  46.11000
298   2   1   27.305000   28.511000  46.026000
299   2   1   20.133000   35.868000  46.738000
300   2   1   26.065000   33.488000  46.055000
301   2   1   25.691000   32.063000  46.589000
302   2   1   22.416000   29.937000  46.074000
303   2   1   23.85000   30.291000  46.598000
304   2   1   21.179000   34.9000  46.126000
305   2   1   22.585000   35.167000  46.733000
306   2   1   26.684000   30.998000  46.02000
307   2   1   16.979000   24.646000  48.806000
308   2   1   18.373000   24.966000  48.208000
309   2   1   19.397000   23.94000  48.766000
310   2   1   20.797000   24.275000  48.19000
311   2   1   18.784000   26.386000  48.75000
312   2   1   21.822000   23.268000  48.768000
313   2   1   21.207000   25.694000  48.732000
314   2   1   22.622000   26.061000  48.192000
315   2   1   20.599000   28.158000  48.74000
316   2   1   23.635000   25.023000  48.753000
317   2   1   25.028000   25.406000  48.215000
318   2   1   23.032000   27.471000  48.73000
319   2   1   25.46000   26.789000  48.748000
320   2   1   23.202000   23.64000  48.21000
321   2   1   26.855000   27.173000  48.203000
322   2   1   20.192000   26.746000  48.196000
323   2   1   22.015000   28.518000  48.192000
324   2   1   24.451000   27.831000  48.187000
325   2   1   17.001000   24.658000  50.362000
326   2   1   18.412000   24.985000  50.899000
327   2   1   20.829000   24.295000  50.879000
328   2   1   21.845000   23.277000  50.32000
329   2   1   21.227000   25.702000  50.33000
330   2   1   22.648000   26.066000  50.868000
331   2   1   20.616000   28.159000  50.334000
332   2   1   25.07000   25.387000  50.874000
333   2   1   25.477000   26.78000  50.321000
334   2   1   23.246000   23.633000  50.883000
335   2   1   26.88000   27.156000  50.861000
336   2   1   22.036000   28.517000  50.869000
337   2   1   23.66000   25.019000  50.33000
338   2   1   18.803000   26.393000  50.35000
339   2   1   20.222000   26.753000  50.881000
340   2   1   19.418000   23.953000  50.329000
341   2   1   24.466000   27.829000  50.856000
342   2   1   23.046000   27.47000  50.32000
343   2   1   15.379000   28.162000  48.285000
344   2   1   16.369000   27.098000  48.809000
345   2   1   15.75000   29.561000  48.82000
346   2   1   17.147000   29.919000  48.239000
347   2   1   18.171000   28.859000  48.766000
348   2   1   19.578000   29.215000  48.21000
349   2   1   17.543000   31.329000  48.773000
350   2   1   15.128000   32.01000  48.841000
351   2   1   16.927000   33.776000  48.811000
352   2   1   18.321000   34.147000  48.239000
353   2   1   19.981000   30.623000  48.751000
354   2   1   19.354000   33.083000  48.766000
355   2   1   18.748000   35.518000  48.824000
356   2   1   15.996000   25.697000  48.265000
357   2   1   17.767000   27.448000  48.227000
358   2   1   14.758000   30.625000  48.289000
359   2   1   16.509000   32.394000  48.245000
360   2   1   18.954000   31.682000  48.22000
361   2   1   15.382000   28.145000  50.956000
362   2   1   16.376000   27.094000  50.39000
363   2   1   15.758000   29.547000  50.399000
364   2   1   17.179000   29.903000  50.916000
365   2   1   18.188000   28.854000  50.359000
366   2   1   17.797000   27.448000  50.908000
367   2   1   19.607000   29.209000  50.888000
368   2   1   15.154000   31.991000  50.391000
369   2   1   19.998000   30.615000  50.343000
370   2   1   18.358000   34.117000  50.914000
371   2   1   19.375000   33.07000  50.359000
372   2   1   18.769000   35.504000  50.37000
373   2   1   16.012000   25.695000  50.948000
374   2   1   14.774000   30.602000  50.963000
375   2   1   16.555000   32.364000  50.925000
376   2   1   17.566000   31.314000  50.368000
377   2   1   18.987000   31.663000  50.897000
378   2   1   16.952000   33.757000  50.368000
379   2   1   22.424000   29.925000  48.733000
380   2   1   24.866000   29.238000  48.718000
381   2   1   20.775000   33.432000  48.228000
382   2   1   21.802000   32.377000  48.751000
383   2   1   23.224000   32.733000  48.21000
384   2   1   21.178000   34.82000  48.799000
385   2   1   26.294000   29.598000  48.173000
386   2   1   24.254000   31.684000  48.729000
387   2   1   23.623000   34.123000  48.78000
388   2   1   27.277000   28.546000  48.745000
389   2   1   26.68000   30.992000  48.733000
390   2   1   25.035000   34.448000  48.238000
391   2   1   26.056000   33.432000  48.767000
392   2   1   21.399000   30.978000  48.204000
393   2   1   23.845000   30.284000  48.185000
394   2   1   20.144000   35.843000  48.274000
395   2   1   22.589000   35.144000  48.264000
396   2   1   25.683000   32.043000  48.184000
397   2   1   25.045000   34.458000  50.885000
398   2   1   24.87000   29.234000  50.31000
399   2   1   20.8000   33.418000  50.893000
400   2   1   21.814000   32.371000  50.339000
401   2   1   21.42000   30.967000  50.877000
402   2   1   23.236000   32.723000  50.873000
403   2   1   26.294000   29.593000  50.843000
404   2   1   24.256000   31.679000  50.319000
405   2   1   23.631000   34.13000  50.349000
406   2   1   27.278000   28.54000  50.29000
407   2   1   20.174000   35.849000  50.927000
408   2   1   26.052000   33.429000  50.31000
409   2   1   25.681000   32.032000  50.851000
410   2   1   22.434000   29.922000  50.324000
411   2   1   23.855000   30.277000  50.857000
412   2   1   21.196000   34.825000  50.369000
413   2   1   22.613000   35.162000  50.907000
414   2   1   26.679000   30.988000  50.287000
415   2   1   17.03000   24.666000  53.062000
416   2   1   18.431000   24.988000  52.49000
417   2   1   19.453000   23.959000  53.038000
418   2   1   20.853000   24.296000  52.469000
419   2   1   18.833000   26.398000  53.029000
420   2   1   21.887000   23.278000  53.018000
421   2   1   21.261000   25.706000  53.007000
422   2   1   22.671000   26.064000  52.458000
423   2   1   20.644000   28.158000  53.016000
424   2   1   23.699000   25.013000  52.989000
425   2   1   25.091000   25.383000  52.423000
426   2   1   23.074000   27.468000  52.997000
427   2   1   25.505000   26.77000  52.974000
428   2   1   23.271000   23.631000  52.433000
429   2   1   26.891000   27.152000  52.406000
430   2   1   20.241000   26.755000  52.473000
431   2   1   22.053000   28.515000  52.461000
432   2   1   24.482000   27.824000  52.444000
433   2   1   17.04000   24.664000  54.614000
434   2   1   18.455000   24.992000  55.156000
435   2   1   20.891000   24.3000  55.133000
436   2   1   21.911000   23.276000  54.57000
437   2   1   21.284000   25.707000  54.599000
438   2   1   22.711000   26.058000  55.131000
439   2   1   20.662000   28.158000  54.609000
440   2   1   25.135000   25.376000  55.119000
441   2   1   25.53000   26.766000  54.558000
442   2   1   23.318000   23.625000  55.129000
443   2   1   26.933000   27.144000  55.087000
444   2   1   22.085000   28.514000  55.139000
445   2   1   23.726000   25.01000  54.576000
446   2   1   18.848000   26.399000  54.621000
447   2   1   20.27000   26.754000  55.154000
448   2   1   19.472000   23.962000  54.591000
449   2   1   24.52000   27.819000  55.112000
450   2   1   23.096000   27.465000  54.587000
451   2   1   15.391000   28.139000  52.509000
452   2   1   16.394000   27.091000  53.056000
453   2   1   15.777000   29.533000  53.061000
454   2   1   17.192000   29.895000  52.507000
455   2   1   18.214000   28.849000  53.04000
456   2   1   19.623000   29.206000  52.482000
457   2   1   17.597000   31.3000  53.04000
458   2   1   15.19000   31.97000  53.08000
459   2   1   16.987000   33.74000  53.061000
460   2   1   18.38000   34.11000  52.496000
461   2   1   20.027000   30.609000  53.022000
462   2   1   19.407000   33.06000  53.025000
463   2   1   18.805000   35.492000  53.048000
464   2   1   16.026000   25.695000  52.5000
465   2   1   17.81000   27.447000  52.501000
466   2   1   14.789000   30.593000  52.513000
467   2   1   16.575000   32.353000  52.51000
468   2   1   19.006000   31.657000  52.486000
469   2   1   15.407000   28.133000  55.214000
470   2   1   16.403000   27.088000  54.645000
471   2   1   15.788000   29.528000  54.649000
472   2   1   17.211000   29.89000  55.18000
473   2   1   18.226000   28.847000  54.631000
474   2   1   17.828000   27.444000  55.177000
475   2   1   19.648000   29.205000  55.162000
476   2   1   15.2000   31.964000  54.627000
477   2   1   20.043000   30.61000  54.613000
478   2   1   18.414000   34.108000  55.147000
479   2   1   19.428000   33.06000  54.611000
480   2   1   18.827000   35.493000  54.593000
481   2   1   16.037000   25.691000  55.199000
482   2   1   14.804000   30.581000  55.205000
483   2   1   16.6000   32.345000  55.166000
484   2   1   17.612000   31.296000  54.63000
485   2   1   19.033000   31.657000  55.161000
486   2   1   17.005000   33.737000  54.608000
487   2   1   22.457000   29.919000  53.0000
488   2   1   24.888000   29.23000  52.975000
489   2   1   20.818000   33.418000  52.479000
490   2   1   21.839000   32.37000  53.009000
491   2   1   23.247000   32.726000  52.457000
492   2   1   21.225000   34.828000  53.014000
493   2   1   26.304000   29.59000  52.424000
494   2   1   24.271000   31.678000  52.981000
495   2   1   23.649000   34.136000  52.991000
496   2   1   27.293000   28.531000  52.968000
497   2   1   26.692000   30.986000  52.971000
498   2   1   25.051000   34.46000  52.426000
499   2   1   26.057000   33.432000  52.979000
500   2   1   21.435000   30.966000  52.467000
501   2   1   23.866000   30.275000  52.444000
502   2   1   20.193000   35.847000  52.471000
503   2   1   22.627000   35.166000  52.451000
504   2   1   25.688000   32.033000  52.43000
505   2   1   25.079000   34.48000  55.095000
506   2   1   24.904000   29.228000  54.562000
507   2   1   20.85000   33.427000  55.142000
508   2   1   21.857000   32.375000  54.595000
509   2   1   21.465000   30.971000  55.143000
510   2   1   23.277000   32.74000  55.118000
511   2   1   26.327000   29.588000  55.072000
512   2   1   24.284000   31.683000  54.566000
513   2   1   23.666000   34.146000  54.57000
514   2   1   27.311000   28.53000  54.513000
515   2   1   20.228000   35.853000  55.146000
516   2   1   26.071000   33.438000  54.521000
517   2   1   25.707000   32.041000  55.076000
518   2   1   22.474000   29.92000  54.591000
519   2   1   23.895000   30.279000  55.115000
520   2   1   21.246000   34.833000  54.593000
521   2   1   22.657000   35.181000  55.132000
522   2   1   26.703000   30.988000  54.516000
523   2   1   40.346000   36.985000  41.917000
524   2   1   38.924000   36.432000  39.842000
525   2   1   38.97000   36.444000  41.429000
526   2   1   40.268000   36.964000  39.261000
527   2   1   39.082000   36.485000  44.079000
528   2   1   40.418000   37.011000  43.509000
529   2   1   40.242000   36.961000  37.666000
530   2   1   38.877000   36.423000  37.186000
531   2   1   40.347000   38.497000  39.79000
532   2   1   40.394000   38.512000  41.342000
533   2   1   37.766000   37.256000  39.299000
534   2   1   37.849000   37.289000  42.021000
535   2   1   39.181000   39.471000  41.906000
536   2   1   37.838000   38.684000  39.844000
537   2   1   37.887000   38.704000  41.431000
538   2   1   39.098000   39.435000  39.263000
539   2   1   40.498000   38.562000  44.016000
540   2   1   37.919000   37.322000  43.577000
541   2   1   37.996000   38.765000  44.063000
542   2   1   39.246000   39.507000  43.484000
543   2   1   40.287000   38.485000  37.114000
544   2   1   37.738000   37.247000  37.741000
545   2   1   39.061000   39.424000  37.684000
546   2   1   37.782000   38.666000  37.206000
547   2   1   38.923000   41.009000  39.77000
548   2   1   38.974000   41.034000  41.346000
549   2   1   36.532000   39.27000  39.309000
550   2   1   36.616000   39.313000  42.025000
551   2   1   37.558000   41.615000  41.903000
552   2   1   36.324000   40.662000  39.867000
553   2   1   36.372000   40.687000  41.431000
554   2   1   37.474000   41.57000  39.286000
555   2   1   39.061000   41.089000  43.947000
556   2   1   36.676000   39.347000  43.577000
557   2   1   36.463000   40.749000  44.083000
558   2   1   37.611000   41.647000  43.492000
559   2   1   38.836000   40.974000  37.166000
560   2   1   36.495000   39.254000  37.756000
561   2   1   37.426000   41.547000  37.696000
562   2   1   36.251000   40.633000  37.211000
563   2   1   37.182000   43.06000  39.792000
564   2   1   37.231000   43.088000  41.361000
565   2   1   34.94000   41.136000  39.355000
566   2   1   35.017000   41.179000  42.008000
567   2   1   35.839000   43.605000  41.926000
568   2   1   34.746000   42.566000  39.875000
569   2   1   34.791000   42.592000  41.449000
570   2   1   35.759000   43.559000  39.298000
571   2   1   37.32000   43.136000  43.96000
572   2   1   35.067000   41.208000  43.582000
573   2   1   34.878000   42.644000  44.07000
574   2   1   35.892000   43.632000  43.497000
575   2   1   37.103000   43.014000  37.189000
576   2   1   34.898000   41.113000  37.78000
577   2   1   35.717000   43.531000  37.727000
578   2   1   34.679000   42.526000  37.25000
579   2   1   35.353000   45.022000  39.809000
580   2   1   35.399000   45.05000  41.387000
581   2   1   33.359000   42.881000  39.351000
582   2   1   33.434000   42.925000  42.039000
583   2   1   33.908000   45.43000  41.958000
584   2   1   32.9000   44.241000  39.896000
585   2   1   32.942000   44.267000  41.469000
586   2   1   33.837000   45.384000  39.316000
587   2   1   35.488000   45.09000  43.999000
588   2   1   33.483000   42.956000  43.587000
589   2   1   33.034000   44.323000  44.122000
590   2   1   33.964000   45.465000  43.551000
591   2   1   35.285000   44.966000  37.195000
592   2   1   33.321000   42.86000  37.804000
593   2   1   33.806000   45.363000  37.721000
594   2   1   32.85000   44.204000  37.238000
595   2   1   33.187000   46.776000  39.855000
596   2   1   33.222000   46.802000  41.411000
597   2   1   31.506000   44.463000  39.345000
598   2   1   31.575000   44.506000  42.077000
599   2   1   31.72000   47.011000  41.997000
600   2   1   30.907000   45.734000  39.907000
601   2   1   30.942000   45.756000  41.497000
602   2   1   31.664000   46.971000  39.336000
603   2   1   33.306000   46.86000  44.089000
604   2   1   31.628000   44.545000  43.628000
605   2   1   31.021000   45.825000  44.147000
606   2   1   31.769000   47.055000  43.587000
607   2   1   33.145000   46.744000  37.174000
608   2   1   31.478000   44.452000  37.792000
609   2   1   31.645000   46.965000  37.744000
610   2   1   30.87000   45.721000  37.255000
611   2   1   30.812000   48.232000  39.89000
612   2   1   30.838000   48.253000  41.447000
613   2   1   29.48000   45.673000  39.365000
614   2   1   29.537000   45.708000  42.094000
615   2   1   30.902000   48.317000  44.13000
616   2   1   29.582000   45.751000  43.652000
617   2   1   30.779000   48.22000  37.205000
618   2   1   29.46000   45.673000  37.806000
619   2   1   29.32000   48.212000  42.029000
620   2   1   28.691000   46.839000  39.931000
621   2   1   28.719000   46.856000  41.522000
622   2   1   29.277000   48.18000  39.368000
623   2   1   28.779000   46.921000  44.17000
624   2   1   29.357000   48.256000  43.622000
625   2   1   29.261000   48.184000  37.774000
626   2   1   28.66000   46.839000  37.279000
627   2   1   28.266000   49.304000  39.925000
628   2   1   28.287000   49.32000  41.483000
629   2   1   27.282000   46.591000  39.385000
630   2   1   27.327000   46.619000  42.114000
631   2   1   26.794000   49.073000  42.059000
632   2   1   26.349000   47.651000  39.956000
633   2   1   26.371000   47.664000  41.544000
634   2   1   26.76000   49.048000  39.4000
635   2   1   28.332000   49.378000  44.166000
636   2   1   27.36000   46.659000  43.673000
637   2   1   26.413000   47.724000  44.195000
638   2   1   26.819000   49.112000  43.653000
639   2   1   28.237000   49.304000  37.241000
640   2   1   27.264000   46.597000  37.825000
641   2   1   26.744000   49.056000  37.804000
642   2   1   26.32000   47.659000  37.301000
643   2   1   25.642000   50.052000  39.959000
644   2   1   25.658000   50.064000  41.51000
645   2   1   24.976000   47.275000  39.408000
646   2   1   25.009000   47.297000  42.13000
647   2   1   24.167000   49.718000  42.078000
648   2   1   23.919000   48.23000  39.976000
649   2   1   23.936000   48.241000  41.566000
650   2   1   24.141000   49.697000  39.431000
651   2   1   25.688000   50.116000  44.191000
652   2   1   25.032000   47.335000  43.688000
653   2   1   23.965000   48.299000  44.2000
654   2   1   24.183000   49.751000  43.658000
655   2   1   25.612000   50.058000  37.277000
656   2   1   24.96000   47.283000  37.85000
657   2   1   24.126000   49.704000  37.851000
658   2   1   23.895000   48.243000  37.339000
659   2   1   22.841000   50.572000  39.972000
660   2   1   22.854000   50.583000  41.547000
661   2   1   22.622000   47.639000  39.428000
662   2   1   22.647000   47.66000  42.148000
663   2   1   21.501000   49.89000  42.091000
664   2   1   21.447000   48.419000  40.002000
665   2   1   21.459000   48.431000  41.581000
666   2   1   21.482000   49.87000  39.464000
667   2   1   22.869000   50.612000  44.156000
668   2   1   22.661000   47.695000  43.705000
669   2   1   21.477000   48.486000  44.23000
670   2   1   21.511000   49.915000  43.673000
671   2   1   22.811000   50.56000  37.362000
672   2   1   22.609000   47.647000  37.871000
673   2   1   21.468000   49.869000  37.881000
674   2   1   21.425000   48.43000  37.349000
675   2   1   20.141000   50.56000  39.996000
676   2   1   20.15000   50.571000  41.568000
677   2   1   20.224000   47.698000  39.443000
678   2   1   20.24000   47.722000  42.169000
679   2   1   18.845000   49.793000  42.107000
680   2   1   18.945000   48.298000  40.028000
681   2   1   18.951000   48.311000  41.593000
682   2   1   18.833000   49.771000  39.487000
683   2   1   20.168000   50.602000  44.17000
684   2   1   20.247000   47.752000  43.726000
685   2   1   18.953000   48.356000  44.253000
686   2   1   18.853000   49.814000  43.702000
687   2   1   20.124000   50.548000  37.392000
688   2   1   20.213000   47.7000  37.886000
689   2   1   18.827000   49.764000  37.892000
690   2   1   18.923000   48.295000  37.366000
691   2   1   17.453000   50.435000  40.009000
692   2   1   17.457000   50.448000  41.587000
693   2   1   17.743000   47.519000  39.482000
694   2   1   17.748000   47.546000  42.166000
695   2   1   16.167000   49.565000  42.129000
696   2   1   16.433000   48.097000  40.028000
697   2   1   16.434000   48.11000  41.612000
698   2   1   16.167000   49.543000  39.486000
699   2   1   17.472000   50.474000  44.195000
700   2   1   17.75000   47.571000  43.713000
701   2   1   16.433000   48.148000  44.215000
702   2   1   16.169000   49.589000  43.699000
703   2   1   17.451000   50.416000  37.4000
704   2   1   17.741000   47.509000  37.936000
705   2   1   16.169000   49.537000  37.915000
706   2   1   16.432000   48.083000  37.424000
707   2   1   14.672000   49.879000  40.028000
708   2   1   14.668000   49.886000  41.582000
709   2   1   15.441000   47.029000  39.503000
710   2   1   15.44000   47.051000  42.154000
711   2   1   14.668000   49.916000  44.255000
712   2   1   15.437000   47.074000  43.727000
713   2   1   14.685000   49.878000  37.354000
714   2   1   15.442000   47.021000  37.93000
715   2   1   23.999000   54.289000  42.099000
716   2   1   23.973000   52.873000  39.958000
717   2   1   23.988000   52.877000  41.514000
718   2   1   23.963000   54.287000  39.369000
719   2   1   23.974000   52.883000  44.25000
720   2   1   24.006000   54.285000  43.663000
721   2   1   23.925000   54.281000  37.805000
722   2   1   23.896000   52.868000  37.224000
723   2   1   22.733000   55.031000  39.961000
724   2   1   22.754000   55.032000  41.545000
725   2   1   22.764000   52.053000  39.43000
726   2   1   22.789000   52.066000  42.075000
727   2   1   21.469000   54.268000  42.081000
728   2   1   21.446000   52.77000  39.977000
729   2   1   21.459000   52.776000  41.554000
730   2   1   21.438000   54.262000  39.458000
731   2   1   22.768000   55.021000  44.174000
732   2   1   22.795000   52.073000  43.65000
733   2   1   21.475000   52.776000  44.147000
734   2   1   21.487000   54.26000  43.662000
735   2   1   22.669000   55.022000  37.333000
736   2   1   22.739000   52.043000  37.854000
737   2   1   21.411000   54.249000  37.877000
738   2   1   21.405000   52.753000  37.386000
739   2   1   20.157000   54.987000  40.001000
740   2   1   20.176000   54.995000  41.582000
741   2   1   20.13000   52.024000  39.471000
742   2   1   20.151000   52.037000  42.086000
743   2   1   18.91000   54.227000  42.145000
744   2   1   18.82000   52.73000  40.002000
745   2   1   18.833000   52.742000  41.582000
746   2   1   18.878000   54.212000  39.457000
747   2   1   20.221000   54.972000  44.202000
748   2   1   20.167000   52.045000  43.654000
749   2   1   18.872000   52.736000  44.189000
750   2   1   18.934000   54.22000  43.702000
751   2   1   20.126000   54.97000  37.382000
752   2   1   20.116000   52.01000  37.901000
753   2   1   18.863000   54.197000  37.901000
754   2   1   18.811000   52.708000  37.395000
755   2   1   24.084000   58.723000  42.121000
756   2   1   24.027000   57.288000  39.951000
757   2   1   24.054000   57.285000  41.52000
758   2   1   24.029000   58.731000  39.36000
759   2   1   24.092000   57.246000  44.229000
760   2   1   24.108000   58.701000  43.699000
761   2   1   23.983000   58.721000  37.781000
762   2   1   23.956000   57.269000  37.238000
763   2   1   22.793000   59.431000  39.985000
764   2   1   22.823000   59.429000  41.562000
765   2   1   22.756000   56.504000  39.43000
766   2   1   22.799000   56.503000  42.086000
767   2   1   21.584000   58.698000  42.17000
768   2   1   21.484000   57.23000  39.992000
769   2   1   21.507000   57.233000  41.586000
770   2   1   21.535000   58.697000  39.437000
771   2   1   22.866000   59.393000  44.295000
772   2   1   22.823000   56.486000  43.673000
773   2   1   21.558000   57.198000  44.215000
774   2   1   21.609000   58.676000  43.738000
775   2   1   22.709000   59.418000  37.254000
776   2   1   22.721000   56.494000  37.841000
777   2   1   21.489000   58.687000  37.872000
778   2   1   21.428000   57.213000  37.364000
779   2   1   20.213000   56.461000  39.456000
780   2   1   20.254000   56.468000  42.155000
781   2   1   20.282000   56.452000  43.712000
782   2   1   20.182000   56.448000  37.901000
783   2   1   13.555000   48.818000  42.133000
784   2   1   14.034000   47.399000  40.027000
785   2   1   14.031000   47.405000  41.604000
786   2   1   13.565000   48.81000  39.483000
787   2   1   14.024000   47.435000  44.251000
788   2   1   13.547000   48.839000  43.732000
789   2   1   13.57000   48.819000  37.883000
790   2   1   14.048000   47.407000  37.377000
791   2   1   12.021000   48.989000  40.023000
792   2   1   12.012000   48.986000  41.582000
793   2   1   13.087000   46.354000  39.445000
794   2   1   13.081000   46.358000  42.17000
795   2   1   11.002000   47.817000  42.125000
796   2   1   11.676000   46.525000  40.003000
797   2   1   11.671000   46.521000  41.59000
798   2   1   11.015000   47.828000  39.467000
799   2   1   11.992000   49.007000  44.26000
800   2   1   13.07000   46.377000  43.725000
801   2   1   11.644000   46.541000  44.24000
802   2   1   10.984000   47.833000  43.717000
803   2   1   12.03000   49.013000  37.344000
804   2   1   13.086000   46.366000  37.889000
805   2   1   11.013000   47.853000  37.875000
806   2   1   11.675000   46.563000  37.349000
807   2   1   9.458000   47.754000  40.012000
808   2   1   9.449000   47.742000  41.565000
809   2   1   10.945000   45.328000  39.421000
810   2   1   10.937000   45.314000  42.145000
811   2   1   8.614000   46.414000  42.098000
812   2   1   9.527000   45.247000  39.978000
813   2   1   9.522000   45.234000  41.566000
814   2   1   8.626000   46.438000  39.454000
815   2   1   9.415000   47.747000  44.238000
816   2   1   10.917000   45.327000  43.702000
817   2   1   9.486000   45.242000  44.205000
818   2   1   8.592000   46.417000  43.678000
819   2   1   9.453000   47.796000  37.339000
820   2   1   10.937000   45.356000  37.864000
821   2   1   8.62000   46.469000  37.874000
822   2   1   9.515000   45.301000  37.336000
823   2   1   7.065000   46.058000  39.977000
824   2   1   7.058000   46.041000  41.552000
825   2   1   9.092000   43.908000  39.393000
826   2   1   9.081000   43.883000  42.117000
827   2   1   6.674000   44.543000  42.059000
828   2   1   7.739000   43.548000  39.954000
829   2   1   7.733000   43.53000  41.532000
830   2   1   6.687000   44.572000  39.434000
831   2   1   7.032000   46.019000  44.157000
832   2   1   9.058000   43.887000  43.673000
833   2   1   7.692000   43.528000  44.187000
834   2   1   6.655000   44.535000  43.644000
835   2   1   7.066000   46.094000  37.372000
836   2   1   9.083000   43.941000  37.836000
837   2   1   6.685000   44.6000  37.848000
838   2   1   7.726000   43.604000  37.296000
839   2   1   5.279000   44.011000  39.945000
840   2   1   5.271000   43.994000  41.516000
841   2   1   7.484000   42.158000  39.363000
842   2   1   7.467000   42.126000  42.089000
843   2   1   4.989000   42.501000  42.027000
844   2   1   6.165000   41.639000  39.923000
845   2   1   6.153000   41.62000  41.503000
846   2   1   5.007000   42.53000  39.396000
847   2   1   5.246000   43.976000  44.121000
848   2   1   7.441000   42.124000  43.651000
849   2   1   6.106000   41.614000  44.158000
850   2   1   4.968000   42.495000  43.613000
851   2   1   5.286000   44.054000  37.34000
852   2   1   7.478000   42.191000  37.8000
853   2   1   5.009000   42.558000  37.809000
854   2   1   6.156000   41.689000  37.265000
855   2   1   3.621000   41.897000  39.903000
856   2   1   3.609000   41.882000  41.482000
857   2   1   6.03000   40.244000  39.339000
858   2   1   6.001000   40.213000  42.062000
859   2   1   3.45000   40.343000  41.999000
860   2   1   4.748000   39.611000  39.89000
861   2   1   4.727000   39.596000  41.478000
862   2   1   3.481000   40.364000  39.349000
863   2   1   3.583000   41.868000  44.099000
864   2   1   5.966000   40.209000  43.62000
865   2   1   4.666000   39.589000  44.119000
866   2   1   3.416000   40.34000  43.581000
867   2   1   3.64000   41.935000  37.286000
868   2   1   6.03000   40.273000  37.78000
869   2   1   3.487000   40.387000  37.767000
870   2   1   4.755000   39.646000  37.249000
871   2   1   2.246000   39.462000  39.869000
872   2   1   2.223000   39.455000  41.425000
873   2   1   4.814000   38.199000  39.319000
874   2   1   4.764000   38.177000  42.04000
875   2   1   2.165000   39.451000  44.104000
876   2   1   4.723000   38.17000  43.593000
877   2   1   2.273000   39.488000  37.189000
878   2   1   4.83000   38.218000  37.765000
879   2   1   2.274000   37.923000  41.964000
880   2   1   3.681000   37.343000  39.874000
881   2   1   3.648000   37.332000  41.45000
882   2   1   2.327000   37.936000  39.311000
883   2   1   3.577000   37.319000  44.101000
884   2   1   2.23000   37.919000  43.562000
885   2   1   2.347000   37.95000  37.712000
886   2   1   3.72000   37.354000  37.222000
887   2   1   1.167000   36.941000  39.828000
888   2   1   1.134000   36.934000  41.385000
889   2   1   3.927000   35.915000  39.34000
890   2   1   3.863000   35.899000  41.996000
891   2   1   1.33000   35.431000  41.931000
892   2   1   2.769000   35.035000  39.842000
893   2   1   2.733000   35.025000  41.426000
894   2   1   1.392000   35.448000  39.273000
895   2   1   1.063000   36.921000  44.066000
896   2   1   3.816000   35.891000  43.569000
897   2   1   2.657000   35.009000  44.044000
898   2   1   1.28000   35.423000  43.511000
899   2   1   1.214000   36.956000  37.145000
900   2   1   3.961000   35.925000  37.767000
901   2   1   1.42000   35.459000  37.693000
902   2   1   2.828000   35.051000  37.225000
903   2   1   0.384000   34.305000  39.795000
904   2   1   0.349000   34.291000  41.347000
905   2   1   3.19000   33.678000  39.294000
906   2   1   3.127000   33.659000  41.978000
907   2   1   0.706000   32.787000  41.888000
908   2   1   2.242000   32.575000  39.81000
909   2   1   2.209000   32.562000  41.385000
910   2   1   0.761000   32.813000  39.249000
911   2   1   0.272000   34.269000  44.023000
912   2   1   3.079000   33.649000  43.527000
913   2   1   2.13000   32.547000  44.031000
914   2   1   0.66000   32.773000  43.477000
915   2   1   0.432000   34.326000  37.115000
916   2   1   3.222000   33.687000  37.746000
917   2   1   0.782000   32.829000  37.659000
918   2   1   2.28000   32.61000  37.164000
919   2   1   -0.152000   31.502000  39.753000
920   2   1   -0.18000   31.484000  41.33000
921   2   1   2.78000   31.282000  39.224000
922   2   1   2.726000   31.259000  41.951000
923   2   1   0.511000   30.124000  41.849000
924   2   1   2.003000   30.109000  39.769000
925   2   1   1.976000   30.095000  41.347000
926   2   1   0.554000   30.154000  39.221000
927   2   1   -0.232000   31.448000  43.937000
928   2   1   2.678000   31.248000  43.501000
929   2   1   1.898000   30.068000  44.002000
930   2   1   0.473000   30.106000  43.432000
931   2   1   -0.116000   31.53000  37.146000
932   2   1   2.793000   31.297000  37.673000
933   2   1   0.567000   30.173000  37.637000
934   2   1   2.012000   30.143000  37.112000
935   2   1   -0.136000   28.803000  39.722000
936   2   1   -0.16000   28.784000  41.293000
937   2   1   2.753000   28.907000  39.19000
938   2   1   2.711000   28.881000  41.916000
939   2   1   0.62000   27.491000  41.82000
940   2   1   2.106000   27.643000  39.739000
941   2   1   2.083000   27.628000  41.318000
942   2   1   0.658000   27.52000  39.189000
943   2   1   -0.213000   28.756000  43.899000
944   2   1   2.666000   28.866000  43.478000
945   2   1   2.008000   27.598000  43.975000
946   2   1   0.583000   27.475000  43.406000
947   2   1   -0.111000   28.838000  37.117000
948   2   1   2.755000   28.923000  37.626000
949   2   1   0.666000   27.54000  37.602000
950   2   1   2.108000   27.669000  37.079000
951   2   1   0.042000   26.123000  39.691000
952   2   1   0.02000   26.105000  41.27000
953   2   1   2.954000   26.526000  39.166000
954   2   1   2.916000   26.5000  41.891000
955   2   1   0.951000   24.861000  41.81000
956   2   1   2.431000   25.203000  39.716000
957   2   1   2.409000   25.187000  41.305000
958   2   1   0.987000   24.887000  39.162000
959   2   1   -0.031000   26.083000  43.885000
960   2   1   2.872000   26.482000  43.449000
961   2   1   2.335000   25.156000  43.947000
962   2   1   0.907000   24.843000  43.392000
963   2   1   0.066000   26.158000  37.076000
964   2   1   2.952000   26.538000  37.606000
965   2   1   0.987000   24.9000  37.578000
966   2   1   2.43000   25.219000  37.072000
967   2   1   0.694000   23.375000  39.695000
968   2   1   0.672000   23.36000  41.249000
969   2   1   3.451000   24.221000  39.156000
970   2   1   3.414000   24.194000  41.882000
971   2   1   0.603000   23.333000  43.924000
972   2   1   3.368000   24.174000  43.438000
973   2   1   0.701000   23.396000  37.018000
974   2   1   3.449000   24.227000  37.598000
975   2   1   1.767000   22.286000  41.813000
976   2   1   3.171000   22.834000  39.714000
977   2   1   3.15000   22.817000  41.303000
978   2   1   1.804000   22.311000  39.155000
979   2   1   3.076000   22.783000  43.952000
980   2   1   1.719000   22.263000  43.405000
981   2   1   1.802000   22.318000  37.561000
982   2   1   3.175000   22.843000  37.062000
983   2   1   1.731000   20.783000  39.697000
984   2   1   1.709000   20.767000  41.254000
985   2   1   4.332000   22.013000  39.16000
986   2   1   4.294000   21.985000  41.888000
987   2   1   2.944000   19.868000  41.823000
988   2   1   4.249000   20.596000  39.723000
989   2   1   4.229000   20.576000  41.312000
990   2   1   2.981000   19.897000  39.162000
991   2   1   1.645000   20.729000  43.935000
992   2   1   4.249000   21.96000  43.447000
993   2   1   4.164000   20.534000  43.962000
994   2   1   2.904000   19.838000  43.415000
995   2   1   1.743000   20.794000  37.014000
996   2   1   4.333000   22.017000  37.6000
997   2   1   2.984000   19.901000  37.568000
998   2   1   4.261000   20.601000  37.069000
999   2   1   3.104000   18.386000  39.711000
1000   2   1   3.085000   18.366000  41.264000
1001   2   1   5.496000   19.921000  39.173000
1002   2   1   5.46000   19.888000  41.899000
1003   2   1   4.415000   17.574000  41.829000
1004   2   1   5.645000   18.51000  39.746000
1005   2   1   5.631000   18.488000  41.322000
1006   2   1   4.439000   17.609000  39.191000
1007   2   1   3.037000   18.317000  43.943000
1008   2   1   5.425000   19.86000  43.451000
1009   2   1   5.587000   18.438000  43.965000
1010   2   1   4.392000   17.544000  43.419000
1011   2   1   3.127000   18.399000  37.025000
1012   2   1   5.503000   19.926000  37.619000
1013   2   1   4.447000   17.618000  37.599000
1014   2   1   5.667000   18.519000  37.101000
1015   2   1   4.719000   16.045000  39.722000
1016   2   1   4.716000   16.023000  41.297000
1017   2   1   6.985000   17.977000  39.212000
1018   2   1   6.959000   17.932000  41.894000
1019   2   1   6.164000   15.547000  41.82000
1020   2   1   7.22000   16.575000  39.745000
1021   2   1   7.215000   16.55000  41.318000
1022   2   1   6.168000   15.588000  39.196000
1023   2   1   4.715000   15.982000  43.901000
1024   2   1   6.933000   17.898000  43.442000
1025   2   1   7.186000   16.493000  43.94000
1026   2   1   6.157000   15.516000  43.39000
1027   2   1   4.729000   16.071000  37.118000
1028   2   1   6.999000   18.002000  37.666000
1029   2   1   6.172000   15.615000  37.625000
1030   2   1   7.231000   16.617000  37.126000
1031   2   1   6.637000   14.155000  39.7000
1032   2   1   6.642000   14.131000  41.27000
1033   2   1   8.639000   16.315000  39.212000
1034   2   1   8.626000   16.263000  41.865000
1035   2   1   8.116000   13.772000  41.787000
1036   2   1   9.065000   14.93000  39.718000
1037   2   1   9.07000   14.902000  41.283000
1038   2   1   8.105000   13.821000  39.163000
1039   2   1   6.642000   14.086000  43.871000
1040   2   1   8.611000   16.225000  43.44000
1041   2   1   9.057000   14.838000  43.941000
1042   2   1   8.113000   13.739000  43.378000
1043   2   1   6.622000   14.202000  37.098000
1044   2   1   8.644000   16.346000  37.637000
1045   2   1   8.092000   13.853000  37.572000
1046   2   1   9.039000   14.981000  37.057000
1047   2   1   8.638000   12.379000  39.65000
1048   2   1   8.646000   12.349000  41.23000
1049   2   1   10.433000   14.667000  39.122000
1050   2   1   10.446000   14.608000  41.846000
1051   2   1   10.176000   12.076000  41.745000
1052   2   1   10.981000   13.353000  39.655000
1053   2   1   10.989000   13.317000  41.243000
1054   2   1   10.163000   12.137000  39.095000
1055   2   1   8.649000   12.297000  43.844000
1056   2   1   10.441000   14.561000  43.4000
1057   2   1   10.984000   13.227000  43.884000
1058   2   1   10.172000   12.025000  43.327000
1059   2   1   8.611000   12.436000  37.035000
1060   2   1   10.416000   14.693000  37.567000
1061   2   1   10.141000   12.162000  37.513000
1062   2   1   10.943000   13.394000  37.008000
1063   2   1   11.004000   10.842000  39.599000
1064   2   1   11.01000   10.803000  41.154000
1065   2   1   12.392000   13.364000  39.077000
1066   2   1   12.41000   13.287000  41.803000
1067   2   1   11.001000   10.709000  43.828000
1068   2   1   12.409000   13.221000  43.361000
1069   2   1   10.972000   10.893000  36.922000
1070   2   1   12.369000   13.389000  37.518000
1071   2   1   12.549000   10.774000  41.69000
1072   2   1   13.155000   12.165000  39.609000
1073   2   1   13.164000   12.116000  41.195000
1074   2   1   12.538000   10.856000  39.034000
1075   2   1   13.163000   11.999000  43.846000
1076   2   1   12.545000   10.701000  43.282000
1077   2   1   12.52000   10.883000  37.44000
1078   2   1   13.126000   12.216000  36.951000
1079   2   1   13.549000   9.694000  39.538000
1080   2   1   13.553000   9.642000  41.09000
1081   2   1   14.547000   12.38000  39.04000
1082   2   1   14.565000   12.282000  41.764000
1083   2   1   15.098000   9.785000  41.628000
1084   2   1   15.489000   11.3000  39.566000
1085   2   1   15.497000   11.239000  41.154000
1086   2   1   15.089000   9.886000  38.984000
1087   2   1   13.556000   9.518000  43.763000
1088   2   1   14.567000   12.202000  43.32000
1089   2   1   15.5000   11.099000  43.789000
1090   2   1   15.1000   9.701000  43.206000
1091   2   1   13.53000   9.757000  36.862000
1092   2   1   14.529000   12.413000  37.482000
1093   2   1   15.077000   9.927000  37.404000
1094   2   1   15.468000   11.365000  36.927000
1095   2   1   16.31000   8.865000  39.467000
1096   2   1   16.314000   8.799000  41.041000
1097   2   1   16.827000   11.786000  39.015000
1098   2   1   16.843000   11.672000  41.735000
1099   2   1   17.74000   9.342000  41.584000
1100   2   1   17.924000   10.886000  39.547000
1101   2   1   17.933000   10.817000  41.124000
1102   2   1   17.729000   9.457000  38.961000
1103   2   1   16.328000   8.676000  43.645000
1104   2   1   16.848000   11.585000  43.289000
1105   2   1   17.94000   10.667000  43.774000
1106   2   1   17.746000   9.26000  43.167000
1107   2   1   16.304000   8.964000  36.861000
1108   2   1   16.813000   11.827000  37.458000
1109   2   1   17.721000   9.513000  37.377000
1110   2   1   17.908000   10.965000  36.893000
1111   2   1   18.999000   8.615000  39.446000
1112   2   1   19.006000   8.545000  41.016000
1113   2   1   19.207000   11.512000  38.999000
1114   2   1   19.225000   11.391000  41.72000
1115   2   1   20.376000   9.162000  41.57000
1116   2   1   20.397000   10.709000  39.534000
1117   2   1   20.409000   10.638000  41.111000
1118   2   1   20.362000   9.281000  38.942000
1119   2   1   19.013000   8.416000  43.617000
1120   2   1   19.232000   11.301000  43.28000
1121   2   1   20.424000   10.487000  43.761000
1122   2   1   20.382000   9.079000  43.152000
1123   2   1   18.984000   8.719000  36.843000
1124   2   1   19.196000   11.562000  37.437000
1125   2   1   20.35000   9.342000  37.359000
1126   2   1   20.384000   10.799000  36.88000
1127   2   1   21.684000   8.512000  39.427000
1128   2   1   21.693000   8.44000  41.005000
1129   2   1   21.609000   11.437000  38.993000
1130   2   1   21.632000   11.312000  41.712000
1131   2   1   23.042000   9.212000  41.567000
1132   2   1   22.89000   10.803000  39.536000
1133   2   1   22.906000   10.731000  41.11000
1134   2   1   23.021000   9.335000  38.929000
1135   2   1   21.701000   8.313000  43.615000
1136   2   1   21.644000   11.227000  43.263000
1137   2   1   22.935000   10.59000  43.747000
1138   2   1   23.054000   9.126000  43.154000
1139   2   1   21.662000   8.627000  36.816000
1140   2   1   21.599000   11.496000  37.44000
1141   2   1   23.007000   9.4000  37.341000
1142   2   1   22.879000   10.913000  36.894000
1143   2   1   24.465000   8.793000  39.435000
1144   2   1   24.479000   8.721000  40.988000
1145   2   1   24.026000   11.725000  39.041000
1146   2   1   24.058000   11.599000  41.69000
1147   2   1   25.705000   9.609000  41.571000
1148   2   1   25.358000   11.132000  39.53000
1149   2   1   25.379000   11.058000  41.114000
1150   2   1   25.673000   9.737000  38.917000
1151   2   1   24.502000   8.58000  43.659000
1152   2   1   24.078000   11.516000  43.26000
1153   2   1   25.414000   10.918000  43.721000
1154   2   1   25.726000   9.519000  43.147000
1155   2   1   24.436000   8.91000  36.761000
1156   2   1   24.009000   11.796000  37.47000
1157   2   1   25.654000   9.804000  37.339000
1158   2   1   25.326000   11.253000  36.919000
1159   2   1   27.177000   9.42000  39.431000
1160   2   1   27.199000   9.346000  40.987000
1161   2   1   26.332000   12.195000  39.02000
1162   2   1   26.373000   12.066000  41.704000
1163   2   1   27.238000   9.198000  43.661000
1164   2   1   26.4000   11.982000  43.252000
1165   2   1   27.139000   9.538000  36.752000
1166   2   1   26.311000   12.266000  37.472000
1167   2   1   28.292000   10.407000  41.568000
1168   2   1   27.752000   11.902000  39.539000
1169   2   1   27.779000   11.827000  41.111000
1170   2   1   28.247000   10.537000  38.921000
1171   2   1   27.826000   11.675000  43.765000
1172   2   1   28.325000   10.311000  43.169000
1173   2   1   28.223000   10.604000  37.317000
1174   2   1   27.705000   12.016000  36.878000
1175   2   1   29.787000   10.352000  39.43000
1176   2   1   29.816000   10.275000  40.982000
1177   2   1   28.664000   12.981000  38.999000
1178   2   1   28.719000   12.846000  41.722000
1179   2   1   30.843000   11.411000  41.564000
1180   2   1   30.086000   12.818000  39.531000
1181   2   1   30.12000   12.739000  41.118000
1182   2   1   30.785000   11.544000  38.92000
1183   2   1   29.881000   10.12000  43.655000
1184   2   1   28.759000   12.751000  43.271000
1185   2   1   30.195000   12.574000  43.749000
1186   2   1   30.889000   11.313000  43.138000
1187   2   1   29.745000   10.468000  36.753000
1188   2   1   28.64000   13.042000  37.447000
1189   2   1   30.759000   11.608000  37.342000
1190   2   1   30.044000   12.92000  36.893000
1191   2   1   32.378000   11.634000  39.422000
1192   2   1   32.416000   11.554000  40.995000
1193   2   1   30.718000   14.104000  39.014000
1194   2   1   30.785000   13.967000  41.734000
1195   2   1   33.054000   12.927000  41.574000
1196   2   1   32.123000   14.203000  39.558000
1197   2   1   32.163000   14.125000  41.134000
1198   2   1   32.986000   13.059000  38.952000
1199   2   1   32.493000   11.414000  43.596000
1200   2   1   30.836000   13.868000  43.287000
1201   2   1   32.254000   13.96000  43.783000
1202   2   1   33.104000   12.836000  43.156000
1203   2   1   32.323000   11.759000  36.817000
1204   2   1   30.692000   14.164000  37.459000
1205   2   1   32.953000   13.127000  37.368000
1206   2   1   32.076000   14.307000  36.902000
1207   2   1   34.477000   13.339000  39.454000
1208   2   1   34.519000   13.263000  41.023000
1209   2   1   32.593000   15.56000  39.039000
1210   2   1   32.667000   15.425000  41.761000
1211   2   1   35.055000   14.657000  41.608000
1212   2   1   33.991000   15.815000  39.587000
1213   2   1   34.034000   15.74000  41.164000
1214   2   1   34.982000   14.783000  38.982000
1215   2   1   34.598000   13.12000  43.621000
1216   2   1   32.723000   15.329000  43.32000
1217   2   1   34.133000   15.584000  43.815000
1218   2   1   35.107000   14.567000  43.192000
1219   2   1   34.413000   13.455000  36.851000
1220   2   1   32.565000   15.621000  37.477000
1221   2   1   34.945000   14.846000  37.397000
1222   2   1   33.942000   15.916000  36.93000
1223   2   1   36.464000   15.15000  39.486000
1224   2   1   36.509000   15.079000  41.063000
1225   2   1   34.331000   17.197000  39.069000
1226   2   1   34.407000   17.071000  41.791000
1227   2   1   36.911000   16.565000  41.66000
1228   2   1   35.699000   17.59000  39.618000
1229   2   1   35.742000   17.523000  41.205000
1230   2   1   36.836000   16.678000  39.015000
1231   2   1   36.587000   14.941000  43.672000
1232   2   1   34.468000   16.981000  43.346000
1233   2   1   35.845000   17.383000  43.84000
1234   2   1   36.971000   16.48000  43.239000
1235   2   1   36.393000   15.258000  36.873000
1236   2   1   34.305000   17.255000  37.512000
1237   2   1   36.806000   16.732000  37.432000
1238   2   1   35.654000   17.682000  36.975000
1239   2   1   38.206000   17.369000  39.559000
1240   2   1   38.248000   17.311000  41.113000
1241   2   1   35.827000   19.02000  39.107000
1242   2   1   35.9000   18.909000  41.828000
1243   2   1   38.408000   18.821000  41.725000
1244   2   1   37.095000   19.647000  39.664000
1245   2   1   37.135000   19.592000  41.254000
1246   2   1   38.338000   18.914000  39.067000
1247   2   1   38.343000   17.186000  43.784000
1248   2   1   35.962000   18.83000  43.382000
1249   2   1   37.234000   19.478000  43.894000
1250   2   1   38.472000   18.752000  43.313000
1251   2   1   38.153000   17.453000  36.883000
1252   2   1   35.804000   19.072000  37.55000
1253   2   1   38.315000   18.96000  37.476000
1254   2   1   37.054000   19.729000  37.017000
1255   2   1   39.574000   19.791000  39.621000
1256   2   1   39.613000   19.743000  41.179000
1257   2   1   37.013000   21.085000  39.148000
1258   2   1   37.081000   20.995000  41.876000
1259   2   1   39.705000   19.65000  43.86000
1260   2   1   37.139000   20.934000  43.428000
1261   2   1   39.524000   19.87000  36.935000
1262   2   1   36.989000   21.131000  37.594000
1263   2   1   39.554000   21.258000  41.78000
1264   2   1   38.149000   21.92000  39.725000
1265   2   1   38.187000   21.876000  41.299000
1266   2   1   39.487000   21.334000  39.13000
1267   2   1   38.276000   21.797000  43.953000
1268   2   1   39.613000   21.209000  43.384000
1269   2   1   39.458000   21.378000  37.524000
1270   2   1   38.1000   22.003000  37.063000
1271   2   1   40.667000   22.284000  39.68000
1272   2   1   40.706000   22.246000  41.231000
1273   2   1   38.013000   23.366000  39.217000
1274   2   1   38.081000   23.297000  41.9000
1275   2   1   40.613000   23.767000  41.823000
1276   2   1   39.151000   24.248000  39.759000
1277   2   1   39.19000   24.212000  41.344000
1278   2   1   40.545000   23.825000  39.18000
1279   2   1   40.794000   22.182000  43.908000
1280   2   1   38.131000   23.254000  43.448000
1281   2   1   39.272000   24.15000  43.942000
1282   2   1   40.664000   23.733000  43.389000
1283   2   1   40.61000   22.358000  36.998000
1284   2   1   37.978000   23.406000  37.67000
1285   2   1   40.511000   23.86000  37.613000
1286   2   1   39.092000   24.309000  37.157000
1287   2   1   41.602000   24.975000  39.716000
1288   2   1   41.641000   24.949000  41.29000
1289   2   1   38.657000   25.623000  39.271000
1290   2   1   38.726000   25.569000  41.92000
1291   2   1   41.14000   26.383000  41.851000
1292   2   1   39.634000   26.676000  39.804000
1293   2   1   39.67000   26.652000  41.369000
1294   2   1   41.076000   26.422000  39.232000
1295   2   1   41.709000   24.909000  43.892000
1296   2   1   38.776000   25.534000  43.49000
1297   2   1   39.755000   26.598000  44.018000
1298   2   1   41.186000   26.358000  43.438000
1299   2   1   41.539000   25.026000  37.112000
1300   2   1   38.621000   25.656000  37.701000
1301   2   1   41.041000   26.445000  37.644000
1302   2   1   39.583000   26.705000  37.148000
1303   2   1   41.995000   27.636000  39.748000
1304   2   1   42.032000   27.617000  41.32000
1305   2   1   39.148000   28.015000  39.254000
1306   2   1   39.216000   27.98000  41.976000
1307   2   1   41.496000   29.019000  41.879000
1308   2   1   39.998000   29.144000  39.817000
1309   2   1   40.034000   29.128000  41.395000
1310   2   1   41.432000   29.046000  39.25000
1311   2   1   42.106000   27.579000  43.919000
1312   2   1   39.269000   27.956000  43.533000
1313   2   1   40.134000   29.096000  44.048000
1314   2   1   41.548000   28.999000  43.463000
1315   2   1   41.938000   27.662000  37.145000
1316   2   1   39.121000   28.031000  37.696000
1317   2   1   41.402000   29.057000  37.665000
1318   2   1   39.961000   29.163000  37.157000
1319   2   1   42.27000   30.321000  39.764000
1320   2   1   42.308000   30.308000  41.342000
1321   2   1   39.332000   30.391000  39.271000
1322   2   1   39.402000   30.374000  41.995000
1323   2   1   41.595000   31.694000  41.902000
1324   2   1   40.06000   31.61000  39.826000
1325   2   1   40.099000   31.604000  41.414000
1326   2   1   41.527000   31.706000  39.255000
1327   2   1   42.386000   30.278000  43.954000
1328   2   1   39.467000   30.363000  43.553000
1329   2   1   40.208000   31.595000  44.053000
1330   2   1   41.66000   31.686000  43.484000
1331   2   1   42.212000   30.333000  37.149000
1332   2   1   39.311000   30.4000  37.712000
1333   2   1   41.506000   31.712000  37.671000
1334   2   1   40.027000   31.62000  37.18000
1335   2   1   42.048000   33.16000  39.788000
1336   2   1   42.087000   33.156000  41.343000
1337   2   1   39.194000   32.739000  39.283000
1338   2   1   39.268000   32.739000  42.008000
1339   2   1   41.173000   34.393000  41.915000
1340   2   1   39.682000   34.066000  39.836000
1341   2   1   39.723000   34.068000  41.425000
1342   2   1   41.101000   34.389000  39.259000
1343   2   1   42.192000   33.15000  44.015000
1344   2   1   39.338000   32.743000  43.564000
1345   2   1   39.836000   34.084000  44.071000
1346   2   1   41.245000   34.402000  43.506000
1347   2   1   42.008000   33.162000  37.113000
1348   2   1   39.175000   32.741000  37.726000
1349   2   1   41.082000   34.391000  37.665000
1350   2   1   39.644000   34.065000  37.182000
1351   2   1   41.392000   35.901000  39.79000
1352   2   1   41.435000   35.906000  41.347000
1353   2   1   38.643000   35.041000  39.29000
1354   2   1   38.72000   35.059000  42.019000
1355   2   1   41.543000   35.93000  44.024000
1356   2   1   38.792000   35.078000  43.577000
1357   2   1   41.346000   35.898000  37.11000
1358   2   1   38.62000   35.038000  37.731000
1359   2   1   13.818000   37.026000  40.215000
1360   2   1   11.993000   35.284000  40.179000
1361   2   1   11.971000   35.276000  41.731000
1362   2   1   10.081000   33.56000  40.079000
1363   2   1   10.046000   33.551000  41.661000
1364   2   1   13.809000   37.025000  41.771000
1365   2   1   34.727000   26.358000  39.93000
1366   2   1   34.766000   26.323000  41.525000
1367   2   1   33.687000   27.421000  39.433000
1368   2   1   34.291000   24.961000  39.371000
1369   2   1   33.751000   27.362000  42.127000
1370   2   1   34.359000   24.9000  42.038000
1371   2   1   32.882000   24.651000  39.956000
1372   2   1   32.922000   24.617000  41.511000
1373   2   1   37.185000   25.627000  39.852000
1374   2   1   37.225000   25.59000  41.429000
1375   2   1   36.142000   26.695000  39.342000
1376   2   1   36.709000   24.264000  39.274000
1377   2   1   36.212000   26.632000  42.051000
1378   2   1   36.78000   24.199000  41.965000
1379   2   1   35.316000   23.89000  39.877000
1380   2   1   35.356000   23.855000  41.426000
1381   2   1   31.719000   38.776000  40.01000
1382   2   1   31.757000   38.797000  41.605000
1383   2   1   30.7000   39.846000  39.479000
1384   2   1   31.232000   37.39000  39.492000
1385   2   1   30.765000   39.884000  42.146000
1386   2   1   31.286000   37.426000  42.189000
1387   2   1   29.291000   39.512000  40.068000
1388   2   1   29.328000   39.535000  41.623000
1389   2   1   33.622000   40.484000  39.942000
1390   2   1   33.666000   40.507000  41.52000
1391   2   1   32.579000   41.51000  39.394000
1392   2   1   33.145000   39.086000  39.411000
1393   2   1   32.653000   41.551000  42.088000
1394   2   1   33.213000   39.125000  42.122000
1395   2   1   31.167000   41.236000  40.009000
1396   2   1   31.209000   41.257000  41.558000
1397   2   1   16.747000   43.179000  40.091000
1398   2   1   16.749000   43.197000  41.686000
1399   2   1   19.181000   42.445000  40.117000
1400   2   1   19.182000   42.469000  41.672000
1401   2   1   18.181000   43.504000  39.547000
1402   2   1   18.183000   43.541000  42.215000
1403   2   1   16.389000   41.743000  39.568000
1404   2   1   16.395000   41.776000  42.261000
1405   2   1   16.142000   45.702000  40.059000
1406   2   1   16.144000   45.717000  41.638000
1407   2   1   18.579000   44.908000  40.086000
1408   2   1   18.58000   44.928000  41.634000
1409   2   1   17.573000   45.95000  39.498000
1410   2   1   17.575000   45.98000  42.192000
1411   2   1   15.739000   44.267000  39.517000
1412   2   1   15.742000   44.296000  42.225000
1413   2   1   9.052000   34.608000  39.487000
1414   2   1   8.985000   34.593000  42.183000
1415   2   1   7.604000   34.308000  39.987000
1416   2   1   7.565000   34.3000  41.582000
1417   2   1   7.124000   32.889000  42.097000
1418   2   1   8.207000   31.853000  40.017000
1419   2   1   8.165000   31.846000  41.571000
1420   2   1   7.196000   32.9000  39.432000
1421   2   1   6.61000   35.382000  39.398000
1422   2   1   6.543000   35.368000  42.109000
1423   2   1   5.154000   35.084000  39.914000
1424   2   1   5.117000   35.075000  41.494000
1425   2   1   4.716000   33.667000  42.032000
1426   2   1   5.749000   32.59000  39.943000
1427   2   1   5.711000   32.584000  41.492000
1428   2   1   4.782000   33.681000  39.341000
1429   2   1   10.245000   20.426000  39.347000
1430   2   1   11.247000   19.341000  39.878000
1431   2   1   10.699000   21.792000  39.95000
1432   2   1   10.2000   20.366000  42.014000
1433   2   1   11.225000   19.31000  41.473000
1434   2   1   10.67000   21.757000  41.505000
1435   2   1   12.683000   19.712000  39.375000
1436   2   1   12.64000   19.658000  42.07000
1437   2   1   8.415000   18.681000  39.249000
1438   2   1   9.382000   17.585000  39.796000
1439   2   1   8.806000   20.071000  39.866000
1440   2   1   8.386000   18.626000  41.94000
1441   2   1   9.368000   17.556000  41.374000
1442   2   1   8.785000   20.038000  41.416000
1443   2   1   10.817000   17.955000  39.27000
1444   2   1   10.784000   17.899000  41.981000
1445   2   1   25.038000   16.059000  39.249000
1446   2   1   25.077000   15.939000  41.911000
1447   2   1   22.66000   16.708000  42.006000
1448   2   1   23.611000   15.704000  39.792000
1449   2   1   25.429000   17.448000  39.863000
1450   2   1   25.451000   17.38000  41.416000
1451   2   1   23.631000   15.636000  41.386000
1452   2   1   22.622000   16.816000  39.313000
1453   2   1   25.546000   13.575000  39.102000
1454   2   1   25.585000   13.446000  41.79000
1455   2   1   23.209000   14.205000  41.877000
1456   2   1   24.143000   13.189000  39.659000
1457   2   1   26.023000   14.936000  39.736000
1458   2   1   26.044000   14.863000  41.285000
1459   2   1   24.164000   13.116000  41.236000
1460   2   1   23.172000   14.327000  39.17000
1461   2   1   21.367000   31.039000  39.796000
1462   2   1   19.938000   30.683000  40.325000
1463   2   1   21.377000   31.031000  42.414000
1464   2   1   19.937000   30.674000  41.893000
1465   2   1   24.43000   27.848000  39.735000
1466   2   1   25.461000   26.775000  40.217000
1467   2   1   24.845000   29.258000  40.275000
1468   2   1   23.007000   27.486000  40.281000
1469   2   1   24.464000   27.809000  42.364000
1470   2   1   23.021000   27.464000  41.852000
1471   2   1   16.251000   36.347000  40.245000
1472   2   1   15.226000   37.395000  39.676000
1473   2   1   15.854000   34.924000  39.735000
1474   2   1   16.249000   36.35000  41.824000
1475   2   1   15.214000   37.409000  42.33000
1476   2   1   15.835000   34.926000  42.367000
1477   2   1   25.48000   26.748000  41.79000
1478   2   1   25.081000   25.313000  42.288000
1479   2   1   29.812000   37.038000  40.086000
1480   2   1   29.841000   37.058000  41.668000
1481   2   1   12.135000   22.186000  39.451000
1482   2   1   13.149000   21.096000  39.985000
1483   2   1   12.543000   23.596000  40.026000
1484   2   1   12.081000   22.13000  42.092000
1485   2   1   13.124000   21.066000  41.568000
1486   2   1   21.981000   28.558000  39.779000
1487   2   1   22.594000   26.079000  39.73000
1488   2   1   21.997000   28.53000  42.398000
1489   2   1   22.621000   26.029000  42.36000
1490   2   1   14.416000   34.572000  40.234000
1491   2   1   14.402000   34.565000  41.814000
1492   2   1   18.917000   31.747000  39.796000
1493   2   1   19.323000   33.167000  40.316000
1494   2   1   17.482000   31.39000  40.311000
1495   2   1   18.91000   31.74000  42.418000
1496   2   1   17.472000   31.38000  41.884000
1497   2   1   28.09000   22.199000  39.398000
1498   2   1   26.693000   21.804000  39.977000
1499   2   1   28.156000   22.107000  42.076000
1500   2   1   26.728000   21.747000  41.545000
1501   2   1   19.526000   29.245000  42.412000
1502   2   1   26.316000   38.871000  42.209000
1503   2   1   19.324000   33.167000  41.888000
1504   2   1   18.298000   34.235000  42.401000
1505   2   1   28.785000   38.119000  39.551000
1506   2   1   29.366000   35.616000  39.595000
1507   2   1   28.836000   38.16000  42.191000
1508   2   1   29.408000   35.645000  42.233000
1509   2   1   13.409000   35.634000  39.663000
1510   2   1   13.374000   35.63000  42.317000
1511   2   1   21.169000   25.716000  40.265000
1512   2   1   21.177000   25.689000  41.837000
1513   2   1   13.965000   33.144000  42.334000
1514   2   1   25.711000   22.797000  42.114000
1515   2   1   24.256000   22.459000  41.649000
1516   2   1   16.465000   32.452000  39.765000
1517   2   1   17.081000   29.978000  39.771000
1518   2   1   16.439000   32.441000  42.397000
1519   2   1   17.053000   29.955000  42.403000
1520   2   1   26.322000   20.323000  42.063000
1521   2   1   30.942000   32.069000  40.146000
1522   2   1   30.962000   32.062000  41.701000
1523   2   1   17.401000   40.655000  40.143000
1524   2   1   17.404000   40.674000  41.726000
1525   2   1   23.806000   39.525000  39.537000
1526   2   1   23.837000   39.591000  42.212000
1527   2   1   27.933000   35.29000  40.161000
1528   2   1   27.954000   35.304000  41.732000
1529   2   1   24.232000   22.505000  40.088000
1530   2   1   23.205000   23.594000  39.639000
1531   2   1   23.823000   21.09000  39.517000
1532   2   1   23.241000   23.53000  42.273000
1533   2   1   23.867000   20.997000  42.112000
1534   2   1   15.641000   29.623000  40.263000
1535   2   1   15.623000   29.606000  41.838000
1536   2   1   20.145000   26.79000  39.762000
1537   2   1   20.553000   28.199000  40.309000
1538   2   1   18.712000   26.429000  40.277000
1539   2   1   20.148000   26.751000  42.386000
1540   2   1   18.707000   26.407000  41.85000
1541   2   1   11.542000   33.9000  39.608000
1542   2   1   11.485000   33.885000  42.247000
1543   2   1   20.774000   24.256000  42.332000
1544   2   1   26.908000   36.357000  39.629000
1545   2   1   27.339000   37.796000  40.105000
1546   2   1   25.472000   36.008000  40.182000
1547   2   1   26.949000   36.402000  42.223000
1548   2   1   25.49000   36.029000  41.742000
1549   2   1   27.526000   33.883000  42.304000
1550   2   1   29.936000   33.13000  39.613000
1551   2   1   30.552000   30.669000  39.598000
1552   2   1   29.977000   33.135000  42.266000
1553   2   1   30.598000   30.645000  42.249000
1554   2   1   22.38000   39.214000  40.118000
1555   2   1   22.395000   39.251000  41.686000
1556   2   1   14.626000   30.691000  39.709000
1557   2   1   15.023000   32.099000  40.26000
1558   2   1   13.174000   30.343000  40.17000
1559   2   1   14.582000   30.665000  42.345000
1560   2   1   13.142000   30.328000  41.733000
1561   2   1   22.396000   20.724000  40.06000
1562   2   1   22.414000   20.678000  41.632000
1563   2   1   15.205000   28.181000  42.337000
1564   2   1   17.696000   27.5000  39.754000
1565   2   1   18.307000   25.024000  39.713000
1566   2   1   17.672000   27.466000  42.387000
1567   2   1   18.293000   24.978000  42.345000
1568   2   1   32.253000   27.115000  40.019000
1569   2   1   32.288000   27.084000  41.601000
1570   2   1   24.433000   37.061000  39.64000
1571   2   1   25.046000   34.58000  39.709000
1572   2   1   24.466000   37.121000  42.216000
1573   2   1   25.071000   34.605000  42.337000
1574   2   1   21.342000   40.243000  39.556000
1575   2   1   19.9000   39.952000  40.138000
1576   2   1   21.359000   40.301000  42.233000
1577   2   1   19.906000   39.98000  41.709000
1578   2   1   29.135000   30.311000  40.174000
1579   2   1   29.155000   30.295000  41.752000
1580   2   1   21.99000   37.835000  42.228000
1581   2   1   24.443000   18.584000  39.385000
1582   2   1   24.485000   18.478000  42.022000
1583   2   1   17.483000   22.185000  40.14000
1584   2   1   17.476000   22.159000  41.72000
1585   2   1   16.868000   24.659000  40.207000
1586   2   1   16.855000   24.637000  41.782000
1587   2   1   9.6000   32.122000  42.162000
1588   2   1   21.401000   21.758000  42.235000
1589   2   1   19.95000   21.438000  41.707000
1590   2   1   12.149000   31.41000  39.619000
1591   2   1   12.791000   28.929000  39.608000
1592   2   1   22.004000   19.233000  42.112000
1593   2   1   28.097000   31.377000  39.682000
1594   2   1   28.517000   32.793000  40.191000
1595   2   1   26.679000   31.028000  40.246000
1596   2   1   28.136000   31.367000  42.31000
1597   2   1   26.696000   31.02000  41.817000
1598   2   1   18.845000   41.006000  39.597000
1599   2   1   19.495000   38.508000  39.663000
1600   2   1   18.852000   41.048000  42.237000
1601   2   1   19.506000   38.554000  42.258000
1602   2   1   28.769000   28.859000  42.271000
1603   2   1   31.207000   28.197000  39.545000
1604   2   1   31.823000   25.699000  39.46000
1605   2   1   31.261000   28.15000  42.183000
1606   2   1   31.886000   25.64000  42.101000
1607   2   1   23.617000   34.234000  40.268000
1608   2   1   23.628000   34.243000  41.841000
1609   2   1   15.82000   25.693000  42.311000
1610   2   1   14.385000   25.34000  41.698000
1611   2   1   16.43000   23.209000  42.26000
1612   2   1   19.941000   21.47000  40.128000
1613   2   1   18.92000   22.552000  39.641000
1614   2   1   19.523000   20.076000  39.534000
1615   2   1   18.919000   22.495000  42.274000
1616   2   1   19.535000   20.007000  42.186000
1617   2   1   25.652000   32.097000  39.737000
1618   2   1   26.267000   29.614000  39.72000
1619   2   1   25.682000   32.1000  42.362000
1620   2   1   26.303000   29.589000  42.346000
1621   2   1   11.337000   28.567000  40.062000
1622   2   1   12.713000   28.894000  42.191000
1623   2   1   11.288000   28.547000  41.631000
1624   2   1   21.784000   23.228000  40.183000
1625   2   1   21.798000   23.196000  41.757000
1626   2   1   18.063000   38.155000  40.205000
1627   2   1   18.067000   38.17000  41.777000
1628   2   1   22.587000   35.289000  39.726000
1629   2   1   22.999000   36.718000  40.193000
1630   2   1   21.159000   34.946000  40.28000
1631   2   1   22.607000   35.318000  42.356000
1632   2   1   21.167000   34.954000  41.854000
1633   2   1   30.395000   25.335000  40.014000
1634   2   1   30.433000   25.298000  41.584000
1635   2   1   23.224000   32.821000  42.396000
1636   2   1   10.348000   29.633000  39.491000
1637   2   1   10.685000   31.054000  40.078000
1638   2   1   10.266000   29.606000  42.17000
1639   2   1   18.103000   19.735000  40.075000
1640   2   1   18.103000   19.706000  41.631000
1641   2   1   10.891000   27.125000  42.151000
1642   2   1   23.002000   18.219000  39.931000
1643   2   1   14.414000   25.365000  40.135000
1644   2   1   13.411000   26.447000  39.59000
1645   2   1   14.002000   23.953000  39.565000
1646   2   1   13.336000   26.404000  42.174000
1647   2   1   13.944000   23.901000  42.165000
1648   2   1   29.356000   26.424000  39.557000
1649   2   1   29.779000   27.831000  40.11000
1650   2   1   27.924000   26.067000  40.111000
1651   2   1   29.417000   26.363000  42.154000
1652   2   1   27.953000   26.031000  41.672000
1653   2   1   20.129000   36.005000  39.732000
1654   2   1   20.752000   33.52000  39.781000
1655   2   1   20.143000   36.029000  42.363000
1656   2   1   20.761000   33.533000  42.409000
1657   2   1   29.99000   23.882000  42.1000
1658   2   1   17.019000   39.208000  39.651000
1659   2   1   15.618000   38.796000  40.208000
1660   2   1   17.023000   39.238000  42.289000
1661   2   1   15.619000   38.804000  41.76000
1662   2   1   24.861000   29.242000  41.845000
1663   2   1   17.682000   36.733000  42.351000
1664   2   1   17.08000   20.784000  39.547000
1665   2   1   15.657000   20.431000  40.064000
1666   2   1   17.063000   20.728000  42.199000
1667   2   1   15.643000   20.406000  41.616000
1668   2   1   26.07000   24.294000  40.101000
1669   2   1   26.098000   24.252000  41.659000
1670   2   1   26.884000   27.14000  39.657000
1671   2   1   27.492000   24.665000  39.547000
1672   2   1   26.926000   27.089000  42.287000
1673   2   1   27.555000   24.584000  42.127000
1674   2   1   12.508000   23.564000  41.597000
1675   2   1   23.816000   30.328000  39.771000
1676   2   1   24.229000   31.746000  40.291000
1677   2   1   22.391000   29.972000  40.312000
1678   2   1   23.841000   30.314000  42.391000
1679   2   1   22.4000   29.962000  41.88000
1680   2   1   11.509000   24.65000  42.138000
1681   2   1   14.608000   21.462000  39.514000
1682   2   1   14.568000   21.411000  42.152000
1683   2   1   18.302000   34.226000  39.772000
1684   2   1   18.703000   35.654000  40.276000
1685   2   1   16.87000   33.868000  40.292000
1686   2   1   16.863000   33.865000  41.865000
1687   2   1   10.975000   27.167000  39.471000
1688   2   1   11.957000   26.093000  40.045000
1689   2   1   20.555000   28.181000  41.877000
1690   2   1   25.039000   25.372000  39.654000
1691   2   1   23.621000   25.0000  40.209000
1692   2   1   23.638000   24.97000  41.784000
1693   2   1   30.344000   34.524000  40.143000
1694   2   1   30.364000   34.531000  41.695000
1695   2   1   27.367000   37.824000  41.675000
1696   2   1   15.006000   32.086000  41.835000
1697   2   1   19.531000   29.268000  39.792000
1698   2   1   18.097000   28.91000  40.306000
1699   2   1   18.087000   28.894000  41.878000
1700   2   1   26.272000   38.815000  39.533000
1701   2   1   24.851000   38.5000  40.106000
1702   2   1   24.873000   38.536000  41.674000
1703   2   1   21.373000   21.825000  39.603000
1704   2   1   12.079000   31.39000  42.217000
1705   2   1   14.007000   33.161000  39.7000
1706   2   1   12.549000   32.822000  40.171000
1707   2   1   12.521000   32.812000  41.743000
1708   2   1   26.267000   20.424000  39.386000
1709   2   1   24.866000   19.994000  39.963000
1710   2   1   24.893000   19.934000  41.533000
1711   2   1   31.569000   29.612000  40.111000
1712   2   1   31.593000   29.59000  41.663000
1713   2   1   28.534000   32.794000  41.769000
1714   2   1   16.257000   27.14000  40.245000
1715   2   1   16.241000   27.121000  41.821000
1716   2   1   25.652000   22.887000  39.534000
1717   2   1   20.759000   24.311000  39.701000
1718   2   1   19.328000   23.951000  40.22000
1719   2   1   19.329000   23.924000  41.795000
1720   2   1   27.495000   33.864000  39.676000
1721   2   1   26.071000   33.519000  40.241000
1722   2   1   26.084000   33.525000  41.813000
1723   2   1   23.014000   36.742000  41.751000
1724   2   1   15.249000   28.214000  39.699000
1725   2   1   13.806000   27.857000  40.157000
1726   2   1   13.772000   27.837000  41.716000
1727   2   1   23.023000   18.161000  41.512000
1728   2   1   10.642000   31.042000  41.649000
1729   2   1   21.964000   37.777000  39.651000
1730   2   1   20.529000   37.44000  40.205000
1731   2   1   20.538000   37.461000  41.766000
1732   2   1   29.807000   27.803000  41.681000
1733   2   1   9.672000   32.138000  39.522000
1734   2   1   20.551000   18.974000  41.589000
1735   2   1   11.581000   24.704000  39.456000
1736   2   1   28.727000   28.899000  39.643000
1737   2   1   27.303000   28.543000  40.207000
1738   2   1   27.322000   28.521000  41.779000
1739   2   1   24.241000   31.745000  41.861000
1740   2   1   16.46000   23.253000  39.627000
1741   2   1   15.012000   22.875000  40.097000
1742   2   1   14.992000   22.848000  41.67000
1743   2   1   20.538000   19.014000  40.036000
1744   2   1   11.912000   26.065000  41.614000
1745   2   1   18.707000   35.66000  41.849000
1746   2   1   23.203000   32.81000  39.769000
1747   2   1   21.777000   32.459000  40.314000
1748   2   1   21.784000   32.46000  41.885000
1749   2   1   15.858000   25.731000  39.674000
1750   2   1   29.922000   23.956000  39.42000
1751   2   1   28.526000   23.578000  39.993000
1752   2   1   28.566000   23.529000  41.561000
1753   2   1   21.97000   19.321000  39.475000
1754   2   1   17.678000   36.713000  39.721000
1755   2   1   13.788000   37.028000  44.459000
1756   2   1   11.926000   35.248000  44.423000
1757   2   1   9.981000   33.524000  44.27000
1758   2   1   34.829000   26.255000  44.145000
1759   2   1   33.782000   27.32000  43.682000
1760   2   1   34.397000   24.854000  43.636000
1761   2   1   32.978000   24.565000  44.216000
1762   2   1   37.307000   25.523000  44.065000
1763   2   1   36.254000   26.588000  43.599000
1764   2   1   36.831000   24.154000  43.529000
1765   2   1   35.441000   23.792000  44.154000
1766   2   1   31.807000   38.841000  44.227000
1767   2   1   30.794000   39.915000  43.746000
1768   2   1   31.305000   37.452000  43.744000
1769   2   1   29.375000   39.567000  44.323000
1770   2   1   33.742000   40.557000  44.162000
1771   2   1   32.699000   41.585000  43.654000
1772   2   1   33.247000   39.156000  43.673000
1773   2   1   31.288000   41.302000  44.287000
1774   2   1   16.76000   43.233000  44.307000
1775   2   1   19.185000   42.496000  44.378000
1776   2   1   18.193000   43.564000  43.815000
1777   2   1   16.407000   41.794000  43.817000
1778   2   1   16.144000   45.76000  44.276000
1779   2   1   18.571000   44.972000  44.371000
1780   2   1   17.578000   46.009000  43.756000
1781   2   1   15.749000   44.32000  43.776000
1782   2   1   8.944000   34.575000  43.738000
1783   2   1   7.491000   34.277000  44.203000
1784   2   1   8.101000   31.831000  44.271000
1785   2   1   7.079000   32.871000  43.696000
1786   2   1   6.495000   35.353000  43.658000
1787   2   1   5.034000   35.06000  44.133000
1788   2   1   5.628000   32.578000  44.22000
1789   2   1   4.664000   33.656000  43.596000
1790   2   1   10.168000   20.336000  43.614000
1791   2   1   11.174000   19.256000  44.095000
1792   2   1   10.629000   21.7000  44.21000
1793   2   1   12.61000   19.632000  43.625000
1794   2   1   8.354000   18.59000  43.505000
1795   2   1   9.324000   17.494000  44.015000
1796   2   1   8.736000   19.964000  44.146000
1797   2   1   10.754000   17.868000  43.53000
1798   2   1   25.112000   15.871000  43.507000
1799   2   1   23.682000   15.522000  44.002000
1800   2   1   25.49000   17.276000  44.111000
1801   2   1   22.694000   16.65000  43.56000
1802   2   1   25.615000   13.362000  43.354000
1803   2   1   24.206000   12.979000  43.87000
1804   2   1   26.084000   14.724000  44.004000
1805   2   1   23.242000   14.132000  43.425000
1806   2   1   21.383000   31.024000  43.983000
1807   2   1   19.943000   30.658000  44.514000
1808   2   1   24.484000   27.787000  43.942000
1809   2   1   25.527000   26.696000  44.456000
1810   2   1   24.883000   29.223000  44.472000
1811   2   1   23.042000   27.438000  44.48000
1812   2   1   16.231000   36.377000  44.414000
1813   2   1   15.201000   37.424000  43.906000
1814   2   1   15.821000   34.929000  43.943000
1815   2   1   29.87000   37.097000  44.276000
1816   2   1   12.051000   22.104000  43.673000
1817   2   1   13.074000   21.022000  44.178000
1818   2   1   12.461000   23.52000  44.2000
1819   2   1   22.005000   28.517000  43.967000
1820   2   1   22.641000   26.005000  43.94000
1821   2   1   14.355000   34.569000  44.405000
1822   2   1   18.91000   31.731000  43.99000
1823   2   1   19.328000   33.161000  44.517000
1824   2   1   17.465000   31.362000  44.517000
1825   2   1   28.185000   22.065000  43.626000
1826   2   1   26.773000   21.673000  44.14000
1827   2   1   28.854000   38.185000  43.77000
1828   2   1   29.427000   35.664000  43.806000
1829   2   1   13.345000   35.634000  43.894000
1830   2   1   21.194000   25.657000  44.471000
1831   2   1   16.427000   32.429000  43.976000
1832   2   1   17.038000   29.937000  43.985000
1833   2   1   31.0000   32.052000  44.388000
1834   2   1   17.423000   40.703000  44.333000
1835   2   1   23.852000   39.616000  43.762000
1836   2   1   27.979000   35.353000  44.316000
1837   2   1   24.343000   22.346000  44.167000
1838   2   1   23.275000   23.486000  43.862000
1839   2   1   23.897000   20.942000  43.663000
1840   2   1   15.578000   29.571000  44.512000
1841   2   1   20.153000   26.734000  43.959000
1842   2   1   20.565000   28.159000  44.499000
1843   2   1   18.706000   26.377000  44.486000
1844   2   1   11.45000   33.873000  43.82000
1845   2   1   26.972000   36.431000  43.773000
1846   2   1   27.397000   37.859000  44.273000
1847   2   1   25.527000   36.126000  44.254000
1848   2   1   30.008000   33.141000  43.841000
1849   2   1   30.634000   30.633000  43.824000
1850   2   1   22.417000   39.287000  44.279000
1851   2   1   14.544000   30.644000  43.935000
1852   2   1   14.97000   32.059000  44.498000
1853   2   1   13.03000   30.283000  44.254000
1854   2   1   22.471000   20.595000  44.216000
1855   2   1   17.659000   27.447000  43.969000
1856   2   1   18.287000   24.956000  43.927000
1857   2   1   32.335000   27.022000  44.21000
1858   2   1   24.486000   37.159000  43.749000
1859   2   1   25.087000   34.635000  43.923000
1860   2   1   21.369000   40.322000  43.784000
1861   2   1   19.922000   40.01000  44.308000
1862   2   1   29.213000   30.275000  44.338000
1863   2   1   24.516000   18.423000  43.601000
1864   2   1   17.453000   22.089000  44.31000
1865   2   1   16.828000   24.6000  44.448000
1866   2   1   12.036000   31.376000  43.768000
1867   2   1   12.665000   28.873000  43.727000
1868   2   1   28.162000   31.364000  43.883000
1869   2   1   28.584000   32.806000  44.355000
1870   2   1   26.724000   31.012000  44.445000
1871   2   1   18.863000   41.066000  43.817000
1872   2   1   19.515000   38.581000  43.808000
1873   2   1   31.291000   28.119000  43.756000
1874   2   1   31.916000   25.602000  43.682000
1875   2   1   23.65000   34.274000  44.503000
1876   2   1   19.962000   21.356000  44.298000
1877   2   1   18.919000   22.459000  43.852000
1878   2   1   19.541000   19.956000  43.763000
1879   2   1   25.695000   32.103000  43.937000
1880   2   1   26.321000   29.574000  43.921000
1881   2   1   11.231000   28.516000  44.228000
1882   2   1   21.836000   23.143000  44.42000
1883   2   1   18.092000   38.211000  44.362000
1884   2   1   22.624000   35.35000  43.944000
1885   2   1   23.055000   36.842000  44.261000
1886   2   1   21.188000   34.983000  44.517000
1887   2   1   30.479000   25.24000  44.186000
1888   2   1   10.232000   29.591000  43.721000
1889   2   1   10.583000   31.02000  44.249000
1890   2   1   18.101000   19.643000  44.315000
1891   2   1   23.072000   18.071000  44.118000
1892   2   1   14.278000   25.295000  44.221000
1893   2   1   13.291000   26.38000  43.711000
1894   2   1   13.91000   23.872000  43.717000
1895   2   1   29.453000   26.325000  43.705000
1896   2   1   29.857000   27.736000  44.264000
1897   2   1   28.034000   25.924000  44.187000
1898   2   1   20.157000   36.056000  43.95000
1899   2   1   20.77000   33.539000  43.988000
1900   2   1   17.029000   39.255000  43.862000
1901   2   1   15.634000   38.823000  44.451000
1902   2   1   17.05000   20.684000  43.775000
1903   2   1   15.607000   20.366000  44.304000
1904   2   1   26.186000   24.138000  44.174000
1905   2   1   26.96000   27.051000  43.873000
1906   2   1   27.592000   24.534000  43.66000
1907   2   1   23.851000   30.306000  43.961000
1908   2   1   24.259000   31.739000  44.487000
1909   2   1   22.414000   29.946000  44.499000
1910   2   1   14.542000   21.381000  43.726000
1911   2   1   18.3000   34.236000  43.979000
1912   2   1   18.721000   35.676000  44.504000
1913   2   1   16.853000   33.858000  44.502000
1914   2   1   10.857000   27.104000  43.702000
1915   2   1   11.858000   26.029000  44.212000
1916   2   1   25.118000   25.269000  43.877000
1917   2   1   23.687000   24.914000  44.453000
1918   2   1   30.384000   34.555000  44.387000
1919   2   1   19.527000   29.232000  43.982000
1920   2   1   18.082000   28.87000  44.51000
1921   2   1   26.333000   38.894000  43.759000
1922   2   1   24.897000   38.575000  44.266000
1923   2   1   21.421000   21.716000  43.818000
1924   2   1   13.938000   33.132000  43.916000
1925   2   1   12.453000   32.778000  44.33000
1926   2   1   26.348000   20.276000  43.612000
1927   2   1   24.935000   19.85000  44.13000
1928   2   1   31.63000   29.541000  44.351000
1929   2   1   16.198000   27.085000  44.497000
1930   2   1   25.748000   22.743000  43.649000
1931   2   1   20.787000   24.23000  43.913000
1932   2   1   19.335000   23.881000  44.436000
1933   2   1   27.545000   33.897000  43.883000
1934   2   1   26.105000   33.546000  44.462000
1935   2   1   15.165000   28.157000  43.929000
1936   2   1   13.657000   27.791000  44.236000
1937   2   1   22.007000   37.872000  43.761000
1938   2   1   20.579000   37.551000  44.28000
1939   2   1   9.561000   32.105000  43.742000
1940   2   1   11.48000   24.625000  43.689000
1941   2   1   28.798000   28.836000  43.849000
1942   2   1   27.359000   28.482000  44.43000
1943   2   1   16.411000   23.18000  43.844000
1944   2   1   14.931000   22.808000  44.256000
1945   2   1   20.589000   18.905000  44.276000
1946   2   1   23.234000   32.829000  43.973000
1947   2   1   21.796000   32.455000  44.51000
1948   2   1   15.786000   25.668000  43.902000
1949   2   1   30.018000   23.846000  43.65000
1950   2   1   28.61000   23.462000  44.157000
1951   2   1   22.028000   19.182000  43.685000
1952   2   1   17.685000   36.746000  43.932000
1953   2   1   12.058000   35.268000  37.479000
1954   2   1   10.16000   33.558000  37.466000
1955   2   1   13.862000   37.0000  37.513000
1956   2   1   34.656000   26.413000  37.309000
1957   2   1   33.642000   27.448000  37.878000
1958   2   1   34.247000   24.992000  37.772000
1959   2   1   32.805000   24.72000  37.251000
1960   2   1   37.123000   25.687000  37.212000
1961   2   1   36.104000   26.726000  37.794000
1962   2   1   36.674000   24.298000  37.709000
1963   2   1   35.254000   23.96000  37.148000
1964   2   1   31.649000   38.744000  37.386000
1965   2   1   30.656000   39.83000  37.88000
1966   2   1   31.19000   37.374000  37.938000
1967   2   1   29.225000   39.464000  37.367000
1968   2   1   33.554000   40.449000  37.297000
1969   2   1   32.54000   41.493000  37.827000
1970   2   1   33.103000   39.069000  37.86000
1971   2   1   31.105000   41.2000  37.277000
1972   2   1   16.751000   43.143000  37.471000
1973   2   1   19.173000   42.392000  37.412000
1974   2   1   18.187000   43.485000  37.947000
1975   2   1   16.398000   41.72000  38.013000
1976   2   1   16.141000   45.681000  37.42000
1977   2   1   18.568000   44.88000  37.351000
1978   2   1   17.574000   45.941000  37.932000
1979   2   1   15.742000   44.253000  37.966000
1980   2   1   9.095000   34.603000  37.933000
1981   2   1   7.677000   34.309000  37.365000
1982   2   1   7.236000   32.898000  37.833000
1983   2   1   8.295000   31.864000  37.317000
1984   2   1   6.648000   35.385000  37.849000
1985   2   1   5.217000   35.097000  37.274000
1986   2   1   4.815000   33.687000  37.774000
1987   2   1   5.816000   32.607000  37.216000
1988   2   1   10.266000   20.469000  37.748000
1989   2   1   11.289000   19.409000  37.258000
1990   2   1   10.764000   21.859000  37.246000
1991   2   1   12.706000   19.757000  37.82000
1992   2   1   8.429000   18.711000  37.682000
1993   2   1   9.409000   17.638000  37.154000
1994   2   1   8.848000   20.124000  37.139000
1995   2   1   10.833000   17.991000  37.721000
1996   2   1   25.022000   16.133000  37.652000
1997   2   1   22.607000   16.888000  37.759000
1998   2   1   25.384000   17.575000  37.166000
1999   2   1   23.579000   15.827000  37.173000
2000   2   1   25.528000   13.644000  37.536000
2001   2   1   23.154000   14.397000  37.622000
2002   2   1   25.981000   15.057000  37.013000
2003   2   1   24.109000   13.31000  37.021000
2004   2   1   21.361000   31.042000  38.228000
2005   2   1   19.941000   30.692000  37.721000
2006   2   1   24.406000   27.874000  38.167000
2007   2   1   22.978000   27.53000  37.674000
2008   2   1   16.278000   36.316000  37.637000
2009   2   1   15.244000   37.379000  38.093000
2010   2   1   15.875000   34.914000  38.167000
2011   2   1   25.41000   26.833000  37.609000
2012   2   1   25.008000   25.414000  38.087000
2013   2   1   29.746000   37.004000  37.473000
2014   2   1   12.167000   22.229000  37.869000
2015   2   1   13.202000   21.17000  37.374000
2016   2   1   21.971000   28.577000  38.211000
2017   2   1   22.577000   26.113000  38.161000
2018   2   1   14.467000   34.559000  37.625000
2019   2   1   18.925000   31.748000  38.227000
2020   2   1   17.512000   31.398000  37.703000
2021   2   1   28.04000   22.263000  37.844000
2022   2   1   26.611000   21.917000  37.366000
2023   2   1   19.537000   29.283000  38.224000
2024   2   1   26.242000   38.77000  37.98000
2025   2   1   19.328000   33.153000  37.709000
2026   2   1   18.31000   34.215000  38.203000
2027   2   1   28.746000   38.095000  37.971000
2028   2   1   29.33000   35.602000  38.02000
2029   2   1   13.437000   35.625000  38.08000
2030   2   1   21.155000   25.772000  37.657000
2031   2   1   14.04000   33.161000  38.132000
2032   2   1   25.613000   22.946000  37.966000
2033   2   1   24.18000   22.598000  37.492000
2034   2   1   16.488000   32.453000  38.196000
2035   2   1   17.104000   29.99000  38.202000
2036   2   1   26.227000   20.493000  37.833000
2037   2   1   30.872000   32.073000  37.446000
2038   2   1   17.409000   40.609000  37.534000
2039   2   1   23.783000   39.472000  37.982000
2040   2   1   27.878000   35.255000  37.563000
2041   2   1   23.182000   23.643000  38.071000
2042   2   1   23.796000   21.153000  37.948000
2043   2   1   15.696000   29.649000  37.653000
2044   2   1   20.146000   26.818000  38.193000
2045   2   1   18.731000   26.476000  37.669000
2046   2   1   11.581000   33.896000  38.033000
2047   2   1   20.753000   24.352000  38.132000
2048   2   1   26.877000   36.328000  38.059000
2049   2   1   25.432000   35.956000  37.588000
2050   2   1   27.464000   33.852000  38.109000
2051   2   1   29.9000   33.128000  38.031000
2052   2   1   30.514000   30.679000  38.015000
2053   2   1   22.344000   39.125000  37.509000
2054   2   1   14.662000   30.702000  38.141000
2055   2   1   13.252000   30.368000  37.573000
2056   2   1   22.365000   20.825000  37.463000
2057   2   1   15.285000   28.235000  38.131000
2058   2   1   17.715000   27.524000  38.185000
2059   2   1   18.319000   25.058000  38.144000
2060   2   1   32.179000   27.164000  37.407000
2061   2   1   24.409000   37.021000  38.071000
2062   2   1   25.023000   34.559000  38.141000
2063   2   1   21.329000   40.196000  38.003000
2064   2   1   19.88000   39.884000  37.53000
2065   2   1   29.069000   30.33000  37.568000
2066   2   1   21.949000   37.735000  38.082000
2067   2   1   24.422000   18.654000  37.805000
2068   2   1   17.508000   22.262000  37.533000
2069   2   1   16.907000   24.715000  37.598000
2070   2   1   9.719000   32.138000  37.941000
2071   2   1   21.361000   21.878000  38.035000
2072   2   1   19.936000   21.559000  37.52000
2073   2   1   21.958000   19.383000  37.901000
2074   2   1   28.063000   31.381000  38.115000
2075   2   1   26.63000   31.035000  37.64000
2076   2   1   18.849000   40.977000  38.016000
2077   2   1   19.492000   38.475000  38.093000
2078   2   1   28.689000   28.919000  38.075000
2079   2   1   31.165000   28.22000  37.971000
2080   2   1   31.777000   25.732000  37.879000
2081   2   1   23.588000   34.2000  37.662000
2082   2   1   15.888000   25.762000  38.106000
2083   2   1   14.483000   25.416000  37.537000
2084   2   1   16.481000   23.293000  38.059000
2085   2   1   18.924000   22.597000  38.073000
2086   2   1   19.522000   20.128000  37.952000
2087   2   1   25.626000   32.093000  38.169000
2088   2   1   26.237000   29.628000  38.152000
2089   2   1   12.844000   28.949000  38.038000
2090   2   1   11.447000   28.609000  37.449000
2091   2   1   21.758000   23.307000  37.575000
2092   2   1   18.069000   38.109000  37.609000
2093   2   1   22.572000   35.264000  38.158000
2094   2   1   21.143000   34.909000  37.674000
2095   2   1   30.317000   25.416000  37.402000
2096   2   1   23.187000   32.8000  38.201000
2097   2   1   10.409000   29.65000  37.938000
2098   2   1   18.115000   19.826000  37.376000
2099   2   1   11.039000   27.194000  37.916000
2100   2   1   13.461000   26.477000  38.021000
2101   2   1   14.04000   23.99000  37.995000
2102   2   1   29.312000   26.46000  37.988000
2103   2   1   27.858000   26.136000  37.515000
2104   2   1   20.125000   35.981000  38.164000
2105   2   1   20.747000   33.508000  38.213000
2106   2   1   29.871000   24.008000  37.867000
2107   2   1   17.028000   39.186000  38.076000
2108   2   1   15.647000   38.755000  37.509000
2109   2   1   24.804000   29.285000  37.669000
2110   2   1   17.686000   36.693000  38.152000
2111   2   1   17.092000   20.83000  37.964000
2112   2   1   15.692000   20.516000  37.368000
2113   2   1   26.007000   24.379000  37.506000
2114   2   1   26.849000   27.172000  38.089000
2115   2   1   27.448000   24.715000  37.978000
2116   2   1   12.627000   23.655000  37.413000
2117   2   1   23.797000   30.336000  38.203000
2118   2   1   22.372000   29.988000  37.708000
2119   2   1   11.636000   24.739000  37.903000
2120   2   1   14.633000   21.505000  37.939000
2121   2   1   16.898000   33.855000  37.683000
2122   2   1   20.55000   28.232000  37.704000
2123   2   1   23.579000   25.071000  37.601000
2124   2   1   30.274000   34.507000  37.444000
2125   2   1   27.29000   37.729000  37.496000
2126   2   1   15.076000   32.108000  37.651000
2127   2   1   18.124000   28.937000  37.698000
2128   2   1   24.808000   38.41000  37.497000
2129   2   1   12.196000   31.419000  38.049000
2130   2   1   12.621000   32.826000  37.572000
2131   2   1   24.804000   20.109000  37.355000
2132   2   1   31.492000   29.637000  37.415000
2133   2   1   28.456000   32.782000  37.584000
2134   2   1   16.308000   27.181000  37.635000
2135   2   1   19.334000   24.018000  37.611000
2136   2   1   26.028000   33.495000  37.635000
2137   2   1   22.969000   36.658000  37.6000
2138   2   1   13.885000   27.897000  37.558000
2139   2   1   22.973000   18.337000  37.32000
2140   2   1   10.781000   31.079000  37.468000
2141   2   1   20.512000   37.385000  37.61000
2142   2   1   29.709000   27.877000  37.513000
2143   2   1   20.528000   19.119000  37.341000
2144   2   1   27.246000   28.583000  37.601000
2145   2   1   24.196000   31.742000  37.685000
2146   2   1   15.064000   22.942000  37.499000
2147   2   1   12.064000   26.144000  37.431000
2148   2   1   18.706000   35.621000  37.669000
2149   2   1   21.761000   32.447000  37.708000
2150   2   1   28.442000   23.682000  37.381000
2151   2   1   17.06000   24.675000  57.295000
2152   2   1   18.47000   25.0000  56.736000
2153   2   1   19.51000   23.983000  57.263000
2154   2   1   20.917000   24.308000  56.713000
2155   2   1   18.869000   26.397000  57.297000
2156   2   1   21.959000   23.291000  57.248000
2157   2   1   21.321000   25.703000  57.273000
2158   2   1   22.739000   26.054000  56.726000
2159   2   1   20.692000   28.159000  57.282000
2160   2   1   23.777000   24.996000  57.258000
2161   2   1   25.167000   25.368000  56.678000
2162   2   1   23.14000   27.462000  57.261000
2163   2   1   25.587000   26.756000  57.234000
2164   2   1   23.349000   23.619000  56.681000
2165   2   1   26.966000   27.137000  56.636000
2166   2   1   20.288000   26.754000  56.745000
2167   2   1   22.108000   28.515000  56.729000
2168   2   1   24.549000   27.815000  56.705000
2169   2   1   15.409000   28.131000  56.774000
2170   2   1   16.407000   27.081000  57.33000
2171   2   1   15.791000   29.529000  57.331000
2172   2   1   17.217000   29.891000  56.776000
2173   2   1   18.242000   28.848000  57.309000
2174   2   1   19.662000   29.208000  56.753000
2175   2   1   17.63000   31.303000  57.299000
2176   2   1   15.222000   31.954000  57.297000
2177   2   1   17.045000   33.729000  57.266000
2178   2   1   18.438000   34.11000  56.72000
2179   2   1   20.069000   30.62000  57.284000
2180   2   1   19.456000   33.077000  57.277000
2181   2   1   18.871000   35.498000  57.251000
2182   2   1   16.037000   25.689000  56.752000
2183   2   1   17.835000   27.443000  56.774000
2184   2   1   14.806000   30.577000  56.756000
2185   2   1   16.616000   32.341000  56.741000
2186   2   1   19.047000   31.663000  56.749000
2187   2   1   22.511000   29.929000  57.26000
2188   2   1   24.946000   29.232000  57.228000
2189   2   1   20.87000   33.443000  56.733000
2190   2   1   21.891000   32.398000  57.264000
2191   2   1   23.299000   32.757000  56.709000
2192   2   1   21.28000   34.866000  57.263000
2193   2   1   26.341000   29.588000  56.646000
2194   2   1   24.321000   31.701000  57.229000
2195   2   1   23.708000   34.183000  57.238000
2196   2   1   27.338000   28.529000  57.175000
2197   2   1   26.714000   30.993000  57.169000
2198   2   1   25.101000   34.503000  56.64000
2199   2   1   26.09000   33.457000  57.177000
2200   2   1   21.484000   30.98000  56.732000
2201   2   1   23.917000   30.285000  56.702000
2202   2   1   20.25000   35.87000  56.691000
2203   2   1   22.679000   35.203000  56.686000
2204   2   1   25.718000   32.051000  56.648000
2205   2   1   17.067000   24.666000  58.84000
2206   2   1   18.481000   24.944000  59.425000
2207   2   1   20.936000   24.251000  59.401000
2208   2   1   21.983000   23.278000  58.793000
2209   2   1   21.338000   25.679000  58.87000
2210   2   1   22.778000   26.035000  59.392000
2211   2   1   20.708000   28.155000  58.867000
2212   2   1   25.225000   25.361000  59.407000
2213   2   1   25.635000   26.758000  58.835000
2214   2   1   23.383000   23.57000  59.42000
2215   2   1   27.063000   27.155000  59.365000
2216   2   1   22.148000   28.519000  59.382000
2217   2   1   23.806000   24.978000  58.861000
2218   2   1   18.876000   26.375000  58.895000
2219   2   1   20.312000   26.732000  59.411000
2220   2   1   19.523000   23.968000  58.804000
2221   2   1   24.615000   27.823000  59.367000
2222   2   1   23.172000   27.458000  58.847000
2223   2   1   15.411000   28.134000  59.506000
2224   2   1   16.407000   27.069000  58.935000
2225   2   1   15.781000   29.543000  58.934000
2226   2   1   17.217000   29.913000  59.441000
2227   2   1   18.245000   28.851000  58.896000
2228   2   1   17.847000   27.428000  59.442000
2229   2   1   19.683000   29.216000  59.406000
2230   2   1   15.219000   31.969000  58.838000
2231   2   1   20.08000   30.636000  58.868000
2232   2   1   18.421000   34.177000  59.397000
2233   2   1   19.455000   33.112000  58.871000
2234   2   1   18.878000   35.528000  58.789000
2235   2   1   16.043000   25.644000  59.495000
2236   2   1   14.782000   30.623000  59.49000
2237   2   1   16.593000   32.399000  59.421000
2238   2   1   17.622000   31.328000  58.895000
2239   2   1   19.054000   31.699000  59.411000
2240   2   1   17.046000   33.752000  58.801000
2241   2   1   25.189000   34.547000  59.361000
2242   2   1   24.999000   29.244000  58.821000
2243   2   1   20.889000   33.487000  59.391000
2244   2   1   21.915000   32.422000  58.848000
2245   2   1   21.519000   31.003000  59.382000
2246   2   1   23.356000   32.791000  59.366000
2247   2   1   26.447000   29.615000  59.322000
2248   2   1   24.371000   31.723000  58.822000
2249   2   1   23.746000   34.211000  58.834000
2250   2   1   27.381000   28.533000  58.715000
2251   2   1   20.246000   35.942000  59.412000
2252   2   1   26.126000   33.48000  58.715000
2253   2   1   25.82000   32.087000  59.321000
2254   2   1   22.542000   29.94000  58.843000
2255   2   1   23.984000   30.307000  59.361000
2256   2   1   21.291000   34.904000  58.859000
2257   2   1   22.718000   35.247000  59.401000
2258   2   1   26.757000   31.007000  58.703000
2259   2   5   13.862000   37.083000  61.955000
2260   2   5   12.029000   35.28000  61.965000
2261   2   5   12.092000   35.244000  63.519000
2262   2   5   10.207000   33.462000  61.947000
2263   2   5   10.26000   33.438000  63.512000
2264   2   5   13.93000   37.04000  63.507000
2265   2   5   21.54000   31.018000  60.953000
2266   2   5   20.104000   30.658000  61.494000
2267   2   5   21.569000   31.024000  63.564000
2268   2   5   20.129000   30.662000  63.058000
2269   2   5   24.654000   27.835000  60.946000
2270   2   5   25.699000   26.781000  61.491000
2271   2   5   25.079000   29.27000  61.462000
2272   2   5   23.213000   27.466000  61.48000
2273   2   5   24.66000   27.858000  63.569000
2274   2   5   23.225000   27.484000  63.047000
2275   2   5   16.311000   36.403000  61.852000
2276   2   5   15.261000   37.473000  61.397000
2277   2   5   15.87000   35.01000  61.329000
2278   2   5   16.383000   36.354000  63.387000
2279   2   5   15.374000   37.405000  63.996000
2280   2   5   16.016000   34.902000  63.847000
2281   2   5   25.694000   26.796000  63.065000
2282   2   5   25.286000   25.382000  63.615000
2283   2   5   29.965000   37.147000  61.699000
2284   2   5   29.938000   37.141000  63.265000
2285   2   5   12.372000   22.015000  61.38000
2286   2   5   13.375000   20.979000  61.983000
2287   2   5   12.743000   23.454000  61.867000
2288   2   5   12.42000   22.106000  64.093000
2289   2   5   13.41000   21.035000  63.548000
2290   2   5   22.172000   28.525000  60.953000
2291   2   5   22.797000   26.026000  60.973000
2292   2   5   22.198000   28.547000  63.566000
2293   2   5   22.825000   26.071000  63.598000
2294   2   5   14.476000   34.615000  61.88000
2295   2   5   14.548000   34.567000  63.416000
2296   2   5   19.057000   31.726000  60.986000
2297   2   5   19.455000   33.162000  61.512000
2298   2   5   17.62000   31.375000  61.538000
2299   2   5   19.108000   31.721000  63.605000
2300   2   5   17.662000   31.365000  63.113000
2301   2   5   28.372000   22.173000  61.075000
2302   2   5   26.958000   21.775000  61.644000
2303   2   5   28.372000   22.222000  63.766000
2304   2   5   26.959000   21.821000  63.221000
2305   2   5   19.739000   29.241000  63.591000
2306   2   5   26.432000   38.851000  63.742000
2307   2   5   19.493000   33.148000  63.086000
2308   2   5   18.479000   34.198000  63.67000
2309   2   5   28.943000   38.165000  61.098000
2310   2   5   29.619000   35.718000  61.202000
2311   2   5   28.903000   38.168000  63.813000
2312   2   5   29.558000   35.713000  63.814000
2313   2   5   13.427000   35.686000  61.425000
2314   2   5   13.535000   35.614000  64.025000
2315   2   5   21.362000   25.649000  61.518000
2316   2   5   21.388000   25.69000  63.094000
2317   2   5   14.182000   33.115000  63.871000
2318   2   5   25.92000   22.902000  63.701000
2319   2   5   24.48000   22.517000  63.194000
2320   2   5   16.562000   32.458000  61.034000
2321   2   5   17.222000   29.933000  61.022000
2322   2   5   16.651000   32.418000  63.698000
2323   2   5   17.281000   29.939000  63.645000
2324   2   5   26.55000   20.434000  63.834000
2325   2   5   31.274000   32.173000  61.774000
2326   2   5   31.225000   32.163000  63.327000
2327   2   5   17.577000   40.64000  61.827000
2328   2   5   17.627000   40.613000  63.393000
2329   2   5   23.953000   39.565000  61.045000
2330   2   5   23.972000   39.535000  63.734000
2331   2   5   28.171000   35.357000  61.678000
2332   2   5   28.132000   35.344000  63.232000
2333   2   5   24.462000   22.465000  61.616000
2334   2   5   23.415000   23.516000  61.025000
2335   2   5   24.043000   20.998000  61.232000
2336   2   5   23.455000   23.596000  63.68000
2337   2   5   24.1000   21.108000  63.816000
2338   2   5   15.792000   29.576000  61.593000
2339   2   5   15.834000   29.577000  63.166000
2340   2   5   20.326000   26.719000  60.988000
2341   2   5   20.738000   28.159000  61.495000
2342   2   5   18.896000   26.345000  61.543000
2343   2   5   20.367000   26.762000  63.611000
2344   2   5   18.927000   26.383000  63.119000
2345   2   5   11.606000   33.879000  61.42000
2346   2   5   11.699000   33.82000  64.03000
2347   2   5   20.996000   24.287000  63.684000
2348   2   5   27.132000   36.403000  61.119000
2349   2   5   27.505000   37.839000  61.62000
2350   2   5   25.663000   36.031000  61.539000
2351   2   5   27.072000   36.392000  63.704000
2352   2   5   25.647000   36.017000  63.117000
2353   2   5   27.704000   33.909000  63.711000
2354   2   5   30.275000   33.239000  61.241000
2355   2   5   30.905000   30.757000  61.243000
2356   2   5   30.194000   33.226000  63.842000
2357   2   5   30.826000   30.738000  63.845000
2358   2   5   22.52000   39.241000  61.611000
2359   2   5   22.54000   39.209000  63.188000
2360   2   5   14.741000   30.658000  61.093000
2361   2   5   15.139000   32.098000  61.641000
2362   2   5   13.315000   30.291000  61.707000
2363   2   5   14.823000   30.636000  63.746000
2364   2   5   13.371000   30.28000  63.284000
2365   2   5   22.626000   20.633000  61.818000
2366   2   5   22.656000   20.704000  63.371000
2367   2   5   15.454000   28.155000  63.716000
2368   2   5   17.859000   27.42000  61.023000
2369   2   5   18.482000   24.887000  61.042000
2370   2   5   17.911000   27.457000  63.648000
2371   2   5   18.541000   24.979000  63.709000
2372   2   5   32.499000   27.176000  61.714000
2373   2   5   32.471000   27.175000  63.28000
2374   2   5   24.619000   37.118000  61.067000
2375   2   5   25.26000   34.6000  60.958000
2376   2   5   24.606000   37.071000  63.649000
2377   2   5   25.235000   34.589000  63.609000
2378   2   5   21.45000   40.267000  61.096000
2379   2   5   20.033000   39.946000  61.697000
2380   2   5   21.517000   40.237000  63.792000
2381   2   5   20.075000   39.92000  63.282000
2382   2   5   29.46000   30.389000  61.724000
2383   2   5   29.403000   30.377000  63.261000
2384   2   5   22.143000   37.766000  63.674000
2385   2   5   24.665000   18.549000  61.255000
2386   2   5   24.724000   18.638000  63.968000
2387   2   5   17.678000   22.002000  61.907000
2388   2   5   17.718000   22.088000  63.443000
2389   2   5   17.059000   24.529000  61.653000
2390   2   5   17.099000   24.595000  63.24000
2391   2   5   9.899000   32.026000  64.064000
2392   2   5   21.633000   21.801000  63.842000
2393   2   5   20.184000   21.392000  63.418000
2394   2   5   12.252000   31.382000  61.314000
2395   2   5   12.885000   28.844000  61.241000
2396   2   5   22.27000   19.298000  63.988000
2397   2   5   28.467000   31.458000  61.198000
2398   2   5   28.83000   32.872000  61.722000
2399   2   5   26.954000   31.07000  61.501000
2400   2   5   28.336000   31.428000  63.719000
2401   2   5   26.909000   31.063000  63.09000
2402   2   5   18.967000   40.978000  61.201000
2403   2   5   19.591000   38.529000  61.197000
2404   2   5   19.056000   40.945000  63.915000
2405   2   5   19.687000   38.475000  63.78000
2406   2   5   28.966000   28.946000  63.717000
2407   2   5   31.513000   28.265000  61.212000
2408   2   5   32.089000   25.792000  61.117000
2409   2   5   31.455000   28.249000  63.824000
2410   2   5   32.052000   25.78000  63.833000
2411   2   5   23.806000   34.238000  61.484000
2412   2   5   23.806000   34.231000  63.057000
2413   2   5   16.084000   25.674000  63.755000
2414   2   5   14.638000   25.292000  63.295000
2415   2   5   16.704000   23.191000  63.892000
2416   2   5   20.144000   21.306000  61.882000
2417   2   5   19.092000   22.317000  61.353000
2418   2   5   19.733000   19.862000  61.437000
2419   2   5   19.168000   22.495000  63.871000
2420   2   5   19.799000   19.991000  64.037000
2421   2   5   25.908000   32.121000  60.931000
2422   2   5   26.537000   29.643000  60.932000
2423   2   5   25.865000   32.115000  63.594000
2424   2   5   26.493000   29.642000  63.596000
2425   2   5   11.469000   28.477000  61.79000
2426   2   5   12.991000   28.851000  63.821000
2427   2   5   11.529000   28.484000  63.367000
2428   2   5   21.983000   23.14000  61.603000
2429   2   5   22.016000   23.209000  63.19000
2430   2   5   18.17000   38.177000  61.782000
2431   2   5   18.226000   38.138000  63.334000
2432   2   5   22.75000   35.303000  60.977000
2433   2   5   23.16000   36.738000  61.536000
2434   2   5   21.303000   34.944000  61.51000
2435   2   5   22.771000   35.282000  63.601000
2436   2   5   21.33000   34.929000  63.083000
2437   2   5   30.669000   25.392000  61.64000
2438   2   5   30.647000   25.397000  63.225000
2439   2   5   23.403000   32.806000  63.564000
2440   2   5   10.464000   29.567000  61.274000
2441   2   5   10.832000   30.985000  61.846000
2442   2   5   10.54000   29.544000  63.971000
2443   2   5   18.317000   19.541000  61.998000
2444   2   5   18.355000   19.62000  63.55000
2445   2   5   11.177000   27.07000  63.944000
2446   2   5   23.28000   18.186000  61.882000
2447   2   5   14.595000   25.248000  61.718000
2448   2   5   13.527000   26.312000  61.247000
2449   2   5   14.18000   23.78000  61.333000
2450   2   5   13.621000   26.37000  63.827000
2451   2   5   14.238000   23.888000  63.916000
2452   2   5   29.656000   26.473000  61.133000
2453   2   5   30.068000   27.891000  61.687000
2454   2   5   28.186000   26.097000  61.553000
2455   2   5   29.596000   26.464000  63.719000
2456   2   5   28.165000   26.109000  63.131000
2457   2   5   20.242000   36.015000  61.01000
2458   2   5   20.898000   33.513000  60.969000
2459   2   5   20.309000   35.979000  63.66000
2460   2   5   20.938000   33.501000  63.59000
2461   2   5   30.208000   23.999000  63.767000
2462   2   5   17.115000   39.244000  61.332000
2463   2   5   15.713000   38.868000  61.907000
2464   2   5   17.215000   39.193000  63.942000
2465   2   5   15.773000   38.83000  63.46000
2466   2   5   25.069000   29.276000  63.037000
2467   2   5   17.851000   36.688000  63.813000
2468   2   5   17.267000   20.558000  61.462000
2469   2   5   15.845000   20.251000  62.005000
2470   2   5   17.327000   20.688000  64.062000
2471   2   5   15.882000   20.322000  63.558000
2472   2   5   26.325000   24.279000  61.555000
2473   2   5   26.32000   24.314000  63.127000
2474   2   5   27.149000   27.156000  60.966000
2475   2   5   27.789000   24.641000  61.087000
2476   2   5   27.121000   27.168000  63.618000
2477   2   5   27.753000   24.689000  63.669000
2478   2   5   12.782000   23.502000  63.451000
2479   2   5   24.027000   30.323000  60.935000
2480   2   5   24.449000   31.753000  61.461000
2481   2   5   22.586000   29.958000  61.468000
2482   2   5   24.033000   30.332000  63.555000
2483   2   5   22.598000   29.966000  63.033000
2484   2   5   11.798000   24.593000  63.986000
2485   2   5   14.804000   21.277000  61.453000
2486   2   5   14.857000   21.388000  64.063000
2487   2   5   18.394000   34.241000  61.008000
2488   2   5   18.803000   35.666000  61.585000
2489   2   5   16.964000   33.888000  61.604000
2490   2   5   17.029000   33.85000  63.192000
2491   2   5   11.1000   27.043000  61.253000
2492   2   5   12.108000   25.962000  61.797000
2493   2   5   20.761000   28.177000  63.06000
2494   2   5   25.279000   25.338000  60.986000
2495   2   5   23.836000   24.966000  61.52000
2496   2   5   23.852000   25.001000  63.095000
2497   2   5   30.629000   34.661000  61.752000
2498   2   5   30.587000   34.652000  63.306000
2499   2   5   27.486000   37.83000  63.205000
2500   2   5   15.201000   32.066000  63.227000
2501   2   5   19.698000   29.224000  60.978000
2502   2   5   18.267000   28.862000  61.53000
2503   2   5   18.298000   28.875000  63.097000
2504   2   5   26.454000   38.857000  61.045000
2505   2   5   25.015000   38.538000  61.585000
2506   2   5   25.012000   38.512000  63.162000
2507   2   5   21.556000   21.635000  61.322000
2508   2   5   12.348000   31.327000  63.898000
2509   2   5   14.048000   33.218000  61.35000
2510   2   5   12.651000   32.803000  61.869000
2511   2   5   12.716000   32.771000  63.421000
2512   2   5   26.507000   20.359000  61.137000
2513   2   5   25.109000   19.968000  61.741000
2514   2   5   25.132000   20.021000  63.325000
2515   2   5   31.895000   29.678000  61.758000
2516   2   5   31.853000   29.671000  63.313000
2517   2   5   28.772000   32.86000  63.259000
2518   2   5   16.431000   27.055000  61.596000
2519   2   5   16.468000   27.084000  63.17000
2520   2   5   25.919000   22.817000  61.119000
2521   2   5   20.943000   24.192000  61.018000
2522   2   5   19.518000   23.825000  61.619000
2523   2   5   19.556000   23.899000  63.208000
2524   2   5   27.826000   33.931000  61.189000
2525   2   5   26.316000   33.547000  61.507000
2526   2   5   26.278000   33.538000  63.094000
2527   2   5   23.17000   36.713000  63.108000
2528   2   5   15.385000   28.13000  61.087000
2529   2   5   13.953000   27.769000  61.682000
2530   2   5   14.005000   27.786000  63.254000
2531   2   5   23.31000   18.244000  63.447000
2532   2   5   10.885000   30.969000  63.431000
2533   2   5   22.107000   37.826000  61.093000
2534   2   5   20.658000   37.442000  61.591000
2535   2   5   20.695000   37.414000  63.168000
2536   2   5   30.027000   27.889000  63.241000
2537   2   5   9.821000   32.071000  61.35000
2538   2   5   20.83000   18.927000  63.508000
2539   2   5   11.743000   24.522000  61.288000
2540   2   5   29.084000   28.978000  61.194000
2541   2   5   27.574000   28.589000  61.512000
2542   2   5   27.536000   28.587000  63.099000
2543   2   5   24.44000   31.753000  63.035000
2544   2   5   16.635000   23.023000  61.371000
2545   2   5   15.209000   22.724000  61.893000
2546   2   5   15.251000   22.792000  63.446000
2547   2   5   20.795000   18.855000  61.955000
2548   2   5   12.161000   25.993000  63.374000
2549   2   5   18.861000   35.63000  63.171000
2550   2   5   23.392000   32.809000  60.944000
2551   2   5   21.949000   32.448000  61.477000
2552   2   5   21.965000   32.447000  63.043000
2553   2   5   16.023000   25.602000  61.1000
2554   2   5   30.232000   23.993000  61.069000
2555   2   5   28.815000   23.586000  61.611000
2556   2   5   28.799000   23.614000  63.188000
2557   2   5   22.208000   19.189000  61.379000
2558   2   5   17.709000   36.784000  61.294000
2559   2   5   14.086000   36.925000  66.193000
2560   2   5   12.245000   35.142000  66.21000
2561   2   5   10.406000   33.365000  66.223000
2562   2   5   21.586000   31.023000  65.13000
2563   2   5   20.174000   30.661000  65.658000
2564   2   5   24.654000   27.873000  65.138000
2565   2   5   25.672000   26.829000  65.674000
2566   2   5   25.042000   29.284000  65.647000
2567   2   5   23.235000   27.521000  65.649000
2568   2   5   16.515000   36.26000  65.945000
2569   2   5   15.456000   37.345000  65.57000
2570   2   5   16.084000   34.859000  65.405000
2571   2   5   29.839000   37.099000  65.979000
2572   2   5   12.473000   22.18000  65.658000
2573   2   5   13.504000   21.185000  66.259000
2574   2   5   12.878000   23.617000  66.071000
2575   2   5   22.211000   28.563000  65.133000
2576   2   5   22.839000   26.105000  65.167000
2577   2   5   14.682000   34.474000  65.974000
2578   2   5   19.144000   31.711000  65.174000
2579   2   5   19.558000   33.113000  65.694000
2580   2   5   17.741000   31.343000  65.722000
2581   2   5   28.361000   22.263000  65.323000
2582   2   5   26.95000   21.92000  65.841000
2583   2   5   28.858000   38.144000  65.38000
2584   2   5   29.499000   35.691000  65.397000
2585   2   5   13.62000   35.556000  65.599000
2586   2   5   21.427000   25.764000  65.704000
2587   2   5   16.702000   32.396000  65.269000
2588   2   5   17.324000   29.94000  65.213000
2589   2   5   31.084000   32.131000  66.016000
2590   2   5   17.741000   40.51000  66.104000
2591   2   5   23.979000   39.501000  65.291000
2592   2   5   28.041000   35.312000  65.81000
2593   2   5   24.507000   22.619000  65.805000
2594   2   5   23.474000   23.646000  65.25000
2595   2   5   24.122000   21.18000  65.386000
2596   2   5   15.922000   29.578000  65.774000
2597   2   5   20.393000   26.795000  65.179000
2598   2   5   20.797000   28.21000  65.66000
2599   2   5   18.984000   26.452000  65.729000
2600   2   5   11.781000   33.775000  65.612000
2601   2   5   27.037000   36.372000  65.275000
2602   2   5   27.42000   37.783000  65.827000
2603   2   5   25.606000   35.985000  65.728000
2604   2   5   30.123000   33.208000  65.418000
2605   2   5   30.754000   30.725000  65.421000
2606   2   5   22.575000   39.133000  65.808000
2607   2   5   14.877000   30.624000  65.316000
2608   2   5   15.303000   32.02000  65.84000
2609   2   5   13.478000   30.255000  65.894000
2610   2   5   22.709000   20.851000  65.947000
2611   2   5   17.948000   27.484000  65.217000
2612   2   5   18.574000   25.03000  65.281000
2613   2   5   32.362000   27.174000  65.994000
2614   2   5   24.599000   37.046000  65.224000
2615   2   5   25.219000   34.578000  65.18000
2616   2   5   21.554000   40.194000  65.349000
2617   2   5   20.158000   39.831000  65.902000
2618   2   5   29.291000   30.355000  65.822000
2619   2   5   24.747000   18.72000  65.533000
2620   2   5   17.791000   22.247000  66.001000
2621   2   5   17.165000   24.698000  65.854000
2622   2   5   12.418000   31.302000  65.468000
2623   2   5   13.051000   28.854000  65.395000
2624   2   5   28.286000   31.418000  65.278000
2625   2   5   28.661000   32.835000  65.819000
2626   2   5   26.845000   31.052000  65.706000
2627   2   5   19.112000   40.893000  65.481000
2628   2   5   19.737000   38.431000  65.35000
2629   2   5   31.392000   28.246000  65.407000
2630   2   5   32.0000   25.785000  65.4000
2631   2   5   23.797000   34.203000  65.664000
2632   2   5   20.254000   21.553000  65.976000
2633   2   5   19.206000   22.574000  65.429000
2634   2   5   19.841000   20.093000  65.611000
2635   2   5   25.842000   32.11000  65.166000
2636   2   5   26.469000   29.642000  65.169000
2637   2   5   11.652000   28.492000  65.986000
2638   2   5   22.064000   23.317000  65.804000
2639   2   5   18.337000   38.049000  65.911000
2640   2   5   22.782000   35.262000  65.171000
2641   2   5   23.183000   36.664000  65.716000
2642   2   5   21.372000   34.887000  65.689000
2643   2   5   30.564000   25.417000  65.848000
2644   2   5   10.609000   29.533000  65.528000
2645   2   5   11.018000   30.927000  66.051000
2646   2   5   18.437000   19.812000  66.236000
2647   2   5   23.36000   18.407000  66.159000
2648   2   5   14.718000   25.379000  65.905000
2649   2   5   13.674000   26.404000  65.401000
2650   2   5   14.287000   23.952000  65.486000
2651   2   5   29.554000   26.471000  65.29000
2652   2   5   29.93000   27.883000  65.821000
2653   2   5   28.112000   26.129000  65.743000
2654   2   5   20.347000   35.952000  65.231000
2655   2   5   20.964000   33.485000  65.158000
2656   2   5   17.284000   39.136000  65.523000
2657   2   5   15.916000   38.718000  66.151000
2658   2   5   17.374000   20.788000  65.635000
2659   2   5   15.968000   20.5000  66.249000
2660   2   5   26.306000   24.376000  65.736000
2661   2   5   27.1000   27.177000  65.19000
2662   2   5   27.734000   24.714000  65.243000
2663   2   5   24.027000   30.334000  65.124000
2664   2   5   24.417000   31.743000  65.644000
2665   2   5   22.609000   29.975000  65.633000
2666   2   5   14.908000   21.476000  65.645000
2667   2   5   18.526000   34.173000  65.241000
2668   2   5   18.949000   35.571000  65.783000
2669   2   5   17.129000   33.792000  65.807000
2670   2   5   11.238000   27.09000  65.5000
2671   2   5   12.271000   26.058000  65.993000
2672   2   5   25.285000   25.413000  65.184000
2673   2   5   23.867000   25.072000  65.703000
2674   2   5   30.459000   34.617000  66.0000
2675   2   5   19.767000   29.252000  65.158000
2676   2   5   18.359000   28.896000  65.699000
2677   2   5   26.409000   38.825000  65.299000
2678   2   5   24.993000   38.45000  65.783000
2679   2   5   21.666000   21.877000  65.402000
2680   2   5   14.25000   33.078000  65.43000
2681   2   5   12.846000   32.7000  65.998000
2682   2   5   26.56000   20.498000  65.391000
2683   2   5   25.16000   20.155000  65.946000
2684   2   5   31.722000   29.65000  66.007000
2685   2   5   16.543000   27.137000  65.778000
2686   2   5   25.923000   22.951000  65.275000
2687   2   5   21.025000   24.339000  65.256000
2688   2   5   19.616000   24.012000  65.824000
2689   2   5   27.659000   33.897000  65.272000
2690   2   5   26.222000   33.52000  65.708000
2691   2   5   15.502000   28.171000  65.285000
2692   2   5   14.101000   27.817000  65.862000
2693   2   5   22.166000   37.732000  65.249000
2694   2   5   20.762000   37.351000  65.778000
2695   2   5   9.977000   31.995000  65.629000
2696   2   5   11.853000   24.643000  65.542000
2697   2   5   28.919000   28.942000  65.278000
2698   2   5   27.476000   28.587000  65.714000
2699   2   5   16.745000   23.265000  65.452000
2700   2   5   15.331000   22.931000  66.022000
2701   2   5   20.901000   19.11000  66.199000
2702   2   5   23.403000   32.797000  65.133000
2703   2   5   21.988000   32.43000  65.644000
2704   2   5   16.124000   25.719000  65.326000
2705   2   5   30.173000   24.017000  65.325000
2706   2   5   28.75000   23.672000  65.809000
2707   2   5   22.303000   19.392000  65.57000
2708   2   5   17.913000   36.645000  65.373000
2709   2   2   21.709000   22.266000  58.927000
2710   2   2   24.073000   22.823000  59.052000
2711   2   2   28.403000   28.775000  58.826000
2712   2   2   27.776000   31.262000  58.824000
2713   2   6   11.375000   35.976000  63.886000
2714   2   6   13.219000   37.776000  63.88000
2715   2   6   13.132000   37.828000  61.635000
2716   2   6   11.296000   36.021000  61.642000
2717   2   6   20.562000   17.94000  63.882000
2718   2   6   15.554000   19.249000  61.688000
2719   2   6   15.602000   19.338000  63.932000
2720   2   6   18.03000   18.536000  61.685000
2721   2   6   18.081000   18.636000  63.929000
2722   2   6   20.514000   17.85000  61.638000
2723   2   6   9.438000   29.3000  61.521000
2724   2   6   10.715000   24.269000  61.537000
2725   2   6   9.518000   29.288000  63.696000
2726   2   6   10.778000   24.328000  63.711000
2727   2   6   10.074000   26.784000  61.507000
2728   2   6   10.155000   26.81000  63.671000
2729   2   6   15.066000   39.572000  63.828000
2730   2   6   14.986000   39.615000  61.583000
2731   2   6   26.737000   39.883000  61.271000
2732   2   6   26.717000   39.859000  63.444000
2733   2   6   24.243000   40.588000  61.277000
2734   2   6   24.254000   40.545000  63.438000
2735   2   6   21.795000   41.247000  63.494000
2736   2   6   21.749000   41.289000  61.321000
2737   2   6   27.258000   19.606000  61.367000
2738   2   6   27.276000   19.677000  63.541000
2739   2   6   30.971000   23.228000  61.298000
2740   2   6   29.116000   21.415000  61.31000
2741   2   6   29.102000   21.468000  63.475000
2742   2   6   30.94000   23.248000  63.473000
2743   2   6   31.585000   34.913000  63.656000
2744   2   6   32.9000   29.928000  61.416000
2745   2   6   32.28000   32.428000  61.436000
2746   2   6   32.223000   32.417000  63.682000
2747   2   6   32.854000   29.919000  63.662000
2748   2   6   31.632000   34.921000  61.41000
2749   2   6   13.332000   37.696000  66.045000
2750   2   6   11.496000   35.916000  66.054000
2751   2   6   15.679000   19.462000  66.1000
2752   2   6   18.143000   18.774000  66.095000
2753   2   6   20.603000   18.074000  66.051000
2754   2   6   9.634000   29.27000  65.942000
2755   2   6   10.87000   24.411000  65.956000
2756   2   6   10.26000   26.842000  65.915000
2757   2   6   15.16000   39.485000  65.996000
2758   2   6   26.674000   39.808000  65.691000
2759   2   6   24.259000   40.48000  65.683000
2760   2   6   21.849000   41.169000  65.741000
2761   2   6   27.285000   19.784000  65.788000
2762   2   6   30.875000   23.281000  65.721000
2763   2   6   29.074000   21.538000  65.72000
2764   2   6   32.762000   29.919000  65.832000
2765   2   6   32.126000   32.396000  65.85000
2766   2   6   31.502000   34.877000  65.826000
2767   2   6   12.34000   35.053000  67.292000
2768   2   6   10.49000   33.284000  67.307000
2769   2   6   14.191000   36.835000  67.274000
2770   2   6   16.588000   36.204000  67.032000
2771   2   6   29.742000   37.086000  67.064000
2772   2   6   13.539000   21.303000  67.341000
2773   2   6   14.753000   34.417000  67.061000
2774   2   6   26.953000   21.959000  66.932000
2775   2   6   24.515000   22.678000  66.894000
2776   2   6   30.969000   32.104000  67.099000
2777   2   6   17.838000   40.443000  67.188000
2778   2   6   27.98000   35.296000  66.899000
2779   2   6   25.578000   35.961000  66.818000
2780   2   6   22.593000   39.105000  66.899000
2781   2   6   13.538000   30.24000  66.983000
2782   2   6   22.74000   20.935000  67.035000
2783   2   6   32.27000   27.144000  67.08000
2784   2   6   20.209000   39.797000  66.992000
2785   2   6   29.221000   30.337000  66.911000
2786   2   6   17.827000   22.339000  67.088000
2787   2   6   20.291000   21.644000  67.063000
2788   2   6   14.763000   25.427000  66.994000
2789   2   6   11.698000   28.492000  67.076000
2790   2   6   18.402000   37.997000  66.998000
2791   2   6   30.523000   25.409000  66.938000
2792   2   6   18.486000   19.949000  67.316000
2793   2   6   28.074000   26.141000  66.833000
2794   2   6   16.02000   38.638000  67.233000
2795   2   6   16.01000   20.631000  67.33000
2796   2   6   26.292000   24.411000  66.827000
2797   2   6   12.907000   23.678000  67.16000
2798   2   6   30.35000   34.597000  67.084000
2799   2   6   27.379000   37.775000  66.918000
2800   2   6   24.984000   38.431000  66.874000
2801   2   6   12.915000   32.652000  67.086000
2802   2   6   25.188000   20.216000  67.034000
2803   2   6   31.616000   29.618000  67.091000
2804   2   6   28.59000   32.82000  66.907000
2805   2   6   23.185000   36.633000  66.807000
2806   2   6   14.152000   27.833000  66.952000
2807   2   6   23.412000   18.521000  67.241000
2808   2   6   11.07000   30.894000  67.14000
2809   2   6   20.795000   37.31000  66.868000
2810   2   6   29.867000   27.872000  66.91000
2811   2   6   20.954000   19.238000  67.28000
2812   2   6   15.369000   23.013000  67.11000
2813   2   6   12.311000   26.086000  67.083000
2814   2   6   28.732000   23.69000  66.9000
2815   2   6   33.478000   27.413000  63.62000
2816   2   6   25.654000   26.844000  66.764000
2817   2   6   30.874000   37.372000  65.786000
2818   2   6   15.362000   31.988000  66.929000
2819   2   6   16.58000   27.164000  66.868000
2820   2   6   25.413000   17.796000  61.494000
2821   2   6   25.442000   17.872000  63.678000
2822   2   6   19.589000   33.092000  66.784000
2823   2   6   11.402000   21.829000  63.821000
2824   2   6   29.12000   39.129000  65.769000
2825   2   6   19.646000   24.081000  66.912000
2826   2   6   11.489000   21.951000  66.07000
2827   2   6   30.964000   37.413000  61.353000
2828   2   6   17.779000   31.329000  66.812000
2829   2   6   26.18000   33.504000  66.798000
2830   2   6   21.443000   25.802000  66.794000
2831   2   6   9.532000   34.165000  63.87000
2832   2   6   20.193000   30.659000  66.749000
2833   2   6   17.186000   33.751000  66.895000
2834   2   6   23.871000   25.109000  66.794000
2835   2   6   16.925000   41.365000  63.75000
2836   2   6   25.475000   18.009000  65.927000
2837   2   6   13.077000   19.98000  61.661000
2838   2   6   33.504000   27.419000  61.368000
2839   2   6   23.237000   27.537000  66.74000
2840   2   6   21.996000   32.42000  66.735000
2841   2   6   29.227000   39.19000  61.331000
2842   2   6   32.701000   25.047000  65.792000
2843   2   6   11.346000   21.762000  61.637000
2844   2   6   27.431000   28.585000  66.804000
2845   2   6   13.2000   20.153000  66.092000
2846   2   6   13.118000   20.051000  63.912000
2847   2   6   21.391000   34.861000  66.78000
2848   2   6   17.202000   24.76000  66.943000
2849   2   6   24.401000   31.735000  66.735000
2850   2   6   9.002000   31.728000  66.039000
2851   2   6   15.966000   29.576000  66.864000
2852   2   6   18.997000   35.529000  66.872000
2853   2   6   20.813000   28.224000  66.751000
2854   2   6   19.265000   41.999000  61.434000
2855   2   6   8.797000   31.805000  61.605000
2856   2   6   32.828000   25.029000  61.354000
2857   2   6   8.873000   31.783000  63.79000
2858   2   6   18.387000   28.905000  66.79000
2859   2   6   9.648000   34.126000  66.049000
2860   2   6   9.469000   34.196000  61.619000
2861   2   6   32.795000   25.038000  63.54000
2862   2   6   25.023000   29.286000  66.737000
2863   2   6   22.086000   23.383000  66.893000
2864   2   6   19.322000   41.959000  63.619000
2865   2   6   26.796000   31.041000  66.796000
2866   2   6   30.936000   37.414000  63.605000
2867   2   6   29.201000   39.173000  63.517000
2868   2   6   33.402000   27.428000  65.801000
2869   2   6   19.411000   41.867000  65.869000
2870   2   6   22.613000   29.977000  66.724000
2871   2   6   23.789000   34.185000  66.755000
2872   2   6   16.998000   41.285000  65.929000
2873   2   6   19.011000   26.487000  66.819000
2874   2   6   16.857000   41.392000  61.499000
2875   2   6   15.202000   37.506000  60.308000
2876   2   6   15.663000   35.21000  60.311000
2877   2   6   12.413000   21.971000  60.292000
2878   2   6   28.331000   22.195000  59.987000
2879   2   6   26.454000   38.8000  59.957000
2880   2   6   28.965000   38.103000  60.01000
2881   2   6   29.665000   35.711000  60.112000
2882   2   6   13.377000   35.729000  60.336000
2883   2   6   13.859000   33.432000  60.333000
2884   2   6   25.951000   22.748000  60.037000
2885   2   6   26.442000   20.367000  60.049000
2886   2   6   23.93000   39.525000  59.958000
2887   2   6   23.991000   20.917000  60.148000
2888   2   6   11.566000   33.926000  60.33000
2889   2   6   27.202000   36.398000  60.034000
2890   2   6   28.092000   33.978000  60.168000
2891   2   6   30.322000   33.243000  60.151000
2892   2   6   30.949000   30.774000  60.153000
2893   2   6   24.638000   37.182000  59.985000
2894   2   6   21.399000   40.224000  60.009000
2895   2   6   22.104000   37.897000  60.011000
2896   2   6   24.586000   18.538000  60.168000
2897   2   6   9.84000   32.124000  60.261000
2898   2   6   21.45000   21.365000  60.306000
2899   2   6   22.164000   19.131000  60.29000
2900   2   6   28.728000   31.527000  60.175000
2901   2   6   18.896000   40.942000  60.114000
2902   2   6   19.508000   38.568000  60.113000
2903   2   6   29.337000   29.067000  60.172000
2904   2   6   31.551000   28.29000  60.122000
2905   2   6   32.08000   25.852000  60.03000
2906   2   6   16.571000   22.743000  60.355000
2907   2   6   19.007000   22.04000  60.335000
2908   2   6   19.697000   19.797000  60.349000
2909   2   6   12.795000   28.831000  60.161000
2910   2   6   10.49000   29.598000  60.185000
2911   2   6   11.125000   27.047000  60.164000
2912   2   6   13.442000   26.277000  60.167000
2913   2   6   14.162000   23.689000  60.248000
2914   2   6   29.716000   26.506000  60.047000
2915   2   6   30.204000   24.039000  59.981000
2916   2   6   17.051000   39.267000  60.243000
2917   2   6   17.487000   36.967000  60.278000
2918   2   6   17.243000   20.489000  60.373000
2919   2   6   27.837000   24.588000  60.005000
2920   2   6   11.783000   24.501000  60.2000
2921   2   6   14.791000   21.211000  60.364000
2922   2   6   12.196000   31.448000  60.229000
2923   2   6   23.052000   17.251000  63.811000
2924   2   6   23.007000   17.18000  61.56000
2925   2   6   23.077000   17.369000  65.992000
2926   2   2   39.103000   36.495000  45.17000
2927   2   2   38.831000   36.41000  36.095000
2928   2   2   36.898000   36.821000  41.766000
2929   2   2   36.834000   36.794000  39.627000
2930   2   2   37.007000   36.876000  43.982000
2931   2   2   40.51000   38.582000  45.104000
2932   2   2   38.024000   38.786000  45.154000
2933   2   2   36.807000   36.784000  37.406000
2934   2   2   40.246000   38.477000  36.026000
2935   2   2   37.742000   38.651000  36.115000
2936   2   2   41.267000   38.865000  37.348000
2937   2   2   41.468000   38.939000  43.731000
2938   2   2   41.362000   38.898000  41.624000
2939   2   2   41.299000   38.872000  39.447000
2940   2   2   35.791000   38.676000  41.759000
2941   2   2   35.727000   38.642000  39.649000
2942   2   2   35.886000   38.736000  43.991000
2943   2   2   39.11000   41.118000  45.034000
2944   2   2   36.492000   40.763000  45.173000
2945   2   2   35.688000   38.626000  37.41000
2946   2   2   38.809000   40.956000  36.077000
2947   2   2   36.212000   40.606000  36.121000
2948   2   2   37.366000   43.171000  45.049000
2949   2   2   34.908000   42.682000  45.161000
2950   2   2   37.075000   43.005000  36.099000
2951   2   2   34.644000   42.524000  36.159000
2952   2   2   35.536000   45.122000  45.087000
2953   2   2   33.055000   44.319000  45.213000
2954   2   2   35.265000   44.956000  36.105000
2955   2   2   32.816000   44.16000  36.149000
2956   2   2   30.933000   43.706000  41.796000
2957   2   2   30.875000   43.676000  39.683000
2958   2   2   31.021000   43.775000  44.049000
2959   2   2   33.323000   46.856000  45.178000
2960   2   2   31.039000   45.831000  45.238000
2961   2   2   30.844000   43.674000  37.425000
2962   2   2   33.109000   46.709000  36.086000
2963   2   2   30.845000   45.692000  36.163000
2964   2   2   33.776000   47.602000  37.394000
2965   2   2   33.916000   47.717000  43.816000
2966   2   2   33.836000   47.654000  41.695000
2967   2   2   33.789000   47.616000  39.515000
2968   2   2   29.056000   44.768000  41.822000
2969   2   2   29.006000   44.744000  39.684000
2970   2   2   29.127000   44.839000  44.047000
2971   2   2   30.915000   48.313000  45.218000
2972   2   2   28.98000   44.757000  37.455000
2973   2   2   30.749000   48.19000  36.117000
2974   2   2   31.265000   49.165000  37.436000
2975   2   2   31.368000   49.261000  43.859000
2976   2   2   31.31000   49.189000  41.739000
2977   2   2   31.276000   49.158000  39.557000
2978   2   2   28.792000   46.922000  45.261000
2979   2   2   28.64000   46.811000  36.188000
2980   2   2   26.976000   45.625000  41.834000
2981   2   2   26.936000   45.606000  39.699000
2982   2   2   27.03000   45.694000  44.064000
2983   2   2   28.342000   49.368000  45.255000
2984   2   2   26.419000   47.721000  45.286000
2985   2   2   26.914000   45.627000  37.466000
2986   2   2   28.214000   49.273000  36.152000
2987   2   2   26.301000   47.633000  36.21000
2988   2   2   28.589000   50.305000  37.475000
2989   2   2   28.668000   50.378000  43.903000
2990   2   2   28.629000   50.309000  41.781000
2991   2   2   28.602000   50.286000  39.598000
2992   2   2   24.773000   46.271000  41.849000
2993   2   2   24.744000   46.254000  39.714000
2994   2   2   24.808000   46.337000  44.073000
2995   2   2   25.688000   50.117000  45.28000
2996   2   2   23.971000   48.304000  45.291000
2997   2   2   24.722000   46.28000  37.488000
2998   2   2   25.587000   50.044000  36.189000
2999   2   2   23.88000   48.228000  36.248000
3000   2   2   25.983000   51.031000  37.538000
3001   2   2   26.061000   51.081000  43.906000
3002   2   2   26.023000   51.026000  41.815000
3003   2   2   25.997000   51.01000  39.63000
3004   2   2   22.561000   46.611000  41.862000
3005   2   2   22.542000   46.595000  39.734000
3006   2   2   22.586000   46.675000  44.089000
3007   2   2   22.88000   50.633000  45.245000
3008   2   2   21.487000   48.498000  45.322000
3009   2   2   22.525000   46.621000  37.504000
3010   2   2   22.802000   50.562000  36.273000
3011   2   2   21.418000   48.423000  36.257000
3012   2   2   20.345000   46.707000  41.865000
3013   2   2   20.332000   46.688000  39.761000
3014   2   2   20.354000   46.769000  44.129000
3015   2   2   20.178000   50.629000  45.26000
3016   2   2   18.946000   48.349000  45.343000
3017   2   2   20.31000   46.71000  37.495000
3018   2   2   20.118000   50.558000  36.302000
3019   2   2   18.903000   48.267000  36.276000
3020   2   2   17.464000   50.499000  45.284000
3021   2   2   16.446000   48.165000  45.307000
3022   2   2   17.436000   50.424000  36.311000
3023   2   2   16.445000   48.078000  36.332000
3024   2   2   14.686000   49.895000  45.344000
3025   2   2   14.706000   49.849000  36.266000
3026   2   2   14.399000   50.9000  37.589000
3027   2   2   14.387000   50.925000  44.022000
3028   2   2   14.392000   50.878000  41.904000
3029   2   2   14.39000   50.88000  39.71000
3030   2   2   23.902000   52.921000  45.338000
3031   2   2   23.794000   52.902000  36.139000
3032   2   2   22.775000   55.023000  45.265000
3033   2   2   21.471000   52.772000  45.238000
3034   2   2   22.644000   55.027000  36.243000
3035   2   2   21.378000   52.751000  36.296000
3036   2   2   20.229000   54.963000  45.293000
3037   2   2   18.881000   52.731000  45.279000
3038   2   2   20.106000   54.978000  36.292000
3039   2   2   18.803000   52.713000  36.305000
3040   2   2   24.823000   54.751000  37.413000
3041   2   2   24.858000   52.454000  37.406000
3042   2   2   18.019000   54.769000  41.862000
3043   2   2   17.992000   54.746000  39.773000
3044   2   2   18.071000   54.746000  44.099000
3045   2   2   17.98000   54.715000  37.539000
3046   2   2   24.923000   54.76000  41.783000
3047   2   2   24.893000   52.462000  39.609000
3048   2   2   24.913000   52.464000  41.844000
3049   2   2   24.896000   54.761000  39.657000
3050   2   2   24.926000   52.466000  44.041000
3051   2   2   24.919000   54.747000  44.031000
3052   2   2   24.072000   57.248000  45.319000
3053   2   2   23.888000   57.28000  36.15000
3054   2   2   22.878000   59.34000  45.384000
3055   2   2   21.559000   57.182000  45.306000
3056   2   2   22.666000   59.37000  36.166000
3057   2   2   21.386000   57.216000  36.273000
3058   2   2   24.857000   59.238000  37.384000
3059   2   2   24.909000   56.801000  37.455000
3060   2   2   24.977000   59.251000  41.794000
3061   2   2   24.947000   56.818000  39.616000
3062   2   2   24.983000   56.811000  41.815000
3063   2   2   24.938000   59.257000  39.649000
3064   2   2   25.033000   56.776000  43.965000
3065   2   2   25.003000   59.209000  44.058000
3066   2   2   14.023000   47.419000  45.342000
3067   2   2   14.065000   47.387000  36.287000
3068   2   2   13.428000   45.389000  41.868000
3069   2   2   13.427000   45.382000  39.747000
3070   2   2   13.408000   45.427000  44.103000
3071   2   2   11.994000   48.984000  45.348000
3072   2   2   11.638000   46.525000  45.331000
3073   2   2   13.422000   45.413000  37.512000
3074   2   2   12.04000   48.995000  36.255000
3075   2   2   11.686000   46.556000  36.258000
3076   2   2   11.652000   50.002000  37.588000
3077   2   2   11.604000   49.993000  44.018000
3078   2   2   11.628000   49.956000  41.891000
3079   2   2   11.645000   49.962000  39.712000
3080   2   2   11.488000   44.419000  41.853000
3081   2   2   11.489000   44.428000  39.708000
3082   2   2   11.452000   44.447000  44.068000
3083   2   2   9.407000   47.725000  45.326000
3084   2   2   9.477000   45.229000  45.296000
3085   2   2   11.468000   44.476000  37.492000
3086   2   2   9.455000   47.789000  36.25000
3087   2   2   9.522000   45.308000  36.245000
3088   2   2   8.958000   48.723000  37.596000
3089   2   2   8.914000   48.674000  43.99000
3090   2   2   8.949000   48.65000  41.88000
3091   2   2   8.963000   48.668000  39.705000
3092   2   2   9.792000   43.112000  41.818000
3093   2   2   9.798000   43.13000  39.683000
3094   2   2   9.752000   43.128000  44.044000
3095   2   2   7.017000   46.019000  45.246000
3096   2   2   7.688000   43.523000  45.278000
3097   2   2   9.777000   43.188000  37.456000
3098   2   2   7.061000   46.12000  36.283000
3099   2   2   7.735000   43.622000  36.205000
3100   2   2   8.272000   41.454000  41.789000
3101   2   2   8.286000   41.481000  39.657000
3102   2   2   8.223000   41.46000  44.026000
3103   2   2   5.224000   43.979000  45.211000
3104   2   2   6.095000   41.603000  45.249000
3105   2   2   8.267000   41.539000  37.419000
3106   2   2   5.277000   44.082000  36.25000
3107   2   2   6.161000   41.696000  36.174000
3108   2   2   6.868000   39.622000  41.767000
3109   2   2   6.895000   39.652000  39.638000
3110   2   2   6.806000   39.621000  43.999000
3111   2   2   3.553000   41.863000  45.189000
3112   2   2   4.657000   39.579000  45.21000
3113   2   2   6.885000   39.705000  37.406000
3114   2   2   3.628000   41.956000  36.196000
3115   2   2   4.771000   39.646000  36.157000
3116   2   2   5.705000   37.761000  41.744000
3117   2   2   5.749000   37.785000  39.635000
3118   2   2   5.633000   37.758000  43.987000
3119   2   2   2.172000   39.439000  45.192000
3120   2   2   5.759000   37.818000  37.395000
3121   2   2   2.317000   39.491000  36.102000
3122   2   2   1.308000   39.933000  37.419000
3123   2   2   1.216000   39.915000  43.847000
3124   2   2   1.279000   39.906000  41.724000
3125   2   2   1.309000   39.911000  39.544000
3126   2   2   3.577000   37.31000  45.191000
3127   2   2   3.76000   37.346000  36.132000
3128   2   2   1.063000   36.899000  45.155000
3129   2   2   2.628000   34.987000  45.135000
3130   2   2   1.264000   36.947000  36.057000
3131   2   2   2.856000   35.042000  36.134000
3132   2   2   0.216000   37.325000  37.367000
3133   2   2   0.078000   37.299000  43.804000
3134   2   2   0.152000   37.3000  41.68000
3135   2   2   0.198000   37.308000  39.494000
3136   2   2   0.261000   34.253000  45.112000
3137   2   2   2.129000   32.534000  45.121000
3138   2   2   0.479000   34.324000  36.027000
3139   2   2   2.326000   32.629000  36.074000
3140   2   2   -0.57000   34.646000  37.341000
3141   2   2   -0.718000   34.586000  43.743000
3142   2   2   -0.642000   34.596000  41.639000
3143   2   2   -0.591000   34.615000  39.456000
3144   2   2   3.737000   31.124000  41.652000
3145   2   2   3.782000   31.137000  39.548000
3146   2   2   3.653000   31.11000  43.91000
3147   2   2   -0.26000   31.436000  45.026000
3148   2   2   1.878000   30.06000  45.094000
3149   2   2   3.783000   31.166000  37.289000
3150   2   2   -0.116000   31.544000  36.056000
3151   2   2   2.027000   30.166000  36.02000
3152   2   2   3.763000   28.922000  41.633000
3153   2   2   3.797000   28.938000  39.503000
3154   2   2   3.685000   28.899000  43.871000
3155   2   2   -0.25000   28.743000  44.988000
3156   2   2   1.992000   27.582000  45.066000
3157   2   2   3.785000   28.959000  37.264000
3158   2   2   -0.115000   28.854000  36.026000
3159   2   2   2.124000   27.678000  35.988000
3160   2   2   3.958000   26.654000  41.609000
3161   2   2   3.989000   26.674000  39.477000
3162   2   2   3.881000   26.625000  43.841000
3163   2   2   -0.07000   26.065000  44.974000
3164   2   2   2.323000   25.148000  45.038000
3165   2   2   3.972000   26.685000  37.243000
3166   2   2   0.063000   26.161000  35.986000
3167   2   2   2.452000   25.228000  35.981000
3168   2   2   4.422000   24.503000  41.604000
3169   2   2   4.451000   24.527000  39.466000
3170   2   2   4.344000   24.474000  43.828000
3171   2   2   0.6000   23.337000  45.012000
3172   2   2   4.435000   24.532000  37.24000
3173   2   2   0.736000   23.415000  35.93000
3174   2   2   -0.311000   23.074000  37.247000
3175   2   2   -0.401000   23.013000  43.656000
3176   2   2   -0.326000   23.043000  41.542000
3177   2   2   -0.294000   23.061000  39.365000
3178   2   2   3.069000   22.785000  45.044000
3179   2   2   3.203000   22.855000  35.971000
3180   2   2   5.245000   22.439000  41.61000
3181   2   2   5.274000   22.466000  39.472000
3182   2   2   5.169000   22.404000  43.837000
3183   2   2   1.643000   20.732000  45.024000
3184   2   2   4.158000   20.532000  45.053000
3185   2   2   5.264000   22.464000  37.243000
3186   2   2   1.779000   20.809000  35.925000
3187   2   2   4.294000   20.61000  35.978000
3188   2   2   0.788000   20.329000  37.244000
3189   2   2   0.699000   20.266000  43.667000
3190   2   2   0.766000   20.311000  41.548000
3191   2   2   0.799000   20.328000  39.366000
3192   2   2   6.296000   20.488000  41.607000
3193   2   2   6.324000   20.518000  39.492000
3194   2   2   6.23000   20.445000  43.849000
3195   2   2   3.027000   18.308000  45.032000
3196   2   2   5.595000   18.436000  45.055000
3197   2   2   6.326000   20.507000  37.246000
3198   2   2   3.173000   18.409000  35.937000
3199   2   2   5.711000   18.528000  36.011000
3200   2   2   2.195000   17.915000  37.25000
3201   2   2   2.124000   17.829000  43.653000
3202   2   2   2.171000   17.879000  41.554000
3203   2   2   2.204000   17.905000  39.37000
3204   2   2   4.712000   15.97000  44.99000
3205   2   2   7.156000   16.479000  45.031000
3206   2   2   4.724000   16.064000  36.029000
3207   2   2   7.223000   16.642000  36.034000
3208   2   2   6.63000   14.062000  44.962000
3209   2   2   9.067000   14.816000  45.032000
3210   2   2   6.603000   14.213000  36.008000
3211   2   2   9.039000   15.016000  35.966000
3212   2   2   11.115000   15.389000  41.549000
3213   2   2   11.105000   15.435000  39.441000
3214   2   2   11.105000   15.308000  43.797000
3215   2   2   8.649000   12.256000  44.933000
3216   2   2   10.99000   13.204000  44.975000
3217   2   2   11.064000   15.465000  37.19000
3218   2   2   8.592000   12.442000  35.945000
3219   2   2   10.937000   13.428000  35.917000
3220   2   2   12.923000   14.211000  41.532000
3221   2   2   12.906000   14.272000  39.394000
3222   2   2   12.92000   14.103000  43.755000
3223   2   2   11.014000   10.697000  44.916000
3224   2   2   12.863000   14.299000  37.168000
3225   2   2   10.966000   10.943000  35.834000
3226   2   2   10.476000   9.953000  37.149000
3227   2   2   10.486000   9.791000  43.558000
3228   2   2   10.512000   9.879000  41.443000
3229   2   2   10.507000   9.934000  39.265000
3230   2   2   13.174000   11.976000  44.938000
3231   2   2   13.128000   12.261000  35.86000
3232   2   2   14.928000   13.278000  41.505000
3233   2   2   14.908000   13.356000  39.365000
3234   2   2   14.932000   13.149000  43.723000
3235   2   2   13.578000   9.487000  44.851000
3236   2   2   15.507000   11.061000  44.88000
3237   2   2   14.875000   13.392000  37.142000
3238   2   2   13.533000   9.797000  35.774000
3239   2   2   15.468000   11.41000  35.836000
3240   2   2   13.088000   8.804000  37.099000
3241   2   2   13.104000   8.581000  43.478000
3242   2   2   13.12000   8.695000  41.374000
3243   2   2   13.113000   8.768000  39.197000
3244   2   2   17.038000   12.715000  41.481000
3245   2   2   17.019000   12.805000  39.352000
3246   2   2   17.042000   12.576000  43.705000
3247   2   2   16.329000   8.612000  44.732000
3248   2   2   17.938000   10.619000  44.864000
3249   2   2   16.993000   12.852000  37.122000
3250   2   2   16.295000   9.002000  35.772000
3251   2   2   17.902000   11.013000  35.803000
3252   2   2   19.301000   12.449000  41.469000
3253   2   2   19.282000   12.544000  39.343000
3254   2   2   19.308000   12.306000  43.701000
3255   2   2   19.014000   8.347000  44.705000
3256   2   2   20.433000   10.436000  44.851000
3257   2   2   19.264000   12.601000  37.106000
3258   2   2   18.978000   8.75000  35.753000
3259   2   2   20.388000   10.848000  35.789000
3260   2   2   21.55000   12.343000  41.447000
3261   2   2   21.524000   12.44000  39.346000
3262   2   2   21.57000   12.207000  43.694000
3263   2   2   21.709000   8.243000  44.702000
3264   2   2   22.938000   10.55000  44.837000
3265   2   2   21.517000   12.508000  37.093000
3266   2   2   21.661000   8.659000  35.727000
3267   2   2   22.878000   10.981000  35.805000
3268   2   2   24.506000   8.558000  44.747000
3269   2   2   25.437000   10.866000  44.811000
3270   2   2   24.422000   8.991000  35.675000
3271   2   2   25.323000   11.315000  35.829000
3272   2   2   24.602000   7.853000  36.95000
3273   2   2   24.657000   7.544000  43.37000
3274   2   2   24.639000   7.677000  41.25000
3275   2   2   24.621000   7.779000  39.072000
3276   2   2   27.24000   9.169000  44.749000
3277   2   2   27.109000   9.614000  35.666000
3278   2   2   27.459000   8.516000  36.94000
3279   2   2   27.546000   8.197000  43.369000
3280   2   2   27.51000   8.336000  41.245000
3281   2   2   27.482000   8.441000  39.067000
3282   2   2   27.83000   11.645000  44.855000
3283   2   2   27.669000   12.098000  35.791000
3284   2   2   28.354000   13.819000  41.475000
3285   2   2   28.309000   13.921000  39.359000
3286   2   2   28.42000   13.67000  43.709000
3287   2   2   29.91000   10.086000  44.743000
3288   2   2   30.22000   12.521000  44.839000
3289   2   2   28.282000   13.995000  37.114000
3290   2   2   29.73000   10.539000  35.666000
3291   2   2   30.02000   12.979000  35.803000
3292   2   2   30.08000   9.461000  36.952000
3293   2   2   30.212000   9.137000  43.349000
3294   2   2   30.16000   9.282000  41.24000
3295   2   2   30.116000   9.39000  39.063000
3296   2   2   30.206000   14.86000  41.499000
3297   2   2   30.153000   14.966000  39.369000
3298   2   2   30.287000   14.707000  43.719000
3299   2   2   32.529000   11.344000  44.683000
3300   2   2   32.279000   13.899000  44.873000
3301   2   2   30.122000   15.041000  37.141000
3302   2   2   32.302000   11.801000  35.729000
3303   2   2   32.044000   14.358000  35.812000
3304   2   2   31.978000   16.236000  41.523000
3305   2   2   31.921000   16.341000  39.394000
3306   2   2   32.068000   16.087000  43.755000
3307   2   2   34.642000   13.046000  44.708000
3308   2   2   34.168000   15.532000  44.905000
3309   2   2   31.89000   16.417000  37.156000
3310   2   2   34.396000   13.493000  35.761000
3311   2   2   33.914000   15.97000  35.84000
3312   2   2   33.633000   17.8000  41.551000
3313   2   2   33.576000   17.9000  39.422000
3314   2   2   33.73000   17.661000  43.777000
3315   2   2   36.638000   14.874000  44.758000
3316   2   2   35.873000   17.338000  44.93000
3317   2   2   33.55000   17.976000  37.188000
3318   2   2   36.381000   15.3000  35.784000
3319   2   2   35.62000   17.734000  35.886000
3320   2   2   35.023000   19.509000  41.584000
3321   2   2   34.968000   19.599000  39.449000
3322   2   2   35.119000   19.384000  43.8000
3323   2   2   38.35000   17.146000  44.871000
3324   2   2   37.252000   19.44000  44.985000
3325   2   2   34.947000   19.667000  37.225000
3326   2   2   38.108000   17.504000  35.796000
3327   2   2   37.013000   19.774000  35.926000
3328   2   2   39.036000   16.853000  37.086000
3329   2   2   39.222000   16.617000  43.491000
3330   2   2   39.124000   16.723000  41.378000
3331   2   2   39.064000   16.803000  39.202000
3332   2   2   36.129000   21.403000  41.608000
3333   2   2   36.079000   21.474000  39.494000
3334   2   2   36.223000   21.306000  43.851000
3335   2   2   39.706000   19.62000  44.949000
3336   2   2   36.062000   21.535000  37.24000
3337   2   2   39.474000   19.916000  35.849000
3338   2   2   40.486000   19.407000  37.142000
3339   2   2   40.66000   19.212000  43.58000
3340   2   2   40.562000   19.286000  41.453000
3341   2   2   40.507000   19.353000  39.271000
3342   2   2   38.282000   21.785000  45.043000
3343   2   2   38.046000   22.063000  35.975000
3344   2   2   40.811000   22.174000  44.996000
3345   2   2   39.305000   24.115000  45.032000
3346   2   2   40.57000   22.415000  35.911000
3347   2   2   39.062000   24.327000  36.066000
3348   2   2   41.535000   21.854000  37.211000
3349   2   2   41.714000   21.706000  43.617000
3350   2   2   41.628000   21.764000  41.508000
3351   2   2   41.57000   21.816000  39.326000
3352   2   2   41.74000   24.881000  44.981000
3353   2   2   39.778000   26.577000  45.109000
3354   2   2   41.522000   25.039000  36.022000
3355   2   2   39.546000   26.716000  36.057000
3356   2   2   38.203000   28.175000  41.696000
3357   2   2   38.152000   28.202000  39.59000
3358   2   2   38.295000   28.136000  43.949000
3359   2   2   42.154000   27.562000  45.008000
3360   2   2   40.166000   29.087000  45.139000
3361   2   2   38.128000   28.219000  37.331000
3362   2   2   41.927000   27.672000  36.055000
3363   2   2   39.932000   29.174000  36.065000
3364   2   2   38.345000   30.395000  41.729000
3365   2   2   38.291000   30.407000  39.597000
3366   2   2   38.452000   30.383000  43.956000
3367   2   2   42.436000   30.274000  45.043000
3368   2   2   40.234000   31.591000  45.144000
3369   2   2   38.275000   30.421000  37.365000
3370   2   2   42.207000   30.343000  36.059000
3371   2   2   39.991000   31.624000  36.089000
3372   2   2   38.22000   32.585000  41.747000
3373   2   2   38.164000   32.584000  39.606000
3374   2   2   38.333000   32.594000  43.966000
3375   2   2   42.201000   33.143000  45.103000
3376   2   2   39.857000   34.083000  45.162000
3377   2   2   38.149000   32.588000  37.382000
3378   2   2   41.965000   33.153000  36.025000
3379   2   2   39.602000   34.057000  36.092000
3380   2   2   43.058000   33.33000  37.337000
3381   2   2   43.231000   33.312000  43.743000
3382   2   2   43.125000   33.319000  41.627000
3383   2   2   43.07000   33.323000  39.452000
3384   2   2   37.71000   34.742000  41.759000
3385   2   2   37.651000   34.727000  39.617000
3386   2   2   37.824000   34.776000  43.982000
3387   2   2   41.554000   35.932000  45.113000
3388   2   2   37.632000   34.722000  37.389000
3389   2   2   41.302000   35.885000  36.023000
3390   2   2   42.357000   36.229000  37.333000
3391   2   2   42.545000   36.248000  43.748000
3392   2   2   42.436000   36.226000  41.629000
3393   2   2   42.376000   36.219000  39.451000
3394   2   2   11.576000   17.255000  39.584000
3395   2   2   11.56000   17.219000  41.665000
3396   2   2   21.623000   16.521000  39.616000
3397   2   2   21.65000   16.447000  41.712000
3398   2   2   26.443000   17.668000  39.542000
3399   2   2   26.474000   17.57000  41.727000
3400   2   2   22.154000   14.187000  39.497000
3401   2   2   22.179000   14.098000  41.579000
3402   2   2   26.997000   15.253000  39.401000
3403   2   2   27.03000   15.141000  41.622000
3404   2   2   11.288000   36.059000  42.045000
3405   2   2   13.082000   37.774000  42.081000
3406   2   2   13.096000   37.774000  39.888000
3407   2   2   11.325000   36.074000  39.851000
3408   2   2   34.078000   28.357000  41.841000
3409   2   2   32.616000   23.653000  39.623000
3410   2   2   32.672000   23.606000  41.815000
3411   2   2   34.032000   28.4000  39.748000
3412   2   2   36.409000   27.651000  41.757000
3413   2   2   34.934000   22.946000  39.527000
3414   2   2   34.999000   22.893000  41.755000
3415   2   2   36.356000   27.696000  39.679000
3416   2   2   28.662000   40.33000  41.945000
3417   2   2   31.976000   36.66000  39.789000
3418   2   2   32.014000   36.682000  41.885000
3419   2   2   28.609000   40.298000  39.756000
3420   2   2   30.459000   41.946000  41.91000
3421   2   2   33.801000   38.285000  39.721000
3422   2   2   33.855000   38.314000  41.807000
3423   2   2   30.398000   41.914000  39.68000
3424   2   2   15.37000   41.528000  39.872000
3425   2   2   15.377000   41.548000  41.965000
3426   2   2   20.176000   42.733000  39.794000
3427   2   2   20.178000   42.77000  41.984000
3428   2   2   14.751000   43.966000  39.836000
3429   2   2   14.754000   43.981000  41.919000
3430   2   2   19.589000   45.036000  39.742000
3431   2   2   19.588000   45.066000  41.977000
3432   2   2   7.819000   30.863000  41.875000
3433   2   2   9.301000   35.617000  39.798000
3434   2   2   9.259000   35.602000  41.894000
3435   2   2   7.884000   30.871000  39.686000
3436   2   2   5.499000   31.582000  41.826000
3437   2   2   6.982000   36.34000  39.729000
3438   2   2   6.941000   36.326000  41.814000
3439   2   2   5.557000   31.588000  39.597000
3440   2   2   9.969000   22.529000  39.634000
3441   2   2   9.922000   22.474000  41.826000
3442   2   2   13.358000   18.914000  39.669000
3443   2   2   13.333000   18.882000  41.763000
3444   2   2   8.172000   20.879000  39.539000
3445   2   2   8.136000   20.825000  41.766000
3446   2   2   20.215000   17.985000  41.884000
3447   2   2   15.421000   19.428000  39.723000
3448   2   2   15.394000   19.392000  41.914000
3449   2   2   17.814000   18.742000  39.734000
3450   2   2   17.811000   18.698000  41.924000
3451   2   2   20.191000   18.044000  39.693000
3452   2   2   9.339000   29.332000  39.754000
3453   2   2   10.549000   24.505000  39.722000
3454   2   2   9.274000   29.318000  41.838000
3455   2   2   10.495000   24.456000  41.808000
3456   2   2   9.95000   26.908000  39.731000
3457   2   2   9.885000   26.875000  41.818000
3458   2   2   14.859000   39.513000  42.075000
3459   2   2   14.854000   39.494000  39.881000
3460   2   2   26.526000   39.836000  39.803000
3461   2   2   26.57000   39.876000  41.886000
3462   2   2   24.1000   40.539000  39.803000
3463   2   2   24.124000   40.59000  41.888000
3464   2   2   21.68000   41.286000  41.912000
3465   2   2   21.676000   41.239000  39.828000
3466   2   2   27.033000   19.699000  39.64000
3467   2   2   27.07000   19.614000  41.723000
3468   2   2   30.609000   23.158000  39.677000
3469   2   2   28.825000   21.437000  39.65000
3470   2   2   28.878000   21.367000  41.735000
3471   2   2   30.668000   23.107000  41.762000
3472   2   2   31.387000   34.723000  42.001000
3473   2   2   32.557000   29.917000  39.778000
3474   2   2   31.949000   32.322000  39.812000
3475   2   2   31.978000   32.313000  42.004000
3476   2   2   32.594000   29.881000  41.969000
3477   2   2   31.36000   34.706000  39.807000
3478   2   2   11.493000   17.176000  43.914000
3479   2   2   21.713000   16.369000  43.936000
3480   2   2   26.529000   17.494000  43.89000
3481   2   2   22.245000   13.981000  43.819000
3482   2   2   27.089000   15.025000  43.754000
3483   2   2   13.049000   37.795000  44.236000
3484   2   2   11.235000   36.056000  44.209000
3485   2   2   32.712000   23.54000  43.988000
3486   2   2   34.115000   28.281000  44.068000
3487   2   2   35.069000   22.815000  43.894000
3488   2   2   36.479000   27.566000  44.002000
3489   2   2   32.025000   36.728000  44.114000
3490   2   2   28.686000   40.378000  44.109000
3491   2   2   33.9000   38.375000  44.05000
3492   2   2   30.512000   42.008000  44.045000
3493   2   2   15.411000   41.576000  44.194000
3494   2   2   20.203000   42.8000  44.159000
3495   2   2   14.779000   44.028000  44.164000
3496   2   2   19.605000   45.113000  44.121000
3497   2   2   9.196000   35.561000  44.122000
3498   2   2   7.763000   30.827000  44.038000
3499   2   2   6.856000   36.291000  44.059000
3500   2   2   5.427000   31.553000  43.96000
3501   2   2   9.874000   22.447000  43.996000
3502   2   2   13.278000   18.856000  43.992000
3503   2   2   8.081000   20.784000  43.904000
3504   2   2   15.359000   19.335000  44.074000
3505   2   2   17.803000   18.625000  44.075000
3506   2   2   20.237000   17.905000  44.048000
3507   2   2   9.244000   29.299000  44.07000
3508   2   2   10.472000   24.425000  44.04000
3509   2   2   9.855000   26.85000  44.051000
3510   2   2   14.853000   39.545000  44.241000
3511   2   2   26.587000   39.891000  44.116000
3512   2   2   24.138000   40.607000  44.118000
3513   2   2   21.691000   41.297000  44.142000
3514   2   2   27.095000   19.562000  43.952000
3515   2   2   30.695000   23.069000  43.994000
3516   2   2   28.906000   21.321000  43.967000
3517   2   2   32.648000   29.846000  44.133000
3518   2   2   32.032000   32.311000  44.159000
3519   2   2   31.428000   34.747000  44.17000
3520   2   2   11.945000   35.178000  45.51000
3521   2   2   9.946000   33.525000  45.36000
3522   2   2   13.822000   36.985000  45.548000
3523   2   2   34.865000   26.255000  45.235000
3524   2   2   33.012000   24.611000  45.304000
3525   2   2   37.342000   25.517000  45.155000
3526   2   2   35.508000   23.813000  45.241000
3527   2   2   31.846000   38.838000  45.317000
3528   2   2   29.426000   39.525000  45.41000
3529   2   2   33.782000   40.557000  45.252000
3530   2   2   31.364000   41.294000  45.374000
3531   2   2   16.735000   43.241000  45.398000
3532   2   2   19.125000   42.479000  45.465000
3533   2   2   16.125000   45.769000  45.366000
3534   2   2   18.51000   44.998000  45.458000
3535   2   2   7.464000   34.296000  45.294000
3536   2   2   8.098000   31.88000  45.36000
3537   2   2   5.011000   35.071000  45.223000
3538   2   2   5.587000   32.63000  45.307000
3539   2   2   11.168000   19.207000  45.185000
3540   2   2   10.659000   21.633000  45.297000
3541   2   2   9.321000   17.455000  45.105000
3542   2   2   8.733000   19.88000  45.232000
3543   2   2   25.444000   17.226000  45.198000
3544   2   2   23.678000   15.464000  45.091000
3545   2   2   26.057000   14.64000  45.089000
3546   2   2   24.203000   12.92000  44.959000
3547   2   2   16.19000   36.424000  45.496000
3548   2   2   29.893000   37.109000  45.367000
3549   2   2   13.051000   20.986000  45.267000
3550   2   2   14.302000   34.605000  45.487000
3551   2   2   26.798000   21.639000  45.23000
3552   2   2   24.528000   22.139000  45.185000
3553   2   2   30.955000   32.034000  45.476000
3554   2   2   17.419000   40.72000  45.423000
3555   2   2   27.989000   35.422000  45.402000
3556   2   2   25.593000   36.392000  45.27000
3557   2   2   22.431000   39.307000  45.37000
3558   2   2   12.773000   30.212000  45.274000
3559   2   2   22.536000   20.537000  45.3000
3560   2   2   32.362000   27.006000  45.3000
3561   2   2   19.937000   40.025000  45.399000
3562   2   2   29.287000   30.281000  45.418000
3563   2   2   17.429000   22.013000  45.391000
3564   2   2   19.956000   21.277000  45.379000
3565   2   2   14.021000   25.239000  45.242000
3566   2   2   11.199000   28.501000  45.318000
3567   2   2   18.128000   38.27000  45.447000
3568   2   2   30.495000   25.209000  45.276000
3569   2   2   18.117000   19.676000  45.403000
3570   2   2   28.202000   25.7000  45.203000
3571   2   2   15.697000   38.79000  45.539000
3572   2   2   15.598000   20.417000  45.392000
3573   2   2   26.364000   23.924000  45.191000
3574   2   2   12.433000   23.504000  45.29000
3575   2   2   30.32000   34.559000  45.475000
3576   2   2   27.4000   37.879000  45.363000
3577   2   2   24.905000   38.596000  45.357000
3578   2   2   12.383000   32.741000  45.415000
3579   2   2   24.962000   19.816000  45.219000
3580   2   2   31.581000   29.497000  45.438000
3581   2   2   28.653000   32.825000  45.436000
3582   2   2   23.134000   37.101000  45.28000
3583   2   2   13.4000   27.729000  45.258000
3584   2   2   23.087000   18.021000  45.207000
3585   2   2   10.552000   31.004000  45.339000
3586   2   2   20.671000   37.805000  45.298000
3587   2   2   29.899000   27.668000  45.35000
3588   2   2   20.638000   18.939000  45.364000
3589   2   2   14.858000   22.79000  45.342000
3590   2   2   11.826000   26.013000  45.303000
3591   2   2   28.632000   23.429000  45.248000
3592   2   2   11.587000   17.313000  37.34000
3593   2   2   21.619000   16.63000  37.389000
3594   2   2   26.428000   17.771000  37.383000
3595   2   2   22.144000   14.286000  37.254000
3596   2   2   26.987000   15.344000  37.271000
3597   2   2   11.362000   36.072000  37.687000
3598   2   2   13.118000   37.765000  37.724000
3599   2   2   33.96000   28.424000  37.519000
3600   2   2   32.549000   23.687000  37.454000
3601   2   2   36.302000   27.727000  37.433000
3602   2   2   34.885000   22.979000  37.392000
3603   2   2   28.541000   40.274000  37.596000
3604   2   2   31.903000   36.649000  37.558000
3605   2   2   30.342000   41.908000  37.55000
3606   2   2   33.733000   38.275000  37.475000
3607   2   2   15.401000   41.494000  37.643000
3608   2   2   20.193000   42.697000  37.619000
3609   2   2   14.768000   43.957000  37.593000
3610   2   2   19.602000   45.029000  37.6000
3611   2   2   7.943000   30.859000  37.522000
3612   2   2   9.363000   35.591000  37.569000
3613   2   2   5.584000   31.585000  37.466000
3614   2   2   7.025000   36.333000  37.484000
3615   2   2   10.003000   22.598000  37.463000
3616   2   2   13.386000   18.997000  37.441000
3617   2   2   8.178000   20.928000  37.401000
3618   2   2   20.181000   18.111000  37.532000
3619   2   2   15.441000   19.479000  37.561000
3620   2   2   17.819000   18.796000  37.571000
3621   2   2   9.446000   29.361000  37.523000
3622   2   2   10.647000   24.56000  37.489000
3623   2   2   10.06000   26.953000  37.499000
3624   2   2   14.865000   39.477000  37.717000
3625   2   2   26.478000   39.751000  37.573000
3626   2   2   24.062000   40.444000  37.573000
3627   2   2   21.652000   41.153000  37.598000
3628   2   2   26.96000   19.811000  37.41000
3629   2   2   28.74000   21.541000  37.42000
3630   2   2   30.524000   23.249000  37.445000
3631   2   2   31.321000   34.7000  37.645000
3632   2   2   31.91000   32.331000  37.651000
3633   2   2   32.513000   29.941000  37.619000
3634   2   2   16.301000   36.286000  36.546000
3635   2   2   29.73000   36.973000  36.383000
3636   2   2   13.245000   21.193000  36.284000
3637   2   2   12.667000   23.681000  36.324000
3638   2   2   14.504000   34.541000  36.535000
3639   2   2   19.33000   33.143000  36.618000
3640   2   2   17.526000   31.399000  36.612000
3641   2   2   26.579000   21.958000  36.277000
3642   2   2   21.149000   25.798000  36.566000
3643   2   2   30.791000   32.06000  36.359000
3644   2   2   17.395000   40.579000  36.444000
3645   2   2   27.848000   35.232000  36.473000
3646   2   2   24.149000   22.644000  36.403000
3647   2   2   15.727000   29.66000  36.562000
3648   2   2   20.549000   28.245000  36.613000
3649   2   2   18.741000   26.497000  36.578000
3650   2   2   27.273000   37.7000  36.406000
3651   2   2   25.415000   35.923000  36.498000
3652   2   2   22.327000   39.096000  36.419000
3653   2   2   15.105000   32.109000  36.561000
3654   2   2   13.297000   30.381000  36.483000
3655   2   2   22.348000   20.88000  36.374000
3656   2   2   32.152000   27.204000  36.318000
3657   2   2   19.869000   39.853000  36.44000
3658   2   2   29.023000   30.335000  36.478000
3659   2   2   17.528000   22.312000  36.443000
3660   2   2   16.93000   24.743000  36.508000
3661   2   2   28.414000   32.771000  36.494000
3662   2   2   26.606000   31.037000  36.55000
3663   2   2   23.574000   34.179000  36.571000
3664   2   2   19.937000   21.616000  36.431000
3665   2   2   11.487000   28.628000  36.359000
3666   2   2   21.745000   23.346000  36.485000
3667   2   2   18.074000   38.076000  36.518000
3668   2   2   22.953000   36.622000  36.51000
3669   2   2   21.134000   34.886000  36.583000
3670   2   2   30.286000   25.454000  36.313000
3671   2   2   10.825000   31.088000  36.378000
3672   2   2   18.136000   19.916000  36.29000
3673   2   2   22.941000   18.387000  36.231000
3674   2   2   14.526000   25.439000  36.448000
3675   2   2   29.669000   27.9000  36.423000
3676   2   2   27.824000   26.176000  36.426000
3677   2   2   15.7000   38.697000  36.422000
3678   2   2   15.725000   20.603000  36.282000
3679   2   2   25.972000   24.424000  36.416000
3680   2   2   24.181000   31.737000  36.595000
3681   2   2   22.362000   29.993000  36.618000
3682   2   2   18.707000   35.599000  36.578000
3683   2   2   16.913000   33.846000  36.593000
3684   2   2   12.106000   26.159000  36.341000
3685   2   2   23.557000   25.105000  36.511000
3686   2   2   30.19000   34.487000  36.358000
3687   2   2   18.138000   28.948000  36.607000
3688   2   2   24.797000   38.378000  36.407000
3689   2   2   12.665000   32.823000  36.482000
3690   2   2   24.777000   20.159000  36.266000
3691   2   2   31.408000   29.632000  36.329000
3692   2   2   16.337000   27.199000  36.545000
3693   2   2   19.339000   24.05000  36.521000
3694   2   2   26.008000   33.48000  36.545000
3695   2   2   13.931000   27.915000  36.469000
3696   2   2   20.499000   37.351000  36.52000
3697   2   2   27.218000   28.603000  36.511000
3698   2   2   15.099000   22.98000  36.41000
3699   2   2   20.54000   19.216000  36.255000
3700   2   2   21.754000   32.438000  36.618000
3701   2   2   28.415000   23.725000  36.291000
3702   2   2   13.92000   36.948000  36.426000
3703   2   2   12.124000   35.22000  36.392000
3704   2   2   10.205000   33.573000  36.377000
3705   2   2   34.634000   26.467000  36.22000
3706   2   2   32.784000   24.809000  36.166000
3707   2   2   37.094000   25.733000  36.122000
3708   2   2   35.258000   24.026000  36.061000
3709   2   2   31.636000   38.704000  36.296000
3710   2   2   29.23000   39.398000  36.28000
3711   2   2   33.533000   40.411000  36.207000
3712   2   2   31.122000   41.167000  36.188000
3713   2   2   16.723000   43.114000  36.381000
3714   2   2   19.109000   42.344000  36.326000
3715   2   2   16.122000   45.658000  36.33000
3716   2   2   18.509000   44.873000  36.264000
3717   2   2   7.724000   34.336000  36.276000
3718   2   2   8.36000   31.921000  36.231000
3719   2   2   5.264000   35.118000  36.185000
3720   2   2   5.846000   32.657000  36.129000
3721   2   2   11.335000   19.42000  36.168000
3722   2   2   10.844000   21.847000  36.159000
3723   2   2   9.447000   17.655000  36.064000
3724   2   2   8.889000   20.103000  36.051000
3725   2   2   23.537000   15.878000  36.083000
3726   2   2   25.31000   17.624000  36.08000
3727   2   2   24.073000   13.372000  35.933000
3728   2   2   25.926000   15.083000  35.926000
3729   2   2   19.943000   30.694000  36.63000
3730   2   2   25.385000   26.862000  36.519000
3731   2   2   24.785000   29.296000  36.578000
3732   2   2   22.964000   27.549000  36.584000
3733   2   2   23.923000   22.898000  48.537000
3734   2   2   20.462000   36.845000  50.62000
3735   2   2   14.383000   27.884000  52.828000
3736   2   2   14.487000   32.711000  54.939000
3737   2   2   16.281000   34.485000  54.918000
3738   2   2   13.792000   30.343000  52.836000
3739   2   2   25.32000   35.458000  50.581000
3740   2   2   21.579000   22.221000  46.392000
3741   2   2   18.075000   36.227000  52.745000
3742   2   2   27.671000   31.24000  46.385000
3743   2   2   16.666000   23.654000  48.497000
3744   2   2   21.556000   22.265000  48.457000
3745   2   2   27.579000   26.431000  48.53000
3746   2   2   16.725000   23.666000  50.687000
3747   2   2   21.56000   22.286000  50.638000
3748   2   2   25.794000   24.639000  50.564000
3749   2   2   23.97000   22.899000  50.563000
3750   2   2   19.136000   22.954000  50.65000
3751   2   2   14.377000   27.908000  48.628000
3752   2   2   14.378000   32.739000  48.544000
3753   2   2   18.04000   36.284000  48.523000
3754   2   2   14.995000   25.452000  48.608000
3755   2   2   14.442000   32.731000  50.723000
3756   2   2   22.916000   36.168000  52.757000
3757   2   2   18.048000   36.241000  50.693000
3758   2   2   13.77000   30.344000  50.662000
3759   2   2   28.289000   28.781000  48.429000
3760   2   2   27.693000   31.247000  48.428000
3761   2   2   25.324000   35.444000  48.569000
3762   2   2   27.06000   33.708000  48.456000
3763   2   2   22.875000   36.142000  48.598000
3764   2   2   27.055000   33.679000  50.62000
3765   2   2   22.897000   36.167000  50.606000
3766   2   2   20.512000   36.844000  54.828000
3767   2   2   27.691000   31.241000  50.594000
3768   2   2   16.753000   23.673000  52.75000
3769   2   2   19.11000   22.935000  48.465000
3770   2   2   19.165000   22.958000  52.729000
3771   2   2   25.82000   24.636000  52.725000
3772   2   2   24.001000   22.896000  52.736000
3773   2   2   16.766000   23.665000  54.923000
3774   2   2   25.857000   24.631000  54.793000
3775   2   2   27.645000   26.402000  54.759000
3776   2   2   19.19000   22.958000  54.898000
3777   2   2   14.476000   32.715000  52.773000
3778   2   2   16.257000   34.487000  52.759000
3779   2   2   25.751000   24.658000  48.543000
3780   2   2   28.291000   28.781000  52.644000
3781   2   2   15.03000   25.444000  52.824000
3782   2   2   14.395000   27.878000  54.906000
3783   2   2   18.102000   36.227000  54.91000
3784   2   2   15.033000   25.439000  54.889000
3785   2   2   13.802000   30.326000  54.897000
3786   2   2   27.7000   31.242000  52.653000
3787   2   2   25.328000   35.454000  52.733000
3788   2   2   27.054000   33.683000  52.658000
3789   2   2   20.483000   36.839000  52.782000
3790   2   2   25.353000   35.47000  54.767000
3791   2   2   19.082000   22.939000  46.388000
3792   2   2   27.079000   33.683000  54.817000
3793   2   2   22.937000   36.18000  54.809000
3794   2   2   21.597000   22.285000  52.707000
3795   2   2   14.32000   32.736000  46.48000
3796   2   2   27.593000   26.408000  50.551000
3797   2   2   16.188000   34.539000  46.46000
3798   2   2   16.197000   34.529000  48.521000
3799   2   2   13.758000   30.366000  48.628000
3800   2   2   14.368000   27.89000  50.66000
3801   2   2   20.431000   36.836000  48.608000
3802   2   2   15.004000   25.452000  50.648000
3803   2   2   16.23000   34.501000  50.696000
3804   2   2   27.605000   26.406000  52.713000
3805   2   2   16.592000   23.656000  46.419000
3806   2   2   25.771000   24.653000  46.554000
3807   2   2   23.937000   22.878000  46.544000
3808   2   2   27.603000   26.431000  46.549000
3809   2   2   14.328000   27.899000  46.629000
3810   2   2   18.051000   36.34000  46.477000
3811   2   2   14.947000   25.425000  46.609000
3812   2   2   13.709000   30.374000  46.634000
3813   2   2   25.329000   35.466000  46.596000
3814   2   2   28.298000   28.732000  46.388000
3815   2   2   20.417000   36.877000  46.631000
3816   2   2   27.047000   33.755000  46.419000
3817   2   2   22.873000   36.175000  46.619000
3818   2   2   28.282000   28.792000  50.597000
3819   2   2   21.627000   22.28000  54.884000
3820   2   2   24.038000   22.887000  54.804000
3821   2   2   28.316000   28.789000  54.809000
3822   2   2   27.718000   31.244000  54.808000
3823   2   2   14.398000   27.876000  57.086000
3824   2   2   13.796000   30.34000  57.076000
3825   2   2   18.147000   36.236000  56.923000
3826   2   2   22.965000   36.211000  56.977000
3827   2   2   16.77000   23.677000  56.969000
3828   2   2   19.224000   22.983000  56.936000
3829   2   2   25.9000   24.617000  56.97000
3830   2   2   24.06000   22.856000  56.983000
3831   2   2   14.495000   32.692000  56.969000
3832   2   2   16.319000   34.473000  56.938000
3833   2   2   28.335000   28.788000  56.83000
3834   2   2   15.035000   25.414000  57.071000
3835   2   2   27.715000   31.247000  56.823000
3836   2   2   25.413000   35.499000  56.939000
3837   2   2   27.09000   33.702000  56.833000
3838   2   2   20.517000   36.874000  56.995000
3839   2   2   21.674000   22.293000  56.924000
3840   2   2   27.716000   26.41000  56.935000
3841   2   2   14.478000   32.71000  58.968000
3842   2   2   16.314000   34.502000  58.941000
3843   2   2   20.496000   36.927000  59.041000
3844   2   2   16.768000   23.661000  58.976000
3845   2   2   25.931000   24.632000  59.036000
3846   2   2   27.786000   26.441000  58.996000
3847   2   2   19.238000   22.96000  58.949000
3848   2   2   14.421000   27.883000  59.153000
3849   2   2   18.155000   36.287000  58.916000
3850   2   2   15.057000   25.371000  59.144000
3851   2   2   13.785000   30.394000  59.139000
3852   2   2   25.485000   35.518000  58.988000
3853   2   2   27.142000   33.747000  58.825000
3854   2   2   22.99000   36.223000  59.027000
3855   2   1   17.561000   51.964000  43.692000
3856   2   2   16.698000   52.5000  44.076000
3857   2   1   17.542000   51.953000  42.138000
3858   2   2   16.65000   52.492000  41.847000
3859   2   1   17.524000   51.931000  39.457000
3860   2   2   16.632000   52.465000  39.762000
3861   2   1   17.521000   51.918000  37.902000
3862   2   2   16.64000   52.439000  37.535000
3863   2   2   20.687000   59.247000  39.794000
3864   2   2   20.715000   59.258000  41.894000
3865   2   2   19.339000   56.998000  39.789000
3866   2   2   19.369000   57.015000  41.879000
3867   2   2   20.762000   59.198000  44.156000
3868   2   2   19.425000   56.976000  44.119000
3869   2   2   20.619000   59.215000  37.535000
3870   2   2   19.303000   56.97000  37.551000
3871   2   2   22.776000   60.467000  39.666000
3872   2   2   22.826000   60.463000  41.888000
3873   2   2   22.86000   60.448000  44.057000
3874   2   2   22.708000   60.473000  37.5000
3875   2   1   42.552000   42.787000  41.745000
3876   2   1   41.434000   41.753000  39.668000
3877   2   1   41.488000   41.779000  41.224000
3878   2   1   42.455000   42.738000  39.028000
3879   2   1   41.557000   41.852000  43.934000
3880   2   1   42.594000   42.82000  43.307000
3881   2   1   42.387000   42.713000  37.467000
3882   2   1   41.311000   41.728000  36.956000
3883   2   1   42.189000   44.183000  39.577000
3884   2   1   42.245000   44.212000  41.158000
3885   2   1   39.986000   42.065000  39.177000
3886   2   1   40.076000   42.11000  41.812000
3887   2   1   40.828000   44.63000  41.725000
3888   2   1   39.668000   43.558000  39.69000
3889   2   1   39.721000   43.586000  41.265000
3890   2   1   40.735000   44.581000  39.105000
3891   2   1   42.32000   44.267000  43.779000
3892   2   1   40.123000   42.142000  43.388000
3893   2   1   39.8000   43.633000  43.852000
3894   2   1   40.876000   44.653000  43.303000
3895   2   1   42.07000   44.137000  36.956000
3896   2   1   39.925000   42.041000  37.602000
3897   2   1   40.67000   44.545000  37.527000
3898   2   1   39.565000   43.509000  37.101000
3899   2   1   40.406000   46.041000  39.609000
3900   2   1   40.461000   46.071000  41.188000
3901   2   1   38.24000   44.033000  39.212000
3902   2   1   38.327000   44.08000  41.826000
3903   2   1   39.075000   46.502000  41.788000
3904   2   1   37.902000   45.502000  39.714000
3905   2   1   37.953000   45.531000  41.292000
3906   2   1   38.982000   46.452000  39.1000
3907   2   1   40.551000   46.097000  43.807000
3908   2   1   38.378000   44.102000  43.393000
3909   2   1   38.044000   45.554000  43.9000
3910   2   1   39.128000   46.515000  43.344000
3911   2   1   40.305000   45.968000  36.99000
3912   2   1   38.186000   43.999000  37.645000
3913   2   1   38.926000   46.41000  37.544000
3914   2   1   37.816000   45.43000  37.104000
3915   2   1   45.811000   45.945000  41.566000
3916   2   1   44.705000   44.882000  39.469000
3917   2   1   44.763000   44.911000  41.034000
3918   2   1   45.707000   45.892000  38.815000
3919   2   1   44.837000   44.948000  43.738000
3920   2   1   45.856000   45.966000  43.142000
3921   2   1   45.632000   45.852000  37.239000
3922   2   1   44.573000   44.813000  36.766000
3923   2   1   45.357000   47.302000  39.389000
3924   2   1   45.415000   47.332000  40.965000
3925   2   1   43.243000   45.205000  38.977000
3926   2   1   43.341000   45.255000  41.628000
3927   2   1   44.034000   47.721000  41.588000
3928   2   1   42.893000   46.661000  39.491000
3929   2   1   42.951000   46.691000  41.085000
3930   2   1   43.932000   47.669000  38.861000
3931   2   1   45.495000   47.374000  43.691000
3932   2   1   43.389000   45.276000  43.214000
3933   2   1   43.035000   46.72000  43.708000
3934   2   1   44.08000   47.741000  43.157000
3935   2   1   45.227000   47.236000  36.663000
3936   2   1   43.173000   45.165000  37.392000
3937   2   1   43.859000   47.627000  37.292000
3938   2   1   42.778000   46.587000  36.868000
3939   2   1   41.457000   47.024000  38.988000
3940   2   1   41.555000   47.075000  41.685000
3941   2   1   41.606000   47.09000  43.24000
3942   2   1   41.392000   46.981000  37.433000
3943   2   2   41.569000   41.947000  45.019000
3944   2   2   41.238000   41.784000  35.87000
3945   2   2   42.358000   44.295000  44.868000
3946   2   2   39.828000   43.664000  44.941000
3947   2   2   42.023000   44.119000  35.867000
3948   2   2   39.512000   43.495000  36.012000
3949   2   2   40.589000   46.123000  44.897000
3950   2   2   38.085000   45.578000  44.99000
3951   2   2   40.258000   45.949000  35.9000
3952   2   2   37.778000   45.409000  36.015000
3953   2   2   43.339000   42.374000  37.063000
3954   2   2   41.651000   40.734000  37.165000
3955   2   2   38.841000   47.52000  41.48000
3956   2   2   38.771000   47.482000  39.386000
3957   2   2   38.923000   47.523000  43.71000
3958   2   2   38.692000   47.402000  37.156000
3959   2   2   43.527000   42.439000  41.418000
3960   2   2   41.731000   40.771000  39.346000
3961   2   2   41.81000   40.807000  41.554000
3962   2   2   43.452000   42.402000  39.298000
3963   2   2   41.875000   40.846000  43.733000
3964   2   2   43.574000   42.496000  43.653000
3965   2   2   44.856000   45.002000  44.826000
3966   2   2   44.504000   44.825000  35.678000
3967   2   2   45.493000   47.364000  44.78000
3968   2   2   43.059000   46.748000  44.798000
3969   2   2   45.137000   47.18000  35.578000
3970   2   2   42.715000   46.571000  35.779000
3971   2   2   46.606000   45.573000  36.833000
3972   2   2   44.91000   43.812000  37.015000
3973   2   2   46.808000   45.668000  41.226000
3974   2   2   45.002000   43.883000  39.161000
3975   2   2   45.085000   43.924000  41.354000
3976   2   2   46.728000   45.627000  39.087000
3977   2   2   45.152000   43.937000  43.501000
3978   2   2   46.859000   45.703000  43.481000
3979   2   1   36.605000   46.021000  43.439000
3980   2   2   36.428000   47.034000  43.804000
3981   2   1   36.549000   46.004000  41.885000
3982   2   2   36.338000   47.025000  41.575000
3983   2   1   36.465000   45.955000  39.202000
3984   2   2   36.275000   46.987000  39.489000
3985   2   1   36.421000   45.918000  37.648000
3986   2   2   36.218000   46.917000  37.258000
3987   2   2   43.688000   48.688000  39.155000
3988   2   2   43.765000   48.727000  41.272000
3989   2   2   41.22000   48.047000  39.276000
3990   2   2   41.293000   48.086000  41.375000
3991   2   2   43.827000   48.739000  43.516000
3992   2   2   41.372000   48.092000  43.604000
3993   2   2   43.576000   48.611000  36.914000
3994   2   2   41.128000   47.968000  37.049000
3995   2   2   46.08000   48.032000  39.026000
3996   2   2   46.163000   48.074000  41.241000
3997   2   2   46.238000   48.117000  43.409000
3998   2   2   45.989000   47.989000  36.852000
3999   2   1   45.265000   23.376000  41.758000
4000   2   1   43.785000   23.557000  39.659000
4001   2   1   43.826000   23.537000  41.214000
4002   2   1   45.192000   23.409000  39.037000
4003   2   1   43.898000   23.541000  43.934000
4004   2   1   45.301000   23.37000  43.32000
4005   2   1   45.144000   23.441000  37.475000
4006   2   1   43.711000   23.627000  36.944000
4007   2   1   46.108000   24.548000  39.596000
4008   2   1   46.151000   24.53000  41.178000
4009   2   1   43.092000   24.86000  39.149000
4010   2   1   43.159000   24.824000  41.786000
4011   2   1   45.548000   25.886000  41.73000
4012   2   1   44.004000   26.075000  39.673000
4013   2   1   44.044000   26.055000  41.248000
4014   2   1   45.48000   25.917000  39.109000
4015   2   1   46.21000   24.519000  43.801000
4016   2   1   43.196000   24.81000  43.362000
4017   2   1   44.101000   26.031000  43.837000
4018   2   1   45.578000   25.869000  43.309000
4019   2   1   46.027000   24.599000  36.974000
4020   2   1   43.047000   24.889000  37.574000
4021   2   1   45.429000   25.938000  37.531000
4022   2   1   43.93000   26.115000  37.084000
4023   2   1   46.374000   27.113000  39.62000
4024   2   1   46.414000   27.095000  41.2000
4025   2   1   43.433000   27.47000  39.186000
4026   2   1   43.498000   27.438000  41.799000
4027   2   1   45.828000   28.437000  41.786000
4028   2   1   44.32000   28.686000  39.694000
4029   2   1   44.359000   28.668000  41.273000
4030   2   1   45.761000   28.468000  39.099000
4031   2   1   46.46000   27.053000  43.819000
4032   2   1   43.534000   27.416000  43.367000
4033   2   1   44.41000   28.621000  43.879000
4034   2   1   45.856000   28.41000  43.343000
4035   2   1   46.284000   27.133000  37.002000
4036   2   1   43.39000   27.485000  37.618000
4037   2   1   45.71000   28.478000  37.543000
4038   2   1   44.24000   28.698000  37.088000
4039   2   1   49.74000   22.882000  41.646000
4040   2   1   48.241000   23.05000  39.53000
4041   2   1   48.285000   23.033000  41.095000
4042   2   1   49.662000   22.91000  38.896000
4043   2   1   48.328000   23.013000  43.799000
4044   2   1   49.766000   22.87000  43.223000
4045   2   1   49.6000   22.93000  37.319000
4046   2   1   48.133000   23.087000  36.828000
4047   2   1   50.518000   24.083000  39.471000
4048   2   1   50.562000   24.068000  41.048000
4049   2   1   47.569000   24.385000  39.019000
4050   2   1   47.641000   24.355000  41.671000
4051   2   1   49.975000   25.388000  41.656000
4052   2   1   48.455000   25.588000  39.537000
4053   2   1   48.497000   25.571000  41.132000
4054   2   1   49.901000   25.415000  38.926000
4055   2   1   50.611000   24.048000  43.776000
4056   2   1   47.669000   24.338000  43.257000
4057   2   1   48.541000   25.537000  43.756000
4058   2   1   50.001000   25.373000  43.226000
4059   2   1   50.414000   24.118000  36.744000
4060   2   1   47.511000   24.403000  37.434000
4061   2   1   49.841000   25.433000  37.356000
4062   2   1   48.356000   25.612000  36.914000
4063   2   1   47.815000   26.926000  39.019000
4064   2   1   47.885000   26.896000  41.717000
4065   2   1   47.91000   26.874000  43.274000
4066   2   1   47.759000   26.938000  37.463000
4067   2   2   43.968000   23.608000  45.019000
4068   2   2   43.715000   23.703000  35.857000
4069   2   2   46.241000   24.511000  44.891000
4070   2   2   44.128000   26.033000  44.927000
4071   2   2   45.998000   24.617000  35.883000
4072   2   2   43.901000   26.143000  35.994000
4073   2   2   46.489000   27.043000  44.909000
4074   2   2   44.44000   28.608000  44.969000
4075   2   2   46.253000   27.15000  35.912000
4076   2   2   44.213000   28.709000  35.998000
4077   2   2   45.498000   22.492000  37.078000
4078   2   2   43.182000   22.725000  37.167000
4079   2   2   46.457000   29.273000  41.484000
4080   2   2   46.405000   29.296000  39.389000
4081   2   2   46.487000   29.22000  43.713000
4082   2   2   46.321000   29.296000  37.16000
4083   2   2   45.628000   22.405000  41.436000
4084   2   2   43.244000   22.689000  39.337000
4085   2   2   43.301000   22.663000  41.551000
4086   2   2   45.57000   22.43000  39.315000
4087   2   2   43.352000   22.641000  43.743000
4088   2   2   45.678000   22.413000  43.675000
4089   2   2   48.366000   23.037000  44.887000
4090   2   2   48.108000   23.133000  35.74000
4091   2   2   50.585000   24.047000  44.865000
4092   2   2   48.564000   25.54000  44.847000
4093   2   2   50.324000   24.14000  35.658000
4094   2   2   48.316000   25.64000  35.824000
4095   2   2   50.005000   21.996000  36.926000
4096   2   2   47.573000   22.194000  37.083000
4097   2   2   50.162000   21.933000  41.317000
4098   2   2   47.665000   22.182000  39.223000
4099   2   2   47.727000   22.158000  41.415000
4100   2   2   50.101000   21.954000  39.18000
4101   2   2   47.756000   22.123000  43.559000
4102   2   2   50.195000   21.929000  43.573000
4103   2   1   43.827000   30.023000  43.408000
4104   2   2   44.479000   30.817000  43.773000
4105   2   1   43.785000   30.05000  41.854000
4106   2   2   44.425000   30.875000  41.547000
4107   2   1   43.718000   30.077000  39.173000
4108   2   2   44.371000   30.897000  39.464000
4109   2   1   43.679000   30.084000  37.619000
4110   2   2   44.307000   30.889000  37.236000
4111   2   2   50.532000   26.251000  39.222000
4112   2   2   50.587000   26.231000  41.342000
4113   2   2   48.446000   27.764000  39.31000
4114   2   2   48.498000   27.742000  41.412000
4115   2   2   50.607000   26.204000  43.588000
4116   2   2   48.525000   27.696000  43.641000
4117   2   2   50.429000   26.269000  36.978000
4118   2   2   48.355000   27.768000  37.081000
4119   2   2   51.545000   23.983000  39.121000
4120   2   2   51.607000   23.963000  41.337000
4121   2   2   51.661000   23.944000  43.51000
4122   2   2   51.478000   24.006000  36.945000
4123   2   1   34.089000   7.934000  41.335000
4124   2   1   33.052000   9.107000  39.285000
4125   2   1   33.095000   9.027000  40.839000
4126   2   1   34.009000   8.071000  38.624000
4127   2   1   33.195000   8.913000  43.544000
4128   2   1   34.139000   7.866000  42.895000
4129   2   1   33.967000   8.162000  37.065000
4130   2   1   32.998000   9.267000  36.58000
4131   2   1   35.47000   8.298000  39.16000
4132   2   1   35.517000   8.218000  40.739000
4133   2   1   33.4000   10.554000  38.808000
4134   2   1   33.47000   10.421000  41.439000
4135   2   1   35.976000   9.62000  41.317000
4136   2   1   34.909000   10.836000  39.31000
4137   2   1   34.953000   10.757000  40.884000
4138   2   1   35.9000   9.751000  38.702000
4139   2   1   35.6000   8.106000  43.356000
4140   2   1   33.517000   10.345000  43.013000
4141   2   1   35.026000   10.636000  43.466000
4142   2   1   36.016000   9.548000  42.895000
4143   2   1   35.397000   8.451000  36.544000
4144   2   1   33.361000   10.637000  37.235000
4145   2   1   35.849000   9.837000  37.126000
4146   2   1   34.837000   10.974000  36.727000
4147   2   1   37.374000   10.041000  39.194000
4148   2   1   37.419000   9.964000  40.771000
4149   2   1   35.419000   12.266000  38.849000
4150   2   1   35.491000   12.137000  41.46000
4151   2   1   37.89000   11.337000  41.384000
4152   2   1   36.898000   12.57000  39.341000
4153   2   1   36.942000   12.495000  40.917000
4154   2   1   37.814000   11.468000  38.701000
4155   2   1   37.473000   9.838000  43.386000
4156   2   1   35.531000   12.057000  43.025000
4157   2   1   36.995000   12.36000  43.521000
4158   2   1   37.922000   11.26000  42.938000
4159   2   1   37.274000   10.178000  36.579000
4160   2   1   35.372000   12.341000  37.284000
4161   2   1   37.757000   11.545000  37.147000
4162   2   1   36.804000   12.694000  36.736000
4163   2   1   37.179000   4.606000  41.09000
4164   2   1   36.11000   5.763000  39.02000
4165   2   1   36.161000   5.684000  40.584000
4166   2   1   37.087000   4.743000  38.343000
4167   2   1   36.235000   5.575000  43.286000
4168   2   1   37.223000   4.542000  42.666000
4169   2   1   37.026000   4.837000  36.769000
4170   2   1   36.008000   5.927000  36.322000
4171   2   1   38.514000   5.055000  38.9000
4172   2   1   38.566000   4.978000  40.474000
4173   2   1   36.461000   7.225000  38.539000
4174   2   1   36.543000   7.092000  41.186000
4175   2   1   38.993000   6.345000  41.107000
4176   2   1   37.932000   7.535000  39.037000
4177   2   1   37.98000   7.457000  40.63000
4178   2   1   38.906000   6.477000  38.383000
4179   2   1   38.646000   4.867000  43.197000
4180   2   1   36.583000   7.023000  42.771000
4181   2   1   38.041000   7.341000  43.25000
4182   2   1   39.033000   6.28000  42.675000
4183   2   1   38.411000   5.214000  36.179000
4184   2   1   36.402000   7.315000  36.956000
4185   2   1   38.845000   6.567000  36.816000
4186   2   1   37.827000   7.682000  36.419000
4187   2   1   38.323000   8.97000  38.548000
4188   2   1   38.403000   8.838000  41.24000
4189   2   1   38.437000   8.768000  42.795000
4190   2   1   38.262000   9.054000  36.994000
4191   2   2   33.305000   8.885000  44.628000
4192   2   2   33.041000   9.349000  35.495000
4193   2   2   35.638000   8.054000  44.445000
4194   2   2   35.068000   10.589000  44.555000
4195   2   2   35.369000   8.51000  35.456000
4196   2   2   34.816000   11.04000  35.639000
4197   2   2   37.511000   9.783000  44.475000
4198   2   2   37.029000   12.301000  44.609000
4199   2   2   37.245000   10.238000  35.49000
4200   2   2   36.774000   12.748000  35.647000
4201   2   2   33.603000   7.223000  36.653000
4202   2   2   31.991000   8.96000  36.803000
4203   2   2   38.91000   11.55000  41.067000
4204   2   2   38.852000   11.648000  38.977000
4205   2   2   38.938000   11.434000  43.294000
4206   2   2   38.752000   11.757000  36.751000
4207   2   2   33.718000   6.97000  40.998000
4208   2   2   32.052000   8.845000  38.976000
4209   2   2   32.113000   8.732000  41.176000
4210   2   2   33.654000   7.078000  38.884000
4211   2   2   32.173000   8.628000  43.354000
4212   2   2   33.801000   6.887000  43.23000
4213   2   2   36.307000   5.544000  44.373000
4214   2   2   36.005000   6.006000  35.235000
4215   2   2   38.653000   4.855000  44.287000
4216   2   2   38.083000   7.302000  44.339000
4217   2   2   38.343000   5.315000  35.096000
4218   2   2   37.798000   7.756000  35.331000
4219   2   2   36.718000   3.874000  36.358000
4220   2   2   35.002000   5.613000  36.582000
4221   2   2   36.876000   3.619000  40.744000
4222   2   2   35.101000   5.492000  38.725000
4223   2   2   35.172000   5.379000  40.915000
4224   2   2   36.803000   3.726000  38.608000
4225   2   2   35.214000   5.282000  43.064000
4226   2   2   36.944000   3.541000  42.997000
4227   2   1   37.484000   13.806000  43.079000
4228   2   2   38.506000   13.955000  43.43000
4229   2   1   37.444000   13.891000  41.527000
4230   2   2   38.466000   14.088000  41.208000
4231   2   1   37.369000   14.017000  38.85000
4232   2   2   38.408000   14.183000  39.128000
4233   2   1   37.322000   14.083000  37.297000
4234   2   2   38.322000   14.272000  36.904000
4235   2   2   39.935000   6.693000  38.665000
4236   2   2   40.001000   6.593000  40.78000
4237   2   2   39.355000   9.178000  38.825000
4238   2   2   39.417000   9.079000  40.922000
4239   2   2   40.042000   6.508000  43.022000
4240   2   2   39.448000   8.974000  43.148000
4241   2   2   39.83000   6.828000  36.427000
4242   2   2   39.252000   9.295000  36.601000
4243   2   2   39.221000   4.318000  38.52000
4244   2   2   39.295000   4.211000  40.732000
4245   2   2   39.37000   4.112000  42.896000
4246   2   2   39.148000   4.431000  36.351000
4247   2   1   14.953000   5.08000  41.444000
4248   2   1   15.014000   6.608000  39.373000
4249   2   1   15.018000   6.541000  40.927000
4250   2   1   14.945000   5.2000  38.727000
4251   2   1   15.06000   6.422000  43.639000
4252   2   1   14.97000   5.017000  43.005000
4253   2   1   14.952000   5.274000  37.166000
4254   2   1   15.043000   6.726000  36.658000
4255   2   1   16.147000   4.341000  39.253000
4256   2   1   16.151000   4.271000  40.834000
4257   2   1   16.269000   7.379000  38.865000
4258   2   1   16.276000   7.266000  41.5000
4259   2   1   17.478000   4.94000  41.38000
4260   2   1   17.547000   6.528000  39.353000
4261   2   1   17.551000   6.46000  40.927000
4262   2   1   17.47000   5.057000  38.761000
4263   2   1   16.179000   4.164000  43.454000
4264   2   1   16.288000   7.198000  43.075000
4265   2   1   17.567000   6.351000  43.513000
4266   2   1   17.485000   4.88000  42.958000
4267   2   1   16.157000   4.469000  36.633000
4268   2   1   16.271000   7.448000  37.29000
4269   2   1   17.467000   5.137000  37.184000
4270   2   1   17.546000   6.651000  36.766000
4271   2   1   18.726000   4.228000  39.239000
4272   2   1   18.731000   4.158000  40.818000
4273   2   1   18.904000   7.184000  38.858000
4274   2   1   18.913000   7.067000  41.47000
4275   2   1   20.046000   4.807000  41.398000
4276   2   1   20.177000   6.364000  39.333000
4277   2   1   20.183000   6.294000  40.911000
4278   2   1   20.037000   4.927000  38.712000
4279   2   1   18.728000   4.06000  43.436000
4280   2   1   18.916000   6.999000  43.037000
4281   2   1   20.175000   6.188000  43.517000
4282   2   1   20.042000   4.746000  42.953000
4283   2   1   18.705000   4.367000  36.623000
4284   2   1   18.895000   7.256000  37.291000
4285   2   1   20.023000   5.008000  37.157000
4286   2   1   20.15000   6.496000  36.728000
4287   2   1   14.745000   0.572000  41.255000
4288   2   1   14.787000   2.115000  39.165000
4289   2   1   14.794000   2.044000  40.729000
4290   2   1   14.731000   0.698000  38.506000
4291   2   1   14.814000   1.951000  43.432000
4292   2   1   14.756000   0.517000  42.831000
4293   2   1   14.727000   0.788000  36.931000
4294   2   1   14.783000   2.271000  36.464000
4295   2   1   15.964000   -0.092000  39.052000
4296   2   1   15.972000   -0.163000  40.627000
4297   2   1   16.069000   2.881000  38.65000
4298   2   1   16.079000   2.761000  41.3000
4299   2   1   17.259000   0.496000  41.229000
4300   2   1   17.332000   2.062000  39.136000
4301   2   1   17.338000   1.991000  40.73000
4302   2   1   17.246000   0.619000  38.501000
4303   2   1   15.993000   -0.261000  43.354000
4304   2   1   16.085000   2.704000  42.886000
4305   2   1   17.343000   1.899000  43.353000
4306   2   1   17.267000   0.441000  42.798000
4307   2   1   15.957000   0.061000  36.327000
4308   2   1   16.063000   2.967000  37.066000
4309   2   1   17.239000   0.707000  36.933000
4310   2   1   17.315000   2.209000  36.515000
4311   2   1   18.62000   2.791000  38.613000
4312   2   1   18.63000   2.67000  41.309000
4313   2   1   18.631000   2.615000  42.865000
4314   2   1   18.609000   2.876000  37.058000
4315   2   2   15.134000   6.34000  44.723000
4316   2   2   15.119000   6.739000  35.571000
4317   2   2   16.189000   4.114000  44.543000
4318   2   2   17.586000   6.301000  44.602000
4319   2   2   16.159000   4.519000  35.544000
4320   2   2   17.557000   6.702000  35.676000
4321   2   2   18.736000   4.01000  44.525000
4322   2   2   20.179000   6.136000  44.606000
4323   2   2   18.705000   4.418000  35.533000
4324   2   2   20.145000   6.544000  35.638000
4325   2   2   14.022000   4.868000  36.775000
4326   2   2   14.115000   7.21000  36.883000
4327   2   2   20.912000   4.234000  41.071000
4328   2   2   20.905000   4.327000  38.979000
4329   2   2   20.892000   4.156000  43.3000
4330   2   2   20.87000   4.454000  36.752000
4331   2   2   14.001000   4.663000  41.128000
4332   2   2   14.117000   7.114000  39.067000
4333   2   2   14.12000   7.02000  41.276000
4334   2   2   13.995000   4.756000  39.01000
4335   2   2   14.133000   6.932000  43.453000
4336   2   2   14.043000   4.574000  43.364000
4337   2   2   14.857000   1.896000  44.519000
4338   2   2   14.814000   2.317000  35.376000
4339   2   2   16.006000   -0.255000  44.443000
4340   2   2   17.364000   1.857000  44.443000
4341   2   2   15.96000   0.169000  35.242000
4342   2   2   17.327000   2.268000  35.426000
4343   2   2   13.816000   0.33000  36.542000
4344   2   2   13.858000   2.769000  36.738000
4345   2   2   13.821000   0.094000  40.93000
4346   2   2   13.881000   2.64000  38.878000
4347   2   2   13.889000   2.539000  41.069000
4348   2   2   13.81000   0.193000  38.794000
4349   2   2   13.886000   2.471000  43.215000
4350   2   2   13.85000   0.022000  43.185000
4351   2   1   21.53000   6.868000  43.041000
4352   2   2   22.367000   6.259000  43.383000
4353   2   1   21.532000   6.94000  41.488000
4354   2   2   22.389000   6.357000  41.158000
4355   2   1   21.52000   7.063000  38.808000
4356   2   2   22.381000   6.453000  39.075000
4357   2   1   21.505000   7.135000  37.254000
4358   2   2   22.341000   6.564000  36.85000
4359   2   2   18.125000   0.039000  38.776000
4360   2   2   18.135000   -0.055000  40.894000
4361   2   2   19.499000   2.208000  38.882000
4362   2   2   19.508000   2.116000  40.981000
4363   2   2   18.141000   -0.116000  43.139000
4364   2   2   19.495000   2.045000  43.21000
4365   2   2   18.107000   0.181000  36.534000
4366   2   2   19.469000   2.339000  36.655000
4367   2   2   15.926000   -1.117000  38.685000
4368   2   2   15.938000   -1.218000  40.899000
4369   2   2   15.953000   -1.311000  43.07000
4370   2   2   15.917000   -1.011000  36.511000
4371   2   1   -4.03000   32.427000  41.869000
4372   2   1   -2.558000   32.554000  39.753000
4373   2   1   -2.585000   32.529000  41.309000
4374   2   1   -3.986000   32.473000  39.151000
4375   2   1   -2.624000   32.452000  44.024000
4376   2   1   -4.048000   32.39000  43.432000
4377   2   1   -3.954000   32.488000  37.589000
4378   2   1   -2.51000   32.563000  37.04000
4379   2   1   -4.697000   31.181000  39.691000
4380   2   1   -4.722000   31.153000  41.272000
4381   2   1   -1.659000   31.397000  39.203000
4382   2   1   -1.703000   31.358000  41.84000
4383   2   1   -3.892000   29.907000  41.781000
4384   2   1   -2.363000   30.03000  39.704000
4385   2   1   -2.387000   30.006000  41.281000
4386   2   1   -3.854000   29.95000  39.161000
4387   2   1   -4.746000   31.091000  43.894000
4388   2   1   -1.726000   31.33000  43.417000
4389   2   1   -2.418000   29.962000  43.868000
4390   2   1   -3.905000   29.88000  43.36000
4391   2   1   -4.647000   31.209000  37.069000
4392   2   1   -1.631000   31.414000  37.627000
4393   2   1   -3.822000   29.976000  37.582000
4394   2   1   -2.318000   30.063000  37.118000
4395   2   1   -4.529000   28.607000  39.65000
4396   2   1   -4.55000   28.58000  41.23000
4397   2   1   -1.585000   28.75000  39.178000
4398   2   1   -1.623000   28.714000  41.793000
4399   2   1   -3.747000   27.341000  41.777000
4400   2   1   -2.251000   27.395000  39.667000
4401   2   1   -2.272000   27.373000  41.246000
4402   2   1   -3.712000   27.384000  39.089000
4403   2   1   -4.568000   28.551000  43.85000
4404   2   1   -1.646000   28.696000  43.36000
4405   2   1   -2.301000   27.355000  43.855000
4406   2   1   -3.76000   27.326000  43.333000
4407   2   1   -4.473000   28.666000  37.032000
4408   2   1   -1.562000   28.777000  37.61000
4409   2   1   -3.682000   27.419000  37.533000
4410   2   1   -2.204000   27.451000  37.06000
4411   2   1   -8.546000   32.124000  41.832000
4412   2   1   -7.069000   32.282000  39.694000
4413   2   1   -7.094000   32.25000  41.26000
4414   2   1   -8.504000   32.183000  39.081000
4415   2   1   -7.102000   32.19000  43.965000
4416   2   1   -8.551000   32.088000  43.409000
4417   2   1   -8.463000   32.215000  37.504000
4418   2   1   -6.997000   32.332000  36.991000
4419   2   1   -9.133000   30.863000  39.632000
4420   2   1   -9.156000   30.829000  41.209000
4421   2   1   -6.178000   31.101000  39.137000
4422   2   1   -6.217000   31.051000  41.789000
4423   2   1   -8.337000   29.62000  41.771000
4424   2   1   -6.837000   29.75000  39.631000
4425   2   1   -6.859000   29.719000  41.226000
4426   2   1   -8.3000   29.677000  39.042000
4427   2   1   -9.167000   30.764000  43.937000
4428   2   1   -6.225000   31.021000  43.375000
4429   2   1   -6.869000   29.676000  43.85000
4430   2   1   -8.341000   29.587000  43.341000
4431   2   1   -9.068000   30.917000  36.906000
4432   2   1   -6.141000   31.133000  37.551000
4433   2   1   -8.262000   29.711000  37.473000
4434   2   1   -6.775000   29.81000  37.008000
4435   2   1   -5.987000   28.557000  39.069000
4436   2   1   -6.023000   28.507000  41.766000
4437   2   1   -6.029000   28.484000  43.323000
4438   2   1   -5.952000   28.594000  37.513000
4439   2   2   -2.665000   32.352000  45.108000
4440   2   2   -2.519000   32.509000  35.952000
4441   2   2   -4.759000   31.066000  44.984000
4442   2   2   -2.43000   29.931000  44.958000
4443   2   2   -4.633000   31.222000  35.978000
4444   2   2   -2.301000   30.065000  36.028000
4445   2   2   -4.583000   28.529000  44.94000
4446   2   2   -2.321000   27.341000  44.945000
4447   2   2   -4.457000   28.68000  35.941000
4448   2   2   -2.189000   27.466000  35.969000
4449   2   2   -4.473000   33.37000  37.221000
4450   2   2   -2.126000   33.537000  37.274000
4451   2   2   -4.231000   26.42000  41.458000
4452   2   2   -4.207000   26.454000  39.364000
4453   2   2   -4.241000   26.413000  43.689000
4454   2   2   -4.157000   26.521000  37.135000
4455   2   2   -4.561000   33.328000  41.576000
4456   2   2   -2.169000   33.509000  39.45000
4457   2   2   -2.206000   33.472000  41.66000
4458   2   2   -4.524000   33.365000  39.457000
4459   2   2   -2.238000   33.436000  43.845000
4460   2   2   -4.582000   33.259000  43.812000
4461   2   2   -7.117000   32.126000  45.053000
4462   2   2   -6.985000   32.318000  35.902000
4463   2   2   -9.125000   30.738000  45.025000
4464   2   2   -6.873000   29.638000  44.941000
4465   2   2   -8.998000   30.938000  35.819000
4466   2   2   -6.75000   29.815000  35.917000
4467   2   2   -9.034000   33.072000  37.143000
4468   2   2   -6.596000   33.303000  37.264000
4469   2   2   -9.136000   32.99000  41.535000
4470   2   2   -6.658000   33.245000  39.407000
4471   2   2   -6.693000   33.201000  41.6000
4472   2   2   -9.101000   33.037000  39.397000
4473   2   2   -6.699000   33.174000  43.749000
4474   2   2   -9.136000   32.927000  43.791000
4475   2   1   -1.496000   26.088000  43.35000
4476   2   2   -1.997000   25.186000  43.704000
4477   2   1   -1.47000   26.1000  41.796000
4478   2   2   -1.964000   25.184000  41.477000
4479   2   1   -1.434000   26.134000  39.114000
4480   2   2   -1.941000   25.213000  39.393000
4481   2   1   -1.417000   26.164000  37.559000
4482   2   2   -1.913000   25.275000  37.167000
4483   2   2   -8.767000   28.734000  39.321000
4484   2   2   -8.794000   28.689000  41.44000
4485   2   2   -6.46000   27.616000  39.343000
4486   2   2   -6.485000   27.576000  41.444000
4487   2   2   -8.782000   28.651000  43.685000
4488   2   2   -6.486000   27.557000  43.674000
4489   2   2   -8.699000   28.793000  37.078000
4490   2   2   -6.404000   27.683000  37.115000
4491   2   2   -10.167000   30.788000  39.296000
4492   2   2   -10.199000   30.738000  41.512000
4493   2   2   -10.223000   30.685000  43.686000
4494   2   2   -10.131000   30.833000  37.125000
4495   2   1   4.753000   49.283000  42.154000
4496   2   1   5.931000   48.44000  40.013000
4497   2   1   5.922000   48.421000  41.569000
4498   2   1   4.769000   49.319000  39.44000
4499   2   1   5.889000   48.36000  44.274000
4500   2   1   4.742000   49.252000  43.716000
4501   2   1   4.776000   49.328000  37.878000
4502   2   1   5.928000   48.449000  37.308000
4503   2   1   3.385000   48.799000  39.993000
4504   2   1   3.377000   48.778000  41.574000
4505   2   1   5.842000   46.979000  39.454000
4506   2   1   5.828000   46.947000  42.086000
4507   2   1   3.205000   47.287000  42.071000
4508   2   1   4.415000   46.404000  39.967000
4509   2   1   4.407000   46.385000  41.543000
4510   2   1   3.219000   47.322000  39.451000
4511   2   1   3.362000   48.721000  44.194000
4512   2   1   5.816000   46.924000  43.662000
4513   2   1   4.394000   46.344000  44.129000
4514   2   1   3.204000   47.26000  43.65000
4515   2   1   3.399000   48.815000  37.373000
4516   2   1   5.848000   46.995000  37.878000
4517   2   1   3.236000   47.337000  37.872000
4518   2   1   4.431000   46.43000  37.381000
4519   2   1   1.839000   46.736000  39.956000
4520   2   1   1.83000   46.716000  41.535000
4521   2   1   4.149000   44.936000  39.426000
4522   2   1   4.135000   44.905000  42.041000
4523   2   1   1.629000   45.259000  42.068000
4524   2   1   2.761000   44.349000  39.928000
4525   2   1   2.752000   44.332000  41.506000
4526   2   1   1.644000   45.292000  39.379000
4527   2   1   1.839000   46.679000  44.156000
4528   2   1   4.128000   44.889000  43.609000
4529   2   1   2.756000   44.309000  44.118000
4530   2   1   1.633000   45.241000  43.624000
4531   2   1   1.877000   46.772000  37.335000
4532   2   1   4.162000   44.958000  37.858000
4533   2   1   1.667000   45.314000  37.823000
4534   2   1   2.797000   44.39000  37.317000
4535   2   1   1.044000   51.967000  42.2000
4536   2   1   2.248000   51.168000  40.033000
4537   2   1   2.238000   51.145000  41.6000
4538   2   1   1.06000   52.008000  39.447000
4539   2   1   2.239000   51.078000  44.307000
4540   2   1   1.044000   51.929000  43.778000
4541   2   1   1.079000   52.018000  37.869000
4542   2   1   2.28000   51.182000  37.326000
4543   2   1   -0.257000   51.391000  40.018000
4544   2   1   -0.267000   51.368000  41.595000
4545   2   1   2.179000   49.696000  39.466000
4546   2   1   2.164000   49.658000  42.118000
4547   2   1   -0.394000   49.913000  42.147000
4548   2   1   0.811000   49.08000  39.978000
4549   2   1   0.801000   49.058000  41.573000
4550   2   1   -0.378000   49.954000  39.42000
4551   2   1   -0.27000   51.302000  44.322000
4552   2   1   2.166000   49.626000  43.705000
4553   2   1   0.81000   49.007000  44.197000
4554   2   1   -0.392000   49.877000  43.716000
4555   2   1   -0.229000   51.41000  37.292000
4556   2   1   2.199000   49.71000  37.88000
4557   2   1   -0.358000   49.966000  37.85000
4558   2   1   0.848000   49.108000  37.355000
4559   2   1   0.683000   47.633000  39.404000
4560   2   1   0.668000   47.596000  42.101000
4561   2   1   0.674000   47.568000  43.657000
4562   2   1   0.706000   47.651000  37.848000
4563   2   2   5.813000   48.304000  45.359000
4564   2   2   5.864000   48.423000  36.22000
4565   2   2   3.354000   48.699000  45.284000
4566   2   2   4.381000   46.318000  45.219000
4567   2   2   3.4000   48.826000  36.283000
4568   2   2   4.429000   46.433000  36.291000
4569   2   2   1.829000   46.659000  45.247000
4570   2   2   2.746000   44.295000  45.209000
4571   2   2   1.878000   46.783000  36.244000
4572   2   2   2.801000   44.406000  36.227000
4573   2   2   4.941000   50.343000  37.52000
4574   2   2   6.878000   48.915000  37.525000
4575   2   2   0.655000   44.883000  41.759000
4576   2   2   0.666000   44.908000  39.665000
4577   2   2   0.676000   44.863000  43.991000
4578   2   2   0.715000   44.947000  37.435000
4579   2   2   4.924000   50.318000  41.87000
4580   2   2   6.863000   48.893000  39.703000
4581   2   2   6.851000   48.866000  41.901000
4582   2   2   4.937000   50.346000  39.753000
4583   2   2   6.84000   48.834000  44.08000
4584   2   2   4.901000   50.256000  44.103000
4585   2   2   2.199000   51.027000  45.394000
4586   2   2   2.252000   51.167000  36.237000
4587   2   2   -0.24000   51.245000  45.41000
4588   2   2   0.799000   48.968000  45.287000
4589   2   2   -0.189000   51.388000  36.204000
4590   2   2   0.848000   49.104000  36.264000
4591   2   2   1.173000   53.045000  37.514000
4592   2   2   3.214000   51.673000  37.578000
4593   2   2   1.132000   53.014000  41.911000
4594   2   2   3.174000   51.649000  39.731000
4595   2   2   3.16000   51.617000  41.928000
4596   2   2   1.146000   53.045000  39.769000
4597   2   2   3.175000   51.579000  44.082000
4598   2   2   1.132000   52.945000  44.167000
4599   2   1   2.496000   42.847000  43.593000
4600   2   2   1.526000   42.505000  43.955000
4601   2   1   2.505000   42.854000  42.038000
4602   2   2   1.522000   42.505000  41.726000
4603   2   1   2.524000   42.881000  39.354000
4604   2   2   1.537000   42.523000  39.642000
4605   2   1   2.54000   42.907000  37.799000
4606   2   2   1.575000   42.572000  37.414000
4607   2   2   -1.332000   49.518000  39.714000
4608   2   2   -1.345000   49.487000  41.829000
4609   2   2   -0.28000   47.212000  39.692000
4610   2   2   -0.291000   47.183000  41.791000
4611   2   2   -1.322000   49.431000  44.072000
4612   2   2   -0.267000   47.15000  44.019000
4613   2   2   -1.285000   49.533000  37.471000
4614   2   2   -0.232000   47.245000  37.464000
4615   2   2   -1.11000   51.991000  39.703000
4616   2   2   -1.124000   51.957000  41.919000
4617   2   2   -1.139000   51.915000  44.088000
4618   2   2   -1.1000   52.016000  37.537000
4619   2   1   1.332000   13.983000  41.889000
4620   2   1   2.271000   15.095000  39.756000
4621   2   1   2.278000   15.068000  41.311000
4622   2   1   1.311000   14.03000  39.169000
4623   2   1   2.326000   15.001000  44.032000
4624   2   1   1.356000   13.954000  43.452000
4625   2   1   1.315000   14.053000  37.606000
4626   2   1   2.283000   15.12000  37.042000
4627   2   1   1.723000   12.618000  39.716000
4628   2   1   1.736000   12.59000  41.298000
4629   2   1   3.722000   14.908000  39.192000
4630   2   1   3.732000   14.865000  41.829000
4631   2   1   3.207000   12.295000  41.795000
4632   2   1   4.19000   13.449000  39.7000
4633   2   1   4.199000   13.424000  41.277000
4634   2   1   3.184000   12.337000  39.174000
4635   2   1   1.785000   12.546000  43.922000
4636   2   1   3.745000   14.838000  43.405000
4637   2   1   4.23000   13.387000  43.865000
4638   2   1   3.229000   12.278000  43.375000
4639   2   1   1.719000   12.656000  37.093000
4640   2   1   3.724000   14.932000  37.616000
4641   2   1   3.178000   12.371000  37.595000
4642   2   1   4.183000   13.492000  37.114000
4643   2   1   3.656000   10.913000  39.669000
4644   2   1   3.67000   10.888000  41.249000
4645   2   1   5.641000   13.093000  39.165000
4646   2   1   5.656000   13.051000  41.78000
4647   2   1   5.115000   10.58000  41.783000
4648   2   1   6.122000   11.665000  39.655000
4649   2   1   6.132000   11.64000  41.234000
4650   2   1   5.093000   10.624000  39.093000
4651   2   1   3.701000   10.872000  43.87000
4652   2   1   5.665000   13.03000  43.347000
4653   2   1   6.146000   11.62000  43.847000
4654   2   1   5.129000   10.569000  43.34000
4655   2   1   3.632000   10.98000  37.05000
4656   2   1   5.633000   13.128000  37.597000
4657   2   1   5.078000   10.665000  37.537000
4658   2   1   6.096000   11.734000  37.046000
4659   2   1   -1.654000   10.593000  41.908000
4660   2   1   -0.735000   11.731000  39.754000
4661   2   1   -0.718000   11.701000  41.319000
4662   2   1   -1.69000   10.647000  39.157000
4663   2   1   -0.657000   11.672000  44.025000
4664   2   1   -1.619000   10.575000  43.486000
4665   2   1   -1.697000   10.688000  37.58000
4666   2   1   -0.743000   11.8000  37.051000
4667   2   1   -1.202000   9.27000  39.713000
4668   2   1   -1.181000   9.24000  41.29000
4669   2   1   0.723000   11.516000  39.182000
4670   2   1   0.753000   11.469000  41.834000
4671   2   1   0.257000   8.962000  41.841000
4672   2   1   1.213000   10.096000  39.682000
4673   2   1   1.231000   10.068000  41.277000
4674   2   1   0.22000   9.011000  39.111000
4675   2   1   -1.118000   9.206000  44.02000
4676   2   1   0.782000   11.454000  43.421000
4677   2   1   1.279000   10.05000  43.903000
4678   2   1   0.291000   8.947000  43.412000
4679   2   1   -1.218000   9.336000  36.987000
4680   2   1   0.715000   11.555000  37.596000
4681   2   1   0.209000   9.051000  37.542000
4682   2   1   1.191000   10.165000  37.058000
4683   2   1   2.652000   9.847000  39.106000
4684   2   1   2.683000   9.802000  41.805000
4685   2   1   2.707000   9.792000  43.362000
4686   2   1   2.638000   9.888000  37.55000
4687   2   2   2.383000   14.9000  45.115000
4688   2   2   2.303000   15.077000  35.954000
4689   2   2   1.804000   12.529000  45.012000
4690   2   2   4.253000   13.365000  44.955000
4691   2   2   1.709000   12.666000  36.003000
4692   2   2   4.185000   13.498000  36.024000
4693   2   2   3.717000   10.855000  44.961000
4694   2   2   6.155000   11.603000  44.937000
4695   2   2   3.622000   10.994000  35.959000
4696   2   2   6.085000   11.752000  35.956000
4697   2   2   0.322000   14.312000  37.243000
4698   2   2   1.863000   16.073000  37.287000
4699   2   2   5.419000   9.584000  41.467000
4700   2   2   5.402000   9.617000  39.37000
4701   2   2   5.435000   9.585000  43.7000
4702   2   2   5.375000   9.693000  37.14000
4703   2   2   0.318000   14.246000  41.602000
4704   2   2   1.863000   16.04000  39.454000
4705   2   2   1.883000   16.001000  41.666000
4706   2   2   0.303000   14.287000  39.479000
4707   2   2   1.899000   15.967000  43.863000
4708   2   2   0.369000   14.197000  43.839000
4709   2   2   -0.611000   11.624000  45.113000
4710   2   2   -0.736000   11.793000  35.961000
4711   2   2   -1.058000   9.227000  45.108000
4712   2   2   1.313000   10.029000  44.993000
4713   2   2   -1.194000   9.393000  35.9000
4714   2   2   1.193000   10.179000  35.968000
4715   2   2   -2.709000   10.892000  37.227000
4716   2   2   -1.139000   12.773000  37.322000
4717   2   2   -2.686000   10.791000  41.621000
4718   2   2   -1.125000   12.703000  39.465000
4719   2   2   -1.1000   12.66000  41.658000
4720   2   2   -2.712000   10.836000  39.482000
4721   2   2   -1.067000   12.652000  43.806000
4722   2   2   -2.621000   10.762000  43.877000
4723   2   1   7.596000   11.279000  43.324000
4724   2   2   7.873000   10.285000  43.678000
4725   2   1   7.596000   11.302000  41.77000
4726   2   2   7.884000   10.303000  41.45000
4727   2   1   7.58000   11.351000  39.085000
4728   2   2   7.874000   10.34000  39.361000
4729   2   1   7.562000   11.389000  37.53000
4730   2   2   7.84000   10.411000  37.135000
4731   2   2   0.555000   8.015000  39.395000
4732   2   2   0.584000   7.977000  41.515000
4733   2   2   2.984000   8.848000  39.384000
4734   2   2   3.008000   8.813000  41.486000
4735   2   2   0.641000   7.974000  43.76000
4736   2   2   3.041000   8.816000  43.717000
4737   2   2   0.541000   8.089000  37.151000
4738   2   2   2.957000   8.921000  37.156000
4739   2   2   -1.886000   8.487000  39.39000
4740   2   2   -1.854000   8.444000  41.606000
4741   2   2   -1.815000   8.405000  43.783000
4742   2   2   -1.912000   8.53000  37.22000
4743   3   1   10.271000   59.64000  41.819000
4744   3   1   10.372000   61.152000  39.733000
4745   3   1   10.387000   61.095000  41.291000
4746   3   1   10.242000   59.741000  39.103000
4747   3   1   10.446000   61.003000  43.999000
4748   3   1   10.3000   59.591000  43.382000
4749   3   1   10.234000   59.807000  37.541000
4750   3   1   10.372000   61.258000  37.027000
4751   3   1   11.431000   58.855000  39.623000
4752   3   1   11.448000   58.797000  41.205000
4753   3   1   11.677000   61.851000  39.201000
4754   3   1   11.701000   61.757000  41.842000
4755   3   1   12.803000   59.44000  41.736000
4756   3   1   12.909000   61.003000  39.693000
4757   3   1   12.923000   60.947000  41.267000
4758   3   1   12.775000   59.535000  39.113000
4759   3   1   11.495000   58.711000  43.825000
4760   3   1   11.725000   61.709000  43.42000
4761   3   1   12.956000   60.863000  43.863000
4762   3   1   12.82000   59.393000  43.315000
4763   3   1   11.418000   58.966000  37.003000
4764   3   1   11.67000   61.912000  37.624000
4765   3   1   12.758000   59.604000  37.535000
4766   3   1   12.891000   61.105000  37.096000
4767   3   1   14.013000   58.692000  39.59000
4768   3   1   14.03000   58.636000  41.17000
4769   3   1   14.253000   61.677000  39.186000
4770   3   1   14.275000   61.586000  41.799000
4771   3   1   15.352000   59.285000  41.741000
4772   3   1   15.488000   60.826000  39.661000
4773   3   1   15.502000   60.773000  41.241000
4774   3   1   15.324000   59.38000  39.047000
4775   3   1   14.044000   58.559000  43.791000
4776   3   1   14.284000   61.541000  43.371000
4777   3   1   15.502000   60.698000  43.855000
4778   3   1   15.358000   59.242000  43.298000
4779   3   1   13.969000   58.81000  36.969000
4780   3   1   14.235000   61.74000  37.614000
4781   3   1   15.297000   59.45000  37.489000
4782   3   1   15.442000   60.94000  37.047000
4783   3   1   9.976000   55.123000  41.665000
4784   3   1   10.025000   56.649000  39.561000
4785   3   1   10.043000   56.591000  41.127000
4786   3   1   9.943000   55.225000  38.914000
4787   3   1   10.087000   56.517000  43.833000
4788   3   1   10.003000   55.078000  43.242000
4789   3   1   9.93000   55.301000  37.337000
4790   3   1   10.002000   56.781000  36.859000
4791   3   1   11.168000   54.422000  39.457000
4792   3   1   11.187000   54.364000  41.033000
4793   3   1   11.315000   57.391000  39.032000
4794   3   1   11.346000   57.292000  41.683000
4795   3   1   12.489000   55.008000  41.618000
4796   3   1   12.57000   56.555000  39.514000
4797   3   1   12.589000   56.497000  41.109000
4798   3   1   12.456000   55.109000  38.892000
4799   3   1   11.234000   54.283000  43.756000
4800   3   1   11.366000   57.248000  43.269000
4801   3   1   12.615000   56.424000  43.731000
4802   3   1   12.512000   54.964000  43.187000
4803   3   1   11.147000   54.552000  36.731000
4804   3   1   11.297000   57.466000  37.447000
4805   3   1   12.44000   55.185000  37.324000
4806   3   1   12.534000   56.682000  36.893000
4807   3   1   13.869000   57.254000  38.975000
4808   3   1   13.901000   57.155000  41.672000
4809   3   1   13.914000   57.112000  43.228000
4810   3   1   13.846000   57.327000  37.419000
4811   3   1   16.824000   61.39000  43.371000
4812   3   1   16.826000   61.432000  41.815000
4813   3   1   16.805000   61.519000  39.126000
4814   3   1   16.779000   61.584000  37.569000
4815   3   1   10.633000   64.084000  41.966000
4816   3   1   10.72000   65.582000  39.87000
4817   3   1   10.73000   65.529000  41.429000
4818   3   1   10.613000   64.177000  39.246000
4819   3   1   10.79000   65.441000  44.144000
4820   3   1   10.663000   64.035000  43.528000
4821   3   1   10.621000   64.23000  37.685000
4822   3   1   10.746000   65.665000  37.154000
4823   3   1   11.804000   63.307000  39.78000
4824   3   1   11.815000   63.252000  41.36000
4825   3   1   12.01000   66.287000  39.335000
4826   3   1   12.024000   66.206000  41.979000
4827   3   1   13.164000   63.895000  41.888000
4828   3   1   13.255000   65.453000  39.841000
4829   3   1   13.262000   65.402000  41.413000
4830   3   1   13.148000   63.981000  39.276000
4831   3   1   11.865000   63.165000  43.974000
4832   3   1   12.05000   66.16000  43.558000
4833   3   1   13.298000   65.323000  44.003000
4834   3   1   13.185000   63.848000  43.459000
4835   3   1   11.813000   63.395000  37.166000
4836   3   1   12.021000   66.333000  37.757000
4837   3   1   13.147000   64.034000  37.705000
4838   3   1   13.264000   65.529000  37.25000
4839   3   1   14.386000   63.142000  39.763000
4840   3   1   14.395000   63.09000  41.329000
4841   3   1   14.589000   66.134000  39.337000
4842   3   1   14.598000   66.057000  41.94000
4843   3   1   15.742000   63.742000  41.865000
4844   3   1   15.844000   65.301000  39.828000
4845   3   1   15.849000   65.253000  41.393000
4846   3   1   15.729000   63.826000  39.259000
4847   3   1   14.413000   63.009000  43.921000
4848   3   1   14.612000   66.015000  43.506000
4849   3   1   15.858000   65.178000  43.977000
4850   3   1   15.745000   63.699000  43.437000
4851   3   1   14.369000   63.236000  37.17000
4852   3   1   14.59000   66.179000  37.772000
4853   3   1   15.715000   63.881000  37.688000
4854   3   1   15.836000   65.381000  37.244000
4855   3   1   10.876000   68.516000  42.078000
4856   3   1   10.903000   70.012000  39.962000
4857   3   1   10.909000   69.967000  41.525000
4858   3   1   10.863000   68.593000  39.349000
4859   3   1   10.977000   69.89000  44.251000
4860   3   1   10.907000   68.472000  43.643000
4861   3   1   10.883000   68.632000  37.785000
4862   3   1   10.947000   70.073000  37.238000
4863   3   1   12.076000   67.748000  39.9000
4864   3   1   12.082000   67.7000  41.481000
4865   3   1   12.17000   70.748000  39.422000
4866   3   1   12.177000   70.681000  42.069000
4867   3   1   13.403000   68.367000  42.006000
4868   3   1   13.431000   69.921000  39.94000
4869   3   1   13.434000   69.878000  41.513000
4870   3   1   13.395000   68.437000  39.391000
4871   3   1   12.133000   67.626000  44.1000
4872   3   1   12.2000   70.642000  43.649000
4873   3   1   13.468000   69.817000  44.104000
4874   3   1   13.425000   68.327000  43.578000
4875   3   1   12.106000   67.813000  37.281000
4876   3   1   12.187000   70.784000  37.842000
4877   3   1   13.408000   68.476000  37.819000
4878   3   1   13.45000   69.978000  37.348000
4879   3   1   14.652000   67.609000  39.893000
4880   3   1   14.656000   67.564000  41.457000
4881   3   1   14.741000   70.606000  39.429000
4882   3   1   14.744000   70.544000  42.037000
4883   3   1   15.974000   68.234000  41.987000
4884   3   1   16.001000   69.783000  39.934000
4885   3   1   16.002000   69.743000  41.497000
4886   3   1   15.97000   68.301000  39.386000
4887   3   1   14.678000   67.495000  44.046000
4888   3   1   14.758000   70.504000  43.601000
4889   3   1   16.012000   69.68000  44.083000
4890   3   1   15.982000   68.194000  43.553000
4891   3   1   14.66000   67.673000  37.304000
4892   3   1   14.75000   70.636000  37.865000
4893   3   1   15.974000   68.335000  37.82000
4894   3   1   16.005000   69.834000  37.347000
4895   3   1   16.937000   63.084000  37.133000
4896   3   1   16.971000   62.98000  39.739000
4897   3   1   16.98000   62.932000  41.318000
4898   3   1   16.972000   62.861000  43.923000
4899   3   1   17.19000   65.995000  39.329000
4900   3   1   17.194000   65.922000  41.929000
4901   3   1   18.468000   65.167000  39.819000
4902   3   1   18.471000   65.124000  41.393000
4903   3   1   17.194000   65.882000  43.501000
4904   3   1   18.46000   65.059000  43.987000
4905   3   1   17.185000   66.038000  37.757000
4906   3   1   18.456000   65.249000  37.227000
4907   3   1   17.239000   67.481000  39.885000
4908   3   1   17.241000   67.439000  41.449000
4909   3   1   17.303000   70.488000  39.424000
4910   3   1   17.303000   70.43000  42.029000
4911   3   1   18.55000   68.141000  41.984000
4912   3   1   18.572000   69.691000  39.931000
4913   3   1   18.571000   69.654000  41.494000
4914   3   1   18.551000   68.203000  39.383000
4915   3   1   17.244000   67.373000  44.032000
4916   3   1   17.306000   70.388000  43.594000
4917   3   1   18.57000   69.592000  44.078000
4918   3   1   18.548000   68.102000  43.548000
4919   3   1   17.24000   67.543000  37.302000
4920   3   1   17.307000   70.513000  37.858000
4921   3   1   18.553000   68.233000  37.819000
4922   3   1   18.575000   69.736000  37.346000
4923   3   1   18.308000   63.61000  41.892000
4924   3   1   18.297000   63.687000  39.216000
4925   3   1   18.302000   63.571000  43.446000
4926   3   1   18.28000   63.74000  37.662000
4927   3   1   19.819000   65.918000  39.327000
4928   3   1   19.818000   65.855000  41.947000
4929   3   1   21.165000   65.238000  39.859000
4930   3   1   21.165000   65.203000  41.408000
4931   3   1   19.811000   65.815000  43.522000
4932   3   1   21.149000   65.145000  44.077000
4933   3   1   19.817000   65.952000  37.753000
4934   3   1   21.161000   65.296000  37.192000
4935   3   1   19.835000   67.416000  39.886000
4936   3   1   19.835000   67.379000  41.457000
4937   3   1   19.863000   70.434000  39.423000
4938   3   1   19.86000   70.381000  42.029000
4939   3   1   21.137000   68.137000  41.994000
4940   3   1   21.145000   69.678000  39.935000
4941   3   1   21.142000   69.646000  41.499000
4942   3   1   21.142000   68.19000  39.39000
4943   3   1   19.825000   67.322000  44.033000
4944   3   1   19.857000   70.341000  43.594000
4945   3   1   21.134000   69.59000  44.084000
4946   3   1   21.13000   68.102000  43.56000
4947   3   1   19.839000   67.473000  37.31000
4948   3   1   19.867000   70.455000  37.858000
4949   3   1   21.145000   68.217000  37.825000
4950   3   1   21.151000   69.719000  37.35000
4951   3   1   22.473000   65.99000  39.34000
4952   3   1   22.467000   65.937000  41.978000
4953   3   1   23.81000   65.322000  39.881000
4954   3   1   23.807000   65.293000  41.434000
4955   3   1   22.459000   65.902000  43.56000
4956   3   1   23.794000   65.245000  44.112000
4957   3   1   22.474000   66.016000  37.76000
4958   3   1   23.814000   65.374000  37.206000
4959   3   1   22.453000   67.468000  39.9000
4960   3   1   22.45000   67.436000  41.473000
4961   3   1   22.427000   70.46000  39.431000
4962   3   1   22.42000   70.412000  42.037000
4963   3   1   23.734000   68.217000  42.011000
4964   3   1   23.724000   69.745000  39.947000
4965   3   1   23.721000   69.717000  41.511000
4966   3   1   23.742000   68.264000  39.403000
4967   3   1   22.437000   67.39000  44.058000
4968   3   1   22.415000   70.376000  43.603000
4969   3   1   23.711000   69.669000  44.098000
4970   3   1   23.726000   68.188000  43.577000
4971   3   1   22.459000   67.519000  37.315000
4972   3   1   22.431000   70.478000  37.864000
4973   3   1   23.746000   68.289000  37.837000
4974   3   1   23.733000   69.783000  37.36000
4975   3   1   25.099000   66.089000  39.359000
4976   3   1   25.091000   66.043000  42.002000
4977   3   1   26.432000   65.438000  39.902000
4978   3   1   26.427000   65.412000  41.456000
4979   3   1   25.082000   66.014000  43.584000
4980   3   1   26.413000   65.374000  44.138000
4981   3   1   25.101000   66.114000  37.778000
4982   3   1   26.436000   65.489000  37.222000
4983   3   1   25.059000   67.566000  39.916000
4984   3   1   25.055000   67.539000  41.491000
4985   3   1   24.996000   70.551000  39.442000
4986   3   1   24.988000   70.509000  42.049000
4987   3   1   26.325000   68.338000  42.027000
4988   3   1   26.302000   69.86000  39.96000
4989   3   1   26.297000   69.835000  41.524000
4990   3   1   26.334000   68.38000  39.417000
4991   3   1   25.041000   67.501000  44.079000
4992   3   1   24.98000   70.477000  43.615000
4993   3   1   26.286000   69.794000  44.112000
4994   3   1   26.315000   68.314000  43.593000
4995   3   1   25.066000   67.615000  37.329000
4996   3   1   25.0000   70.569000  37.876000
4997   3   1   26.336000   68.405000  37.852000
4998   3   1   26.31000   69.897000  37.372000
4999   3   1   27.701000   66.221000  39.376000
5000   3   1   27.692000   66.178000  42.021000
5001   3   1   29.027000   65.576000  39.919000
5002   3   1   29.022000   65.552000  41.473000
5003   3   1   27.682000   66.154000  43.603000
5004   3   1   29.003000   65.52000  44.158000
5005   3   1   27.702000   66.246000  37.795000
5006   3   1   29.027000   65.627000  37.235000
5007   3   1   27.652000   67.697000  39.933000
5008   3   1   27.647000   67.671000  41.507000
5009   3   1   27.566000   70.68000  39.455000
5010   3   1   27.557000   70.641000  42.061000
5011   3   1   28.908000   68.48000  42.042000
5012   3   1   28.877000   69.999000  39.973000
5013   3   1   28.872000   69.975000  41.537000
5014   3   1   28.917000   68.519000  39.431000
5015   3   1   27.63000   67.641000  44.097000
5016   3   1   27.547000   70.614000  43.626000
5017   3   1   28.856000   69.941000  44.124000
5018   3   1   28.894000   68.459000  43.608000
5019   3   1   27.655000   67.745000  37.343000
5020   3   1   27.568000   70.699000  37.889000
5021   3   1   28.915000   68.544000  37.866000
5022   3   1   28.88000   70.037000  37.386000
5023   3   1   30.284000   66.361000  39.387000
5024   3   1   30.275000   66.321000  42.04000
5025   3   1   31.598000   65.705000  39.928000
5026   3   1   31.592000   65.681000  41.492000
5027   3   1   30.259000   66.3000  43.621000
5028   3   1   31.561000   65.651000  44.186000
5029   3   1   30.279000   66.388000  37.807000
5030   3   1   31.585000   65.756000  37.235000
5031   3   1   30.233000   67.834000  39.946000
5032   3   1   30.228000   67.81000  41.521000
5033   3   1   30.137000   70.823000  39.466000
5034   3   1   30.128000   70.786000  42.073000
5035   3   1   31.486000   68.607000  42.059000
5036   3   1   31.453000   70.138000  39.981000
5037   3   1   31.447000   70.115000  41.554000
5038   3   1   31.496000   68.645000  39.44000
5039   3   1   30.202000   67.785000  44.117000
5040   3   1   30.112000   70.764000  43.638000
5041   3   1   31.413000   70.086000  44.143000
5042   3   1   31.462000   68.591000  43.632000
5043   3   1   30.227000   67.884000  37.351000
5044   3   1   30.133000   70.844000  37.902000
5045   3   1   31.484000   68.674000  37.867000
5046   3   1   31.438000   70.179000  37.391000
5047   3   3   32.867000   66.455000  39.38000
5048   3   3   32.857000   66.414000  42.071000
5049   3   3   34.123000   65.702000  39.946000
5050   3   3   34.118000   65.679000  41.494000
5051   3   3   32.836000   66.4000  43.67000
5052   3   3   34.081000   65.682000  44.331000
5053   3   3   32.857000   66.487000  37.782000
5054   3   3   34.105000   65.791000  37.11000
5055   3   3   32.816000   67.936000  39.95000
5056   3   3   32.809000   67.912000  41.542000
5057   3   3   32.714000   70.96000  39.46000
5058   3   3   32.704000   70.923000  42.104000
5059   3   3   34.015000   68.74000  42.127000
5060   3   3   33.98000   70.215000  40.0000
5061   3   3   33.974000   70.192000  41.561000
5062   3   3   34.026000   68.779000  39.398000
5063   3   3   32.758000   67.891000  44.163000
5064   3   3   32.681000   70.905000  43.682000
5065   3   3   33.915000   70.157000  44.279000
5066   3   3   33.986000   68.722000  43.691000
5067   3   3   32.784000   67.991000  37.33000
5068   3   3   32.702000   70.985000  37.882000
5069   3   3   34.009000   68.806000  37.834000
5070   3   3   33.945000   70.256000  37.284000
5071   3   2   10.521000   60.924000  45.075000
5072   3   2   10.417000   61.26000  35.946000
5073   3   2   11.508000   58.667000  44.906000
5074   3   2   12.973000   60.82000  44.944000
5075   3   2   11.404000   59.005000  35.922000
5076   3   2   12.885000   61.144000  36.015000
5077   3   2   14.053000   58.513000  44.872000
5078   3   2   15.505000   60.649000  44.936000
5079   3   2   13.954000   58.85000  35.888000
5080   3   2   15.426000   60.98000  35.966000
5081   3   2   9.295000   59.425000  37.162000
5082   3   2   9.466000   61.797000  37.271000
5083   3   2   16.203000   58.702000  41.415000
5084   3   2   16.18000   58.771000  39.307000
5085   3   2   16.197000   58.651000  43.641000
5086   3   2   16.125000   58.884000  37.083000
5087   3   2   9.309000   59.249000  41.517000
5088   3   2   9.486000   61.701000  39.446000
5089   3   2   9.507000   61.62000  41.638000
5090   3   2   9.287000   59.328000  39.399000
5091   3   2   9.534000   61.557000  43.822000
5092   3   2   9.371000   59.18000  43.754000
5093   3   2   10.14000   56.467000  44.912000
5094   3   2   10.026000   56.816000  35.777000
5095   3   2   11.259000   54.291000  44.838000
5096   3   2   12.641000   56.389000  44.812000
5097   3   2   11.146000   54.65000  35.654000
5098   3   2   12.535000   56.731000  35.812000
5099   3   2   9.02000   54.853000  36.961000
5100   3   2   9.089000   57.294000  37.132000
5101   3   2   9.049000   54.66000  41.355000
5102   3   2   9.128000   57.184000  39.278000
5103   3   2   9.153000   57.102000  41.47000
5104   3   2   9.024000   54.738000  39.21000
5105   3   2   9.169000   57.049000  43.623000
5106   3   2   9.101000   54.602000  43.605000
5107   3   2   17.66000   60.796000  43.718000
5108   3   2   17.678000   60.846000  41.495000
5109   3   2   17.658000   60.907000  39.387000
5110   3   2   17.603000   61.012000  37.165000
5111   3   2   13.323000   54.522000  39.163000
5112   3   2   13.35000   54.446000  41.281000
5113   3   2   14.733000   56.658000  39.239000
5114   3   2   14.759000   56.584000  41.343000
5115   3   2   13.374000   54.402000  43.519000
5116   3   2   14.762000   56.533000  43.568000
5117   3   2   13.293000   54.65000  36.927000
5118   3   2   14.685000   56.774000  37.017000
5119   3   2   11.115000   53.402000  39.102000
5120   3   2   11.141000   53.319000  41.31000
5121   3   2   11.179000   53.239000  43.478000
5122   3   2   11.097000   53.488000  36.923000
5123   3   2   10.873000   65.361000  45.219000
5124   3   2   10.809000   65.655000  36.074000
5125   3   2   11.882000   63.119000  45.055000
5126   3   2   13.324000   65.28000  45.084000
5127   3   2   11.814000   63.422000  36.084000
5128   3   2   13.278000   65.553000  36.169000
5129   3   2   14.417000   62.964000  45.002000
5130   3   2   15.861000   65.133000  45.058000
5131   3   2   14.359000   63.272000  36.089000
5132   3   2   15.834000   65.409000  36.163000
5133   3   2   9.684000   63.848000  37.301000
5134   3   2   9.831000   66.195000  37.386000
5135   3   2   9.672000   63.692000  41.662000
5136   3   2   9.828000   66.119000  39.574000
5137   3   2   9.843000   66.043000  41.774000
5138   3   2   9.655000   63.768000  39.54000
5139   3   2   9.868000   65.98000  43.967000
5140   3   2   9.734000   63.622000  43.899000
5141   3   2   11.089000   69.821000  45.325000
5142   3   2   11.029000   70.054000  36.159000
5143   3   2   12.161000   67.593000  45.181000
5144   3   2   13.496000   69.803000  45.185000
5145   3   2   12.125000   67.832000  36.199000
5146   3   2   13.468000   70.002000  36.266000
5147   3   2   14.693000   67.462000  45.127000
5148   3   2   16.016000   69.662000  45.165000
5149   3   2   14.668000   67.694000  36.222000
5150   3   2   16.005000   69.856000  36.265000
5151   3   2   9.96000   68.218000  37.403000
5152   3   2   10.019000   70.588000  37.448000
5153   3   2   9.928000   68.092000  41.775000
5154   3   2   10.001000   70.528000  39.658000
5155   3   2   10.013000   70.466000  41.87000
5156   3   2   9.916000   68.159000  39.64000
5157   3   2   10.039000   70.404000  44.094000
5158   3   2   9.989000   68.034000  44.013000
5159   3   2   16.932000   63.12000  36.052000
5160   3   2   16.972000   62.807000  45.004000
5161   3   2   18.457000   65.003000  45.067000
5162   3   2   18.461000   65.271000  36.145000
5163   3   2   17.249000   67.34000  45.113000
5164   3   2   18.569000   69.572000  45.16000
5165   3   2   17.245000   67.565000  36.22000
5166   3   2   18.576000   69.754000  36.264000
5167   3   2   19.128000   62.967000  43.796000
5168   3   2   19.154000   63.013000  41.58000
5169   3   2   19.099000   63.152000  37.269000
5170   3   2   19.141000   63.066000  39.485000
5171   3   2   21.132000   65.149000  45.159000
5172   3   2   21.16000   65.353000  36.111000
5173   3   2   19.819000   67.297000  45.115000
5174   3   2   21.13000   69.572000  45.166000
5175   3   2   19.84000   67.497000  36.228000
5176   3   2   21.153000   69.735000  36.268000
5177   3   2   21.203000   64.161000  41.694000
5178   3   2   21.204000   64.208000  39.53000
5179   3   2   21.198000   64.093000  43.829000
5180   3   2   21.196000   64.234000  37.394000
5181   3   2   23.782000   65.257000  45.194000
5182   3   2   23.817000   65.428000  36.126000
5183   3   2   22.427000   67.376000  45.14000
5184   3   2   23.706000   69.655000  45.18000
5185   3   2   22.46000   67.545000  36.234000
5186   3   2   23.737000   69.799000  36.278000
5187   3   2   23.845000   64.251000  41.725000
5188   3   2   23.85000   64.291000  39.555000
5189   3   2   23.84000   64.192000  43.867000
5190   3   2   23.85000   64.313000  37.415000
5191   3   2   26.402000   65.394000  45.219000
5192   3   2   26.437000   65.546000  36.141000
5193   3   2   25.03000   67.492000  45.161000
5194   3   2   26.282000   69.784000  45.193000
5195   3   2   25.067000   67.641000  36.248000
5196   3   2   26.315000   69.914000  36.291000
5197   3   2   26.477000   64.372000  41.75000
5198   3   2   26.484000   64.408000  39.576000
5199   3   2   26.47000   64.321000  43.895000
5200   3   2   26.486000   64.429000  37.432000
5201   3   2   28.992000   65.546000  45.24000
5202   3   2   29.025000   65.689000  36.155000
5203   3   2   27.619000   67.637000  45.179000
5204   3   2   28.851000   69.935000  45.206000
5205   3   2   27.654000   67.773000  36.262000
5206   3   2   28.884000   70.057000  36.304000
5207   3   2   29.075000   64.512000  41.77000
5208   3   2   29.083000   64.546000  39.592000
5209   3   2   29.063000   64.467000  43.917000
5210   3   2   29.082000   64.567000  37.446000
5211   3   2   31.537000   65.68000  45.267000
5212   3   2   31.568000   65.819000  36.155000
5213   3   2   30.186000   67.785000  45.199000
5214   3   2   31.388000   70.084000  45.225000
5215   3   2   30.22000   67.914000  36.27000
5216   3   2   31.423000   70.201000  36.309000
5217   3   2   31.624000   64.64000  41.786000
5218   3   2   31.632000   64.673000  39.603000
5219   3   2   31.607000   64.598000  43.944000
5220   3   2   31.627000   64.695000  37.445000
5221   3   4   34.055000   65.788000  45.407000
5222   3   4   34.085000   65.931000  36.037000
5223   3   4   35.046000   66.159000  39.612000
5224   3   4   35.038000   66.124000  41.848000
5225   3   4   35.031000   66.085000  44.006000
5226   3   4   35.052000   66.185000  37.453000
5227   3   4   32.733000   67.895000  45.245000
5228   3   4   33.82000   70.108000  45.355000
5229   3   4   32.767000   68.026000  36.248000
5230   3   4   33.868000   70.236000  36.205000
5231   3   4   34.957000   68.298000  41.829000
5232   3   4   34.966000   68.331000  39.692000
5233   3   4   34.897000   68.274000  44.064000
5234   3   4   34.924000   68.368000  37.457000
5235   3   4   34.881000   70.729000  39.692000
5236   3   4   34.871000   70.697000  41.894000
5237   3   4   34.848000   70.674000  44.1000
5238   3   4   34.874000   70.77000  37.493000
5239   3   4   34.133000   64.649000  41.825000
5240   3   4   34.141000   64.683000  39.584000
5241   3   4   34.085000   64.62000  44.124000
5242   3   4   34.107000   64.723000  37.285000
5243   3   1   10.992000   73.03000  42.139000
5244   3   1   11.07000   74.539000  40.025000
5245   3   1   11.071000   74.498000  41.594000
5246   3   1   10.989000   73.101000  39.416000
5247   3   1   11.085000   74.422000  44.306000
5248   3   1   11.005000   72.985000  43.706000
5249   3   1   11.006000   73.135000  37.847000
5250   3   1   11.091000   74.6000  37.309000
5251   3   1   12.2000   72.228000  39.974000
5252   3   1   12.203000   72.187000  41.558000
5253   3   1   12.356000   75.208000  39.464000
5254   3   1   12.355000   75.14000  42.184000
5255   3   1   13.523000   72.847000  42.091000
5256   3   1   13.583000   74.393000  40.012000
5257   3   1   13.582000   74.354000  41.598000
5258   3   1   13.522000   72.909000  39.462000
5259   3   1   12.233000   72.121000  44.179000
5260   3   1   12.364000   75.092000  43.75000
5261   3   1   13.595000   74.271000  44.224000
5262   3   1   13.536000   72.801000  43.671000
5263   3   1   12.229000   72.28000  37.352000
5264   3   1   12.369000   75.238000  37.897000
5265   3   1   13.534000   72.936000  37.881000
5266   3   1   13.595000   74.429000  37.385000
5267   3   1   14.771000   72.083000  39.976000
5268   3   1   14.772000   72.045000  41.543000
5269   3   1   14.885000   75.045000  39.466000
5270   3   1   14.883000   74.982000  42.164000
5271   3   1   16.071000   72.716000  42.08000
5272   3   1   16.111000   74.25000  40.007000
5273   3   1   16.11000   74.213000  41.586000
5274   3   1   16.071000   72.775000  39.457000
5275   3   1   14.785000   71.974000  44.144000
5276   3   1   14.889000   74.932000  43.72000
5277   3   1   16.112000   74.128000  44.212000
5278   3   1   16.076000   72.668000  43.653000
5279   3   1   14.78000   72.124000  37.373000
5280   3   1   14.892000   75.065000  37.909000
5281   3   1   16.076000   72.794000  37.883000
5282   3   1   16.112000   74.276000  37.379000
5283   3   1   17.324000   71.967000  39.969000
5284   3   1   17.323000   71.932000  41.535000
5285   3   1   17.391000   74.931000  39.455000
5286   3   1   17.387000   74.872000  42.157000
5287   3   1   18.605000   72.635000  42.076000
5288   3   1   18.625000   74.165000  40.0000
5289   3   1   18.622000   74.131000  41.58000
5290   3   1   18.608000   72.689000  39.451000
5291   3   1   17.326000   71.86000  44.136000
5292   3   1   17.387000   74.82000  43.713000
5293   3   1   18.62000   74.046000  44.209000
5294   3   1   18.605000   72.586000  43.649000
5295   3   1   17.327000   72.001000  37.368000
5296   3   1   17.393000   74.943000  37.897000
5297   3   1   18.611000   72.703000  37.877000
5298   3   1   18.627000   74.184000  37.369000
5299   3   1   19.87000   71.916000  39.968000
5300   3   1   19.868000   71.883000  41.534000
5301   3   1   19.884000   74.881000  39.449000
5302   3   1   19.877000   74.827000  42.153000
5303   3   1   21.135000   72.626000  42.077000
5304   3   1   21.134000   74.153000  39.998000
5305   3   1   21.13000   74.122000  41.579000
5306   3   1   21.141000   72.675000  39.452000
5307   3   1   19.865000   71.814000  44.135000
5308   3   1   19.874000   74.777000  43.71000
5309   3   1   21.126000   74.042000  44.208000
5310   3   1   21.132000   72.58000  43.65000
5311   3   1   19.875000   71.944000  37.366000
5312   3   1   19.887000   74.889000  37.89000
5313   3   1   21.145000   72.687000  37.877000
5314   3   1   21.14000   74.167000  37.368000
5315   3   1   22.417000   71.941000  39.972000
5316   3   1   22.414000   71.912000  41.54000
5317   3   1   22.378000   74.905000  39.451000
5318   3   1   22.369000   74.855000  42.152000
5319   3   1   23.671000   72.689000  42.083000
5320   3   1   23.65000   74.212000  40.003000
5321   3   1   23.644000   74.185000  41.583000
5322   3   1   23.678000   72.733000  39.459000
5323   3   1   22.407000   71.849000  44.14000
5324   3   1   22.365000   74.809000  43.709000
5325   3   1   23.639000   74.113000  44.209000
5326   3   1   23.665000   72.648000  43.657000
5327   3   1   22.425000   71.966000  37.371000
5328   3   1   22.384000   74.911000  37.892000
5329   3   1   23.683000   72.744000  37.884000
5330   3   1   23.66000   74.225000  37.376000
5331   3   1   24.97000   72.031000  39.982000
5332   3   1   24.965000   72.005000  41.549000
5333   3   1   24.888000   74.99000  39.458000
5334   3   1   24.877000   74.946000  42.155000
5335   3   1   26.216000   72.804000  42.091000
5336   3   1   26.178000   74.324000  40.011000
5337   3   1   26.172000   74.299000  41.59000
5338   3   1   26.224000   72.844000  39.47000
5339   3   1   24.957000   71.95000  44.149000
5340   3   1   24.873000   74.904000  43.711000
5341   3   1   26.167000   74.235000  44.212000
5342   3   1   26.209000   72.767000  43.665000
5343   3   1   24.978000   72.056000  37.382000
5344   3   1   24.894000   74.997000  37.901000
5345   3   1   26.229000   72.855000  37.895000
5346   3   1   26.19000   74.337000  37.388000
5347   3   1   27.528000   72.161000  39.993000
5348   3   1   27.523000   72.137000  41.56000
5349   3   1   27.416000   75.116000  39.469000
5350   3   1   27.406000   75.075000  42.16000
5351   3   1   28.771000   72.946000  42.1000
5352   3   1   28.721000   74.465000  40.021000
5353   3   1   28.715000   74.441000  41.599000
5354   3   1   28.78000   72.983000  39.481000
5355   3   1   27.511000   72.087000  44.158000
5356   3   1   27.4000   75.038000  43.716000
5357   3   1   28.706000   74.383000  44.217000
5358   3   1   28.761000   72.913000  43.674000
5359   3   1   27.534000   72.185000  37.395000
5360   3   1   27.422000   75.123000  37.912000
5361   3   1   28.781000   72.995000  37.907000
5362   3   1   28.73000   74.479000  37.401000
5363   3   1   30.093000   72.306000  40.004000
5364   3   1   30.088000   72.283000  41.571000
5365   3   1   29.96000   75.264000  39.479000
5366   3   1   29.95000   75.225000  42.168000
5367   3   1   31.337000   73.094000  42.113000
5368   3   1   31.275000   74.622000  40.026000
5369   3   1   31.27000   74.599000  41.611000
5370   3   1   31.346000   73.131000  39.488000
5371   3   1   30.069000   72.239000  44.169000
5372   3   1   29.94000   75.192000  43.723000
5373   3   1   31.251000   74.545000  44.231000
5374   3   1   31.321000   73.067000  43.693000
5375   3   1   30.092000   72.332000  37.405000
5376   3   1   29.96000   75.274000  37.923000
5377   3   1   31.34000   73.147000  37.908000
5378   3   1   31.272000   74.639000  37.406000
5379   3   3   32.673000   72.451000  40.005000
5380   3   3   32.667000   72.428000  41.588000
5381   3   3   32.513000   75.43000  39.475000
5382   3   3   32.504000   75.392000  42.188000
5383   3   3   33.877000   73.28000  42.167000
5384   3   3   33.801000   74.764000  40.043000
5385   3   3   33.795000   74.742000  41.61000
5386   3   3   33.886000   73.319000  39.448000
5387   3   3   32.632000   72.392000  44.206000
5388   3   3   32.49000   75.364000  43.753000
5389   3   3   33.774000   74.702000  44.317000
5390   3   3   33.859000   73.257000  43.733000
5391   3   3   32.653000   72.483000  37.387000
5392   3   3   32.507000   75.446000  37.91000
5393   3   3   33.876000   73.34000  37.881000
5394   3   3   33.792000   74.8000  37.333000
5395   3   2   11.128000   74.383000  45.387000
5396   3   2   11.135000   74.614000  36.228000
5397   3   2   12.242000   72.105000  45.261000
5398   3   2   13.608000   74.26000  45.306000
5399   3   2   12.241000   72.294000  36.27000
5400   3   2   13.603000   74.464000  36.304000
5401   3   2   14.796000   71.946000  45.226000
5402   3   2   16.113000   74.113000  45.294000
5403   3   2   14.787000   72.135000  36.291000
5404   3   2   16.107000   74.306000  36.297000
5405   3   2   10.08000   72.727000  37.464000
5406   3   2   10.214000   75.18000  37.562000
5407   3   2   10.043000   72.618000  41.822000
5408   3   2   10.209000   75.121000  39.724000
5409   3   2   10.208000   75.064000  41.921000
5410   3   2   10.035000   72.681000  39.704000
5411   3   2   10.204000   75.006000  44.078000
5412   3   2   10.078000   72.552000  44.06000
5413   3   2   14.936000   76.027000  41.886000
5414   3   2   12.425000   76.099000  44.141000
5415   3   2   12.407000   76.238000  39.792000
5416   3   2   14.94000   76.077000  39.787000
5417   3   2   12.435000   76.262000  37.554000
5418   3   2   14.942000   75.939000  44.113000
5419   3   2   12.406000   76.184000  41.904000
5420   3   2   14.946000   76.087000  37.559000
5421   3   2   17.331000   71.829000  45.217000
5422   3   2   18.619000   74.029000  45.291000
5423   3   2   17.329000   72.009000  36.286000
5424   3   2   18.623000   74.209000  36.287000
5425   3   2   17.417000   75.916000  41.877000
5426   3   2   17.424000   75.964000  39.774000
5427   3   2   17.416000   75.827000  44.109000
5428   3   2   17.425000   75.964000  37.541000
5429   3   2   19.865000   71.784000  45.217000
5430   3   2   21.124000   74.029000  45.289000
5431   3   2   19.877000   71.95000  36.284000
5432   3   2   21.141000   74.192000  36.286000
5433   3   2   19.878000   75.872000  41.871000
5434   3   2   19.887000   75.916000  39.766000
5435   3   2   19.872000   75.785000  44.104000
5436   3   2   19.891000   75.91000  37.532000
5437   3   2   22.403000   71.821000  45.222000
5438   3   2   23.638000   74.105000  45.291000
5439   3   2   22.426000   71.971000  36.289000
5440   3   2   23.664000   74.251000  36.294000
5441   3   2   22.343000   75.899000  41.869000
5442   3   2   22.354000   75.939000  39.766000
5443   3   2   22.337000   75.818000  44.1000
5444   3   2   22.363000   75.932000  37.534000
5445   3   2   24.95000   71.927000  45.231000
5446   3   2   26.167000   74.232000  45.294000
5447   3   2   24.979000   72.062000  36.3000
5448   3   2   26.197000   74.365000  36.306000
5449   3   2   24.834000   75.989000  41.871000
5450   3   2   24.845000   76.025000  39.772000
5451   3   2   24.828000   75.914000  44.098000
5452   3   2   24.856000   76.017000  37.543000
5453   3   2   27.504000   72.068000  45.24000
5454   3   2   28.708000   74.383000  45.299000
5455   3   2   27.535000   72.193000  36.313000
5456   3   2   28.739000   74.508000  36.319000
5457   3   2   27.355000   76.118000  41.876000
5458   3   2   27.365000   76.15000  39.781000
5459   3   2   27.349000   76.048000  44.099000
5460   3   2   27.376000   76.144000  37.556000
5461   3   2   30.059000   72.222000  45.251000
5462   3   2   31.242000   74.548000  45.313000
5463   3   2   30.089000   72.34000  36.323000
5464   3   2   31.269000   74.669000  36.324000
5465   3   2   29.896000   76.267000  41.883000
5466   3   2   29.905000   76.298000  39.791000
5467   3   2   29.885000   76.203000  44.103000
5468   3   2   29.908000   76.295000  37.569000
5469   3   4   32.623000   72.382000  45.288000
5470   3   4   33.738000   74.678000  45.398000
5471   3   4   32.647000   72.494000  36.305000
5472   3   4   33.759000   74.807000  36.252000
5473   3   4   34.828000   72.867000  41.861000
5474   3   4   34.838000   72.9000  39.744000
5475   3   4   34.785000   72.832000  44.098000
5476   3   4   34.803000   72.927000  37.506000
5477   3   4   32.462000   76.433000  41.897000
5478   3   4   32.47000   76.464000  39.793000
5479   3   4   32.434000   76.376000  44.13000
5480   3   4   32.452000   76.469000  37.559000
5481   3   4   34.666000   75.34000  39.741000
5482   3   4   34.659000   75.309000  41.931000
5483   3   4   34.655000   75.284000  44.08000
5484   3   4   34.671000   75.378000  37.587000
